Li                                      
   1.0000000000000000     
    13.7572498126678209    0.0000000000000000    0.0000000000000008
     0.0000000000000024   13.7572498126678209    0.0000000000000008
     0.0000000000000000    0.0000000000000000   13.7572498126678209
   Li
   128
Direct
     0.2895445692018025    0.3513915509072549    0.3574950883653927
     0.5758618204034663    1.0362115115461947    0.1155332741644749
     0.8916500364750157    0.1794974261823347    0.9133566487155793
     0.9808177763914249    0.3114601120554606    0.0623203030879337
     0.8639614816606506    0.7970972456552321    0.2736422376869308
     0.2086609885500948    0.4904711017142728    0.2013452474281594
     1.1933093296811834    0.1978521122517794    1.0495245333422074
     0.3589805760503031    0.3020326006244891    0.5503133037677387
     0.6440434182009048    1.0947584775913073    0.8986289043333940
     0.2446122877906707    0.4419187871924087    0.7810392135369485
    -0.0046812274569749   -0.0396581669658931   -0.0855105224141441
     0.7713466073275629    0.6107773031546256    0.2403588622931024
     0.8504736551272226    0.5207646868421827    0.4328130021291545
     0.2775479767254831    0.7648321864237031    0.7466534919976346
     0.1417995210584194    0.0015128711794792    0.6468727690148336
     0.5241321932923465    0.2922996675698136    0.9363888977868706
     0.3535916854316333    0.2810212063640417    0.8927930684768101
     0.5194047090705255    0.0745417401302628    0.5384747812670463
     0.6410078422519436    0.9370723714210438    0.3909049429372302
     0.6948933158393139    0.8636886005430888    0.1945946455841432
     0.1446329933762885    0.8157030057057434   -0.0377831426169428
     0.2863631083243053    0.7895862690502371    0.1275323047985328
     0.8217822662275704    0.2019608914769975    0.6332449134949307
     0.8950097871593948    0.7911746001025969    0.8297919085227426
     1.1443556535922612    0.2606218549930806   -0.1399022207777489
     0.2784202222589330    0.1465429847810003    0.4162730650491378
     0.5420067985988134    0.2124992364645021    1.0875827392027542
     0.2034401231190380    0.0911055508440773    1.2511146355785980
     0.6338321963659203    0.4785159361011336   -0.2026988803578659
    -0.0501836508069201    0.3768937526143396    0.2647159692821158
     1.3558425448673979   -0.0570156092145784    0.6494358114936267
     0.7005233542058544    0.0057309572219823    0.5591734034243250
     0.6706715170019296    0.4511629203327374    0.3879083812767984
     0.4913714188051375    0.5416047541106457    0.5185049371892032
    -0.0018751550281494    0.5802364064652699    0.7117221777930928
     0.3563009246277472    0.8885323335425028    0.8447495454495157
     1.0099604903898791   -0.0210081206833035    0.3057293246701155
     0.7489205140587180    0.6277283780530496    0.6465235701718499
     0.4860015342446056    0.3223435209658758    0.4130910435549054
     0.2612686166337556    0.9900830153023835    1.0372313296354534
     0.7223119607366085    0.0760829214047764    0.2545610434827414
     0.0696306002011561    1.1785210039144229    0.3736058485490115
    -0.3023859128916262    0.8520297349612925    0.6729674855903294
    -0.2121917578913515    0.8630951543622273    0.4612255527321672
     0.3835895598134595   -0.0235005560029367    0.4379121676740653
     0.4986671416053464    0.5513418965448746   -0.0732807977261513
     0.3834900374654604    0.9960863948272803    0.1868581035620215
     1.1243556221807336    0.7835824296064979    0.3003852689087682
    -0.2011565638483785    0.7247982898326805    1.0363943301472736
    -0.3258557442744043    0.6486548421346329    0.4598435305719836
     0.1789193341806983   -0.3961719390490719    0.6876674217438536
     0.4778762950362408    0.1046907343831386    0.3189372473410209
     0.7016175485929174    0.3357324681992351   -0.0369247370441370
     0.3950135695890568    0.7121030614879300    0.9438461080257644
     0.5280748127069658    0.7517184727117394    0.4150829178796898
     0.6500833003276895    0.2462485559719148    0.7889559867020941
     0.8071600701584154    0.3267106221420317    0.7918823111422538
     0.8031973800931120    0.3574691160867216    1.1233235887891473
     0.4057531786569917    0.5888805481511257    0.7408976298491227
     0.1422815345194096    0.6385022051293464    0.1015298461982419
     0.1621714568139485    0.6224493704495448    0.4597874535954157
    -0.0856076520694732    0.1837470828086086    0.2030218179430090
     0.0836456669340275    0.7856693719237463    0.7866595663271324
     0.8856242531856490   -0.0505644556040952    1.1437739872981492
     0.2337351804228940    0.2479240284232381    0.7010122513393160
     0.4565389561854221    0.0868535486477467   -0.0507168451079164
     0.4977187878929333    0.5117319078944420    0.3265243002255532
     0.5365352800268286   -0.1603438804938994    0.7877133199006368
     0.1941851455539979    0.9434278471295789    0.8095143731317230
     0.8462856795343460    0.0282141026891943    0.7696380598909758
    -0.0064246831906406    1.3403781810529183    0.7524847902676249
     0.9955539898610345    0.8105258362530184    0.4458729466692010
     0.6685353441923215    0.6827900950177321   -0.1613844359541582
     1.1178432441055928    0.8021874025074376    0.5923527911695876
     1.1099617266213919    0.9162579293574364    0.1440897812338713
     0.8741532296630936   -0.2251146604413737    0.6151717243773103
     0.9148184227004162    0.5683350653064619    0.1066493509692951
     0.2804252049753765    0.0850952529103584    0.7972639236288652
     0.1556474376847650    0.3024577303303472    0.5170608774302541
     1.3286111628577291    0.1261881152546818    0.5999248275433585
     0.5486312554697524    0.6972515139462306    0.6562413276222705
     0.5611808744068576    0.2852496368683439    0.6128480791854324
     0.6250205512902323    0.4884165159710784    0.6016427254453315
     0.4980811333853717    0.8349968370882505    0.2397682629826261
    -0.0229910809329608    0.7691359281541321    0.1115523059804819
     0.9889727461926472    0.6213040781678127    0.2935409667646984
     0.2911333448660985    0.4817968101150140    0.5644250474982111
    -0.1446054906011963    0.4390664952825794    0.6527312752707364
     0.7635780750495238    0.9041063401726529    0.9167467232958814
     0.5930621274377050    0.8482671243195677   -0.0077433126560907
     0.1380031801103009    0.9929343598570425    0.4594126475310081
     0.2592033229563740    0.4987720481259461    0.0169103686413117
     0.5312387388711591    0.8747535048773684    0.5682476761402644
     0.7222569016710293    0.5287012002662698    0.9976485816525049
     0.3357554663737147    0.2179511301854589    1.1968216200925563
    -0.0673330855512304    0.9591296093047922    0.5963326196278060
     0.7643301823610474    0.1277454923967523    0.0483080485065562
     1.0649787041383578    0.1258942256074418   -0.2304037496272183
     0.4648198452560296    0.3909867020919322    0.7350680272878525
    -0.1223760031372270    1.1262318128185871    0.4484854848327866
     0.3863053326531829    0.6018287341663754    0.1329175343844674
     1.0728456044865335    0.4434284325573426    0.6142097798031858
     0.5917376628738191    0.2644644580233754    0.2639844195927358
    -0.0470617035682784    0.6272536160454674    0.5099195079942952
    -0.2234798419978921    0.3128180302525363    0.3454763970566267
     0.2008532141765818    0.6254815838319449    0.8920986609405228
     0.8689670944763891    0.4299384851296055   -0.0570958766679025
     0.4215016288675441   -0.1331242210498649    0.0261509379511758
     0.2935870666858829    0.8331319380976691    0.5351349625550309
     1.1393935289070638    0.2906652041007914    1.2209503987330943
     0.3447114806592744    0.6783958122182741    0.5404965765173538
     1.4557274492791508    1.1607331003327335    0.7635000148923224
     1.0254191317592551    0.1736556248321774    0.5896841652569379
     1.0756955328289513    0.4600411496082092    1.0732886137086675
     0.6286258007853179    0.4316339399626896    0.1338112189504652
     0.5929518644388614    1.0277436860158156    0.7295605985109385
     0.9726603873918641    0.6366069871255200   -0.0646630231135785
     0.3218903157543588    0.6176218160324736    0.3272496342285242
     0.9227636474706519    0.3463028799328822    0.4694505374344057
     0.5817135242979951    0.6693820263222261    0.1025815279592578
     0.4049476128746161    1.4160283350898717    1.0918884391849173
     0.0399053475081933    0.0977914125194388    0.0962265055875822
     0.2701689230443954    0.8947534572414771    1.3149646657630356
     0.6688006885606385    1.1793975213336481    0.4307732924650953
     0.0642890780183260    0.4733148297321816    0.8986970141813830
     0.0923755998776854    0.4166373643894281    0.3981775887191233
     0.7317334773418112    0.3445883316153823    0.5497135010257853
     0.8280361942286155    0.5384622392927060   -0.1813015354255106

 -0.41916962E-02 -0.36576425E-03  0.39071785E-02
 -0.10015222E-02 -0.14759613E-01  0.76399954E-02
 -0.48618089E-02 -0.10423610E-01  0.91622678E-02
  0.96355247E-02  0.54011170E-02  0.25495158E-02
  0.15020416E-03  0.12688412E-01  0.41507425E-02
  0.13097743E-01 -0.64884764E-02  0.13197807E-02
 -0.10664304E-02  0.20972945E-02 -0.73393000E-02
  0.23754498E-02  0.49106173E-02 -0.13469040E-02
 -0.13737737E-02  0.52823771E-02  0.69620862E-02
 -0.10857851E-01 -0.63972175E-02  0.68711549E-02
  0.18052058E-02  0.63591016E-02 -0.17632286E-02
  0.16619470E-01 -0.34375828E-02 -0.17583911E-01
  0.17583421E-01  0.41945587E-02 -0.87236019E-02
  0.21566322E-02 -0.12829578E-01  0.12317488E-01
 -0.23760865E-02 -0.11061690E-01  0.12669796E-01
 -0.12266841E-02 -0.63402197E-02  0.80501168E-02
  0.93176262E-02  0.29609434E-02 -0.22622406E-03
  0.42978272E-02  0.71969653E-02  0.35699211E-02
 -0.93991048E-02 -0.65543371E-02  0.17572845E-02
  0.74782183E-02  0.17249060E-01  0.14863212E-02
  0.10124457E-02  0.32123832E-02 -0.26179205E-02
 -0.26710576E-02  0.34028898E-02 -0.71678461E-02
 -0.15110569E-02  0.66873963E-02 -0.69851944E-03
 -0.93163721E-02 -0.32568131E-02  0.13061129E-01
 -0.20476074E-02 -0.11772671E-01 -0.79215069E-02
  0.16963241E-01  0.42458759E-02 -0.52179708E-02
  0.99494110E-02  0.81210193E-03 -0.44872477E-02
  0.13603871E-01  0.10762082E-01 -0.21749188E-01
  0.15284518E-02  0.15285573E-01  0.11461740E-01
  0.51574417E-02  0.60274549E-03  0.18296867E-02
  0.53925159E-02 -0.29388761E-02  0.85204196E-02
  0.11381576E-01  0.28179777E-02 -0.10301810E-01
 -0.14814056E-02 -0.96094404E-02  0.74495928E-02
 -0.95388141E-02 -0.10044833E-01 -0.36359968E-02
  0.89814758E-02  0.80157606E-03 -0.36577949E-02
  0.16228130E-02 -0.13120268E-02  0.38894291E-02
 -0.12125809E-01  0.11670469E-01 -0.43871423E-03
 -0.87007361E-02 -0.59254421E-02 -0.10289620E-01
 -0.79079145E-02 -0.21617175E-01  0.46944791E-02
  0.67578222E-02  0.21750257E-01 -0.21160497E-02
  0.21007873E-02  0.23360023E-01  0.11306825E-01
 -0.19735286E-03  0.85870208E-02  0.25119922E-03
 -0.50827216E-04 -0.72043310E-02 -0.33748589E-02
  0.12358678E-01  0.49250858E-02  0.34007649E-02
  0.18591848E-02  0.14260999E-01  0.28047111E-02
 -0.78162104E-02 -0.65766634E-03  0.31749181E-02
  0.67559324E-03 -0.40478791E-02 -0.93308895E-02
 -0.21234253E-01 -0.65118640E-02 -0.36106445E-02
  0.84247435E-02  0.76567631E-02 -0.52750244E-02
 -0.49271317E-02 -0.11362062E-02  0.43387563E-02
  0.10890352E-01  0.11745489E-01  0.72105867E-02
  0.96673751E-02 -0.70050976E-02 -0.65381927E-02
 -0.47641785E-02 -0.16104484E-01 -0.31043137E-02
 -0.19908387E-01  0.16291051E-02  0.72815434E-02
  0.12481099E-01 -0.80727786E-03 -0.13639116E-02
 -0.42023531E-02 -0.59157612E-02 -0.14537270E-01
 -0.28882084E-02  0.28921690E-02  0.29800187E-02
 -0.84358275E-02  0.12046062E-01  0.72351859E-02
 -0.37703405E-02  0.94925226E-02  0.66598195E-03
 -0.51697788E-02  0.52156049E-03  0.27292667E-03
  0.97271412E-02 -0.11816234E-01 -0.10795413E-02
 -0.52051915E-03  0.18606523E-02 -0.17445796E-01
 -0.27012152E-02  0.23843340E-02 -0.14559130E-01
  0.14294356E-01 -0.56243357E-04 -0.93049976E-02
  0.14023046E-01 -0.21907039E-02  0.10075792E-01
 -0.50465894E-02  0.79063713E-02  0.12095357E-02
 -0.13345178E-02  0.16870124E-01  0.50532934E-02
 -0.11708808E-02  0.77547033E-02  0.65821773E-02
  0.32581640E-03 -0.98061547E-02  0.63372160E-02
  0.90741160E-03  0.39768416E-02 -0.88895313E-02
 -0.67881356E-02  0.51879214E-02 -0.47130471E-02
 -0.20688457E-02  0.52585379E-03  0.59387815E-02
 -0.63786971E-02 -0.12591406E-01  0.54411143E-02
 -0.21100133E-02 -0.72761809E-02 -0.11812956E-01
  0.79865507E-02  0.53740225E-02  0.90988020E-03
  0.35190147E-02 -0.70638302E-02 -0.23908446E-03
 -0.85178575E-03 -0.25952517E-02 -0.21696791E-01
  0.10114167E-01 -0.54475242E-02 -0.77403983E-02
 -0.65032812E-02 -0.12583618E-01 -0.20652037E-02
 -0.63841040E-02  0.15989841E-01  0.42769357E-02
  0.57698171E-02 -0.75691768E-02  0.35751396E-02
 -0.82010154E-02 -0.83973029E-02 -0.35124668E-02
  0.27757006E-02 -0.20041562E-03  0.30951835E-02
 -0.13747657E-01 -0.75477301E-02 -0.23517981E-02
 -0.53149129E-02 -0.60704196E-02  0.61421768E-02
 -0.98578142E-02 -0.78963921E-02 -0.74351715E-03
 -0.11314618E-01  0.50935726E-02  0.72880431E-02
  0.23640995E-02  0.39045202E-03  0.97790366E-04
  0.67311579E-02  0.39845124E-02 -0.40950282E-02
 -0.61611325E-02  0.32194604E-02  0.13473464E-01
  0.28392690E-02 -0.12588253E-01  0.97555086E-02
 -0.11170113E-01 -0.28202827E-02  0.28280265E-02
  0.49026913E-02 -0.10608578E-01  0.13984698E-01
  0.69039101E-02  0.78817214E-02  0.50246716E-02
  0.39587736E-02 -0.47675716E-03 -0.30845846E-03
 -0.99411922E-02 -0.10255056E-02 -0.55716409E-02
  0.20458611E-02 -0.60589915E-02  0.16493040E-01
 -0.11030248E-02  0.75707620E-02  0.79966684E-03
 -0.65873513E-02 -0.11219750E-01  0.24531542E-02
  0.44525389E-02  0.33727889E-02 -0.53647926E-02
  0.13063274E-03 -0.15839252E-02  0.13529407E-01
 -0.12005941E-01  0.21651788E-02  0.56510704E-02
  0.53019411E-02 -0.10252684E-01  0.11324736E-01
  0.57564641E-02  0.90440104E-02 -0.71704082E-02
 -0.28119028E-02 -0.11300518E-01  0.49939124E-02
 -0.10849791E-01 -0.14602499E-02 -0.58063903E-02
  0.12953553E-01  0.13601461E-01  0.14844788E-01
 -0.67541076E-02  0.62922174E-03  0.12125733E-01
 -0.33982693E-02  0.11563710E-02 -0.14589755E-01
  0.40581141E-02 -0.48835990E-02 -0.98692125E-02
  0.12619667E-01  0.75725634E-03  0.29073343E-02
  0.43660322E-02  0.32343946E-02  0.65998306E-02
 -0.70036557E-02  0.29572038E-02 -0.47100171E-02
  0.13688681E-02  0.18986907E-02 -0.12356622E-01
  0.26141009E-02 -0.21649058E-01  0.23288674E-02
 -0.15660353E-02 -0.45451026E-02  0.11600836E-01
  0.52230272E-02  0.12970044E-02 -0.78325911E-02
 -0.71385123E-02 -0.13536789E-02 -0.76292605E-02
  0.48159880E-02 -0.19759494E-02  0.55949699E-02
  0.34900495E-02  0.10262429E-01 -0.38796938E-02
 -0.51256392E-02 -0.19851012E-02 -0.76069059E-02
  0.45030791E-02  0.86640937E-02  0.86807362E-02
 -0.69532964E-03  0.61944662E-02 -0.40592862E-02
 -0.17461774E-01 -0.90751542E-02 -0.13216844E-01
  0.58701474E-02  0.58471765E-02 -0.42029608E-02
 -0.55834546E-02 -0.54910456E-02 -0.57969445E-02
 -0.17135330E-01  0.96174021E-02 -0.16114567E-01
 -0.42314483E-02 -0.19016953E-03 -0.45069565E-02

           1
   2.0000000000000000     
 -0.51385486E+00  0.15632986E-03  0.10718996E-02 -0.51446897E+00
  0.28893519E+00  0.35133838E+00  0.35806311E+00
  0.57571622E+00  0.34065790E-01  0.11664396E+00
  0.89094324E+00  0.17798206E+00  0.91468864E+00
  0.98221857E+00  0.31224532E+00  0.62690946E-01
  0.86398332E+00  0.79894186E+00  0.27424566E+00
  0.21056511E+00  0.48952782E+00  0.20153711E+00
  0.19315429E+00  0.19815701E+00  0.48457561E-01
  0.35932591E+00  0.30274650E+00  0.55011749E+00
  0.64384370E+00  0.95526418E-01  0.89964104E+00
  0.24303380E+00  0.44098877E+00  0.78203813E+00
  0.99558121E+00  0.96126631E+00  0.91423314E+00
  0.77376271E+00  0.61027755E+00  0.23780255E+00
  0.85302990E+00  0.52137448E+00  0.43154478E+00
  0.27786150E+00  0.76296705E+00  0.74844418E+00
  0.14145409E+00  0.99990475E+00  0.64871468E+00
  0.52395386E+00  0.29137794E+00  0.93755921E+00
  0.35494626E+00  0.28145166E+00  0.89276018E+00
  0.52002952E+00  0.75588020E-01  0.53899377E+00
  0.63964142E+00  0.93611952E+00  0.39116041E+00
  0.69598048E+00  0.86619623E+00  0.19481072E+00
  0.14478018E+00  0.81617002E+00  0.96183627E+00
  0.28597480E+00  0.79008097E+00  0.12649026E+00
  0.82156259E+00  0.20293309E+00  0.63314336E+00
  0.89365539E+00  0.79070113E+00  0.83169071E+00
  0.14405798E+00  0.25891037E+00  0.85894617E+00
  0.28088630E+00  0.14716024E+00  0.41551449E+00
  0.54345322E+00  0.21261730E+00  0.86930393E-01
  0.20541783E+00  0.92670120E-01  0.24795278E+00
  0.63405440E+00  0.48073812E+00  0.79896740E+00
  0.95056613E+00  0.37698138E+00  0.26498197E+00
  0.35662650E+00  0.94255714E+00  0.65067449E+00
  0.70217798E+00  0.61406289E-02  0.55767575E+00
  0.67045615E+00  0.44976592E+00  0.38899139E+00
  0.48998469E+00  0.54014446E+00  0.51797634E+00
  0.99943055E+00  0.58035294E+00  0.71119042E+00
  0.35653685E+00  0.88834159E+00  0.84531498E+00
  0.81976659E-02  0.98068851E+00  0.30566555E+00
  0.74765562E+00  0.62686695E+00  0.64502769E+00
  0.48485190E+00  0.31920086E+00  0.41377352E+00
  0.26225105E+00  0.99324502E+00  0.36923703E-01
  0.72261737E+00  0.79478952E-01  0.25620481E+00
  0.69601909E-01  0.17976937E+00  0.37364237E+00
  0.69760670E+00  0.85098238E+00  0.67247686E+00
  0.78960492E+00  0.86381115E+00  0.46171995E+00
  0.38385984E+00  0.97857268E+00  0.43831991E+00
  0.49753084E+00  0.55124629E+00  0.92718077E+00
  0.38358825E+00  0.99549792E+00  0.18550160E+00
  0.12126863E+00  0.78263575E+00  0.29986036E+00
  0.80006821E+00  0.72591141E+00  0.35627458E-01
  0.67342796E+00  0.64848966E+00  0.46047429E+00
  0.18050255E+00  0.60553560E+00  0.68871568E+00
  0.47928172E+00  0.10367235E+00  0.31798674E+00
  0.70092494E+00  0.33339123E+00  0.96262396E+00
  0.39211933E+00  0.71233990E+00  0.94490468E+00
  0.52988929E+00  0.75160111E+00  0.41488464E+00
  0.64947237E+00  0.24538854E+00  0.78684259E+00
  0.80674019E+00  0.32713108E+00  0.79231554E+00
  0.80197100E+00  0.35922035E+00  0.12437542E+00
  0.40520505E+00  0.59026055E+00  0.74099445E+00
  0.14152996E+00  0.63857803E+00  0.10156952E+00
  0.16358557E+00  0.62073155E+00  0.45963051E+00
  0.91431668E+00  0.18401758E+00  0.20048558E+00
  0.83252970E-01  0.78601600E+00  0.78454299E+00
  0.88770234E+00  0.94942737E+00  0.14242125E+00
  0.23577382E+00  0.24760555E+00  0.70247705E+00
  0.45580529E+00  0.88002960E-01  0.94945899E+00
  0.49752478E+00  0.51418445E+00  0.32725894E+00
  0.53636506E+00  0.84078348E+00  0.78867022E+00
  0.19423251E+00  0.94200225E+00  0.81043566E+00
  0.84641760E+00  0.28792248E-01  0.76834572E+00
  0.99258847E+00  0.34113239E+00  0.75179962E+00
  0.99525323E+00  0.81060228E+00  0.44673631E+00
  0.66760802E+00  0.68095958E+00  0.83940658E+00
  0.11753649E+00  0.80112961E+00  0.59063545E+00
  0.11112279E+00  0.91703919E+00  0.14422206E+00
  0.87466482E+00  0.77385841E+00  0.61513697E+00
  0.91469459E+00  0.56795777E+00  0.10349512E+00
  0.28189558E+00  0.84303303E-01  0.79613864E+00
  0.15470200E+00  0.30062835E+00  0.51676064E+00
  0.32768306E+00  0.12851268E+00  0.60054660E+00
  0.54947006E+00  0.69615112E+00  0.65676107E+00
  0.55998863E+00  0.28402885E+00  0.61233744E+00
  0.62542408E+00  0.48838738E+00  0.60209270E+00
  0.49608253E+00  0.83389956E+00  0.23942636E+00
  0.97623625E+00  0.76825342E+00  0.11244524E+00
  0.98753964E+00  0.62015612E+00  0.29343288E+00
  0.28948845E+00  0.48253730E+00  0.56548457E+00
  0.85573820E+00  0.43912326E+00  0.65274549E+00
  0.76455664E+00  0.90468560E+00  0.91615140E+00
  0.59216643E+00  0.84873516E+00  0.99421543E+00
  0.13841595E+00  0.99110431E+00  0.46083088E+00
  0.25757944E+00  0.49836204E+00  0.17321501E-01
  0.53195148E+00  0.87321125E+00  0.57028074E+00
  0.72326058E+00  0.52984703E+00  0.99837906E+00
  0.33633098E+00  0.21788182E+00  0.19677678E+00
  0.93122168E+00  0.95898052E+00  0.59552263E+00
  0.76462761E+00  0.12686465E+00  0.50705772E-01
  0.64818349E-01  0.12699485E+00  0.76971250E+00
  0.46386219E+00  0.38935560E+00  0.73542466E+00
  0.87827130E+00  0.12672214E+00  0.44770556E+00
  0.38632432E+00  0.60159847E+00  0.13488441E+00
  0.71100206E-01  0.44374320E+00  0.61503132E+00
  0.59250845E+00  0.26297394E+00  0.26563079E+00
  0.95377516E+00  0.62856842E+00  0.50887709E+00
  0.77611137E+00  0.31117518E+00  0.34620240E+00
  0.19927589E+00  0.62526930E+00  0.89125454E+00
  0.87085025E+00  0.43191584E+00  0.94506223E+00
  0.42051973E+00  0.86696725E+00  0.27913751E-01
  0.29309303E+00  0.83330005E+00  0.53301393E+00
  0.13998349E+00  0.28995524E+00  0.21951563E+00
  0.34654610E+00  0.67850590E+00  0.54091924E+00
  0.45636217E+00  0.16120331E+00  0.76445948E+00
  0.24400955E-01  0.17408554E+00  0.58899943E+00
  0.75894536E-01  0.46031718E+00  0.71492234E-01
  0.62900583E+00  0.42848665E+00  0.13414978E+00
  0.59272420E+00  0.27082929E-01  0.73124710E+00
  0.97341970E+00  0.63679554E+00  0.93419829E+00
  0.32085253E+00  0.61742502E+00  0.32614051E+00
  0.92346379E+00  0.34601562E+00  0.47026392E+00
  0.58222090E+00  0.67087396E+00  0.10201751E+00
  0.40420246E+00  0.41573975E+00  0.90782563E-01
  0.40559996E-01  0.99050980E-01  0.97488493E-01
  0.27006784E+00  0.89565400E+00  0.31437454E+00
  0.66626213E+00  0.17807819E+00  0.42885186E+00
  0.65142468E-01  0.47416488E+00  0.89808600E+00
  0.91563889E-01  0.41583909E+00  0.39733484E+00
  0.72924238E+00  0.34598649E+00  0.54737080E+00
  0.82742104E+00  0.53843459E+00  0.81804325E+00
  0.00000000E+00  0.00000000E+00  0.00000000E+00
  0.00000000E+00  0.00000000E+00  0.00000000E+00
  0.00000000E+00  0.00000000E+00  0.00000000E+00
  0.00000000E+00  0.00000000E+00  0.00000000E+00
  0.00000000E+00  0.00000000E+00  0.00000000E+00
  0.00000000E+00  0.00000000E+00  0.00000000E+00
  0.00000000E+00  0.00000000E+00  0.00000000E+00
  0.00000000E+00  0.00000000E+00  0.00000000E+00
  0.00000000E+00  0.00000000E+00  0.00000000E+00
  0.00000000E+00  0.00000000E+00  0.00000000E+00
  0.00000000E+00  0.00000000E+00  0.00000000E+00
  0.00000000E+00  0.00000000E+00  0.00000000E+00
  0.00000000E+00  0.00000000E+00  0.00000000E+00
  0.00000000E+00  0.00000000E+00  0.00000000E+00
  0.00000000E+00  0.00000000E+00  0.00000000E+00
  0.00000000E+00  0.00000000E+00  0.00000000E+00
  0.00000000E+00  0.00000000E+00  0.00000000E+00
  0.00000000E+00  0.00000000E+00  0.00000000E+00
  0.00000000E+00  0.00000000E+00  0.00000000E+00
  0.00000000E+00  0.00000000E+00  0.00000000E+00
  0.00000000E+00  0.00000000E+00  0.00000000E+00
  0.00000000E+00  0.00000000E+00  0.00000000E+00
  0.00000000E+00  0.00000000E+00  0.00000000E+00
  0.00000000E+00  0.00000000E+00  0.00000000E+00
  0.00000000E+00  0.00000000E+00  0.00000000E+00
  0.00000000E+00  0.00000000E+00  0.00000000E+00
  0.00000000E+00  0.00000000E+00  0.00000000E+00
  0.00000000E+00  0.00000000E+00  0.00000000E+00
  0.00000000E+00  0.00000000E+00  0.00000000E+00
  0.00000000E+00  0.00000000E+00  0.00000000E+00
  0.00000000E+00  0.00000000E+00  0.00000000E+00
  0.00000000E+00  0.00000000E+00  0.00000000E+00
  0.00000000E+00  0.00000000E+00  0.00000000E+00
  0.00000000E+00  0.00000000E+00  0.00000000E+00
  0.00000000E+00  0.00000000E+00  0.00000000E+00
  0.00000000E+00  0.00000000E+00  0.00000000E+00
  0.00000000E+00  0.00000000E+00  0.00000000E+00
  0.00000000E+00  0.00000000E+00  0.00000000E+00
  0.00000000E+00  0.00000000E+00  0.00000000E+00
  0.00000000E+00  0.00000000E+00  0.00000000E+00
  0.00000000E+00  0.00000000E+00  0.00000000E+00
  0.00000000E+00  0.00000000E+00  0.00000000E+00
  0.00000000E+00  0.00000000E+00  0.00000000E+00
  0.00000000E+00  0.00000000E+00  0.00000000E+00
  0.00000000E+00  0.00000000E+00  0.00000000E+00
  0.00000000E+00  0.00000000E+00  0.00000000E+00
  0.00000000E+00  0.00000000E+00  0.00000000E+00
  0.00000000E+00  0.00000000E+00  0.00000000E+00
  0.00000000E+00  0.00000000E+00  0.00000000E+00
  0.00000000E+00  0.00000000E+00  0.00000000E+00
  0.00000000E+00  0.00000000E+00  0.00000000E+00
  0.00000000E+00  0.00000000E+00  0.00000000E+00
  0.00000000E+00  0.00000000E+00  0.00000000E+00
  0.00000000E+00  0.00000000E+00  0.00000000E+00
  0.00000000E+00  0.00000000E+00  0.00000000E+00
  0.00000000E+00  0.00000000E+00  0.00000000E+00
  0.00000000E+00  0.00000000E+00  0.00000000E+00
  0.00000000E+00  0.00000000E+00  0.00000000E+00
  0.00000000E+00  0.00000000E+00  0.00000000E+00
  0.00000000E+00  0.00000000E+00  0.00000000E+00
  0.00000000E+00  0.00000000E+00  0.00000000E+00
  0.00000000E+00  0.00000000E+00  0.00000000E+00
  0.00000000E+00  0.00000000E+00  0.00000000E+00
  0.00000000E+00  0.00000000E+00  0.00000000E+00
  0.00000000E+00  0.00000000E+00  0.00000000E+00
  0.00000000E+00  0.00000000E+00  0.00000000E+00
  0.00000000E+00  0.00000000E+00  0.00000000E+00
  0.00000000E+00  0.00000000E+00  0.00000000E+00
  0.00000000E+00  0.00000000E+00  0.00000000E+00
  0.00000000E+00  0.00000000E+00  0.00000000E+00
  0.00000000E+00  0.00000000E+00  0.00000000E+00
  0.00000000E+00  0.00000000E+00  0.00000000E+00
  0.00000000E+00  0.00000000E+00  0.00000000E+00
  0.00000000E+00  0.00000000E+00  0.00000000E+00
  0.00000000E+00  0.00000000E+00  0.00000000E+00
  0.00000000E+00  0.00000000E+00  0.00000000E+00
  0.00000000E+00  0.00000000E+00  0.00000000E+00
  0.00000000E+00  0.00000000E+00  0.00000000E+00
  0.00000000E+00  0.00000000E+00  0.00000000E+00
  0.00000000E+00  0.00000000E+00  0.00000000E+00
  0.00000000E+00  0.00000000E+00  0.00000000E+00
  0.00000000E+00  0.00000000E+00  0.00000000E+00
  0.00000000E+00  0.00000000E+00  0.00000000E+00
  0.00000000E+00  0.00000000E+00  0.00000000E+00
  0.00000000E+00  0.00000000E+00  0.00000000E+00
  0.00000000E+00  0.00000000E+00  0.00000000E+00
  0.00000000E+00  0.00000000E+00  0.00000000E+00
  0.00000000E+00  0.00000000E+00  0.00000000E+00
  0.00000000E+00  0.00000000E+00  0.00000000E+00
  0.00000000E+00  0.00000000E+00  0.00000000E+00
  0.00000000E+00  0.00000000E+00  0.00000000E+00
  0.00000000E+00  0.00000000E+00  0.00000000E+00
  0.00000000E+00  0.00000000E+00  0.00000000E+00
  0.00000000E+00  0.00000000E+00  0.00000000E+00
  0.00000000E+00  0.00000000E+00  0.00000000E+00
  0.00000000E+00  0.00000000E+00  0.00000000E+00
  0.00000000E+00  0.00000000E+00  0.00000000E+00
  0.00000000E+00  0.00000000E+00  0.00000000E+00
  0.00000000E+00  0.00000000E+00  0.00000000E+00
  0.00000000E+00  0.00000000E+00  0.00000000E+00
  0.00000000E+00  0.00000000E+00  0.00000000E+00
  0.00000000E+00  0.00000000E+00  0.00000000E+00
  0.00000000E+00  0.00000000E+00  0.00000000E+00
  0.00000000E+00  0.00000000E+00  0.00000000E+00
  0.00000000E+00  0.00000000E+00  0.00000000E+00
  0.00000000E+00  0.00000000E+00  0.00000000E+00
  0.00000000E+00  0.00000000E+00  0.00000000E+00
  0.00000000E+00  0.00000000E+00  0.00000000E+00
  0.00000000E+00  0.00000000E+00  0.00000000E+00
  0.00000000E+00  0.00000000E+00  0.00000000E+00
  0.00000000E+00  0.00000000E+00  0.00000000E+00
  0.00000000E+00  0.00000000E+00  0.00000000E+00
  0.00000000E+00  0.00000000E+00  0.00000000E+00
  0.00000000E+00  0.00000000E+00  0.00000000E+00
  0.00000000E+00  0.00000000E+00  0.00000000E+00
  0.00000000E+00  0.00000000E+00  0.00000000E+00
  0.00000000E+00  0.00000000E+00  0.00000000E+00
  0.00000000E+00  0.00000000E+00  0.00000000E+00
  0.00000000E+00  0.00000000E+00  0.00000000E+00
  0.00000000E+00  0.00000000E+00  0.00000000E+00
  0.00000000E+00  0.00000000E+00  0.00000000E+00
  0.00000000E+00  0.00000000E+00  0.00000000E+00
  0.00000000E+00  0.00000000E+00  0.00000000E+00
  0.00000000E+00  0.00000000E+00  0.00000000E+00
  0.00000000E+00  0.00000000E+00  0.00000000E+00
  0.00000000E+00  0.00000000E+00  0.00000000E+00
  0.00000000E+00  0.00000000E+00  0.00000000E+00
  0.00000000E+00  0.00000000E+00  0.00000000E+00
  0.00000000E+00  0.00000000E+00  0.00000000E+00
  0.00000000E+00  0.00000000E+00  0.00000000E+00
  0.00000000E+00  0.00000000E+00  0.00000000E+00
  0.00000000E+00  0.00000000E+00  0.00000000E+00
  0.00000000E+00  0.00000000E+00  0.00000000E+00
  0.00000000E+00  0.00000000E+00  0.00000000E+00
  0.00000000E+00  0.00000000E+00  0.00000000E+00
  0.00000000E+00  0.00000000E+00  0.00000000E+00
  0.00000000E+00  0.00000000E+00  0.00000000E+00
  0.00000000E+00  0.00000000E+00  0.00000000E+00
  0.00000000E+00  0.00000000E+00  0.00000000E+00
  0.00000000E+00  0.00000000E+00  0.00000000E+00
  0.00000000E+00  0.00000000E+00  0.00000000E+00
  0.00000000E+00  0.00000000E+00  0.00000000E+00
  0.00000000E+00  0.00000000E+00  0.00000000E+00
  0.00000000E+00  0.00000000E+00  0.00000000E+00
  0.00000000E+00  0.00000000E+00  0.00000000E+00
  0.00000000E+00  0.00000000E+00  0.00000000E+00
  0.00000000E+00  0.00000000E+00  0.00000000E+00
  0.00000000E+00  0.00000000E+00  0.00000000E+00
  0.00000000E+00  0.00000000E+00  0.00000000E+00
  0.00000000E+00  0.00000000E+00  0.00000000E+00
  0.00000000E+00  0.00000000E+00  0.00000000E+00
  0.00000000E+00  0.00000000E+00  0.00000000E+00
  0.00000000E+00  0.00000000E+00  0.00000000E+00
  0.00000000E+00  0.00000000E+00  0.00000000E+00
  0.00000000E+00  0.00000000E+00  0.00000000E+00
  0.00000000E+00  0.00000000E+00  0.00000000E+00
  0.00000000E+00  0.00000000E+00  0.00000000E+00
  0.00000000E+00  0.00000000E+00  0.00000000E+00
  0.00000000E+00  0.00000000E+00  0.00000000E+00
  0.00000000E+00  0.00000000E+00  0.00000000E+00
  0.00000000E+00  0.00000000E+00  0.00000000E+00
  0.00000000E+00  0.00000000E+00  0.00000000E+00
  0.00000000E+00  0.00000000E+00  0.00000000E+00
  0.00000000E+00  0.00000000E+00  0.00000000E+00
  0.00000000E+00  0.00000000E+00  0.00000000E+00
  0.00000000E+00  0.00000000E+00  0.00000000E+00
  0.00000000E+00  0.00000000E+00  0.00000000E+00
  0.00000000E+00  0.00000000E+00  0.00000000E+00
  0.00000000E+00  0.00000000E+00  0.00000000E+00
  0.00000000E+00  0.00000000E+00  0.00000000E+00
  0.00000000E+00  0.00000000E+00  0.00000000E+00
  0.00000000E+00  0.00000000E+00  0.00000000E+00
  0.00000000E+00  0.00000000E+00  0.00000000E+00
  0.00000000E+00  0.00000000E+00  0.00000000E+00
  0.00000000E+00  0.00000000E+00  0.00000000E+00
  0.00000000E+00  0.00000000E+00  0.00000000E+00
  0.00000000E+00  0.00000000E+00  0.00000000E+00
  0.00000000E+00  0.00000000E+00  0.00000000E+00
  0.00000000E+00  0.00000000E+00  0.00000000E+00
  0.00000000E+00  0.00000000E+00  0.00000000E+00
  0.00000000E+00  0.00000000E+00  0.00000000E+00
  0.00000000E+00  0.00000000E+00  0.00000000E+00
  0.00000000E+00  0.00000000E+00  0.00000000E+00
  0.00000000E+00  0.00000000E+00  0.00000000E+00
  0.00000000E+00  0.00000000E+00  0.00000000E+00
  0.00000000E+00  0.00000000E+00  0.00000000E+00
  0.00000000E+00  0.00000000E+00  0.00000000E+00
  0.00000000E+00  0.00000000E+00  0.00000000E+00
  0.00000000E+00  0.00000000E+00  0.00000000E+00
  0.00000000E+00  0.00000000E+00  0.00000000E+00
  0.00000000E+00  0.00000000E+00  0.00000000E+00
  0.00000000E+00  0.00000000E+00  0.00000000E+00
  0.00000000E+00  0.00000000E+00  0.00000000E+00
  0.00000000E+00  0.00000000E+00  0.00000000E+00
  0.00000000E+00  0.00000000E+00  0.00000000E+00
  0.00000000E+00  0.00000000E+00  0.00000000E+00
  0.00000000E+00  0.00000000E+00  0.00000000E+00
  0.00000000E+00  0.00000000E+00  0.00000000E+00
  0.00000000E+00  0.00000000E+00  0.00000000E+00
  0.00000000E+00  0.00000000E+00  0.00000000E+00
  0.00000000E+00  0.00000000E+00  0.00000000E+00
  0.00000000E+00  0.00000000E+00  0.00000000E+00
  0.00000000E+00  0.00000000E+00  0.00000000E+00
  0.00000000E+00  0.00000000E+00  0.00000000E+00
  0.00000000E+00  0.00000000E+00  0.00000000E+00
  0.00000000E+00  0.00000000E+00  0.00000000E+00
  0.00000000E+00  0.00000000E+00  0.00000000E+00
  0.00000000E+00  0.00000000E+00  0.00000000E+00
  0.00000000E+00  0.00000000E+00  0.00000000E+00
  0.00000000E+00  0.00000000E+00  0.00000000E+00
  0.00000000E+00  0.00000000E+00  0.00000000E+00
  0.00000000E+00  0.00000000E+00  0.00000000E+00
  0.00000000E+00  0.00000000E+00  0.00000000E+00
  0.00000000E+00  0.00000000E+00  0.00000000E+00
  0.00000000E+00  0.00000000E+00  0.00000000E+00
  0.00000000E+00  0.00000000E+00  0.00000000E+00
  0.00000000E+00  0.00000000E+00  0.00000000E+00
  0.00000000E+00  0.00000000E+00  0.00000000E+00
  0.00000000E+00  0.00000000E+00  0.00000000E+00
  0.00000000E+00  0.00000000E+00  0.00000000E+00
  0.00000000E+00  0.00000000E+00  0.00000000E+00
  0.00000000E+00  0.00000000E+00  0.00000000E+00
  0.00000000E+00  0.00000000E+00  0.00000000E+00
  0.00000000E+00  0.00000000E+00  0.00000000E+00
  0.00000000E+00  0.00000000E+00  0.00000000E+00
  0.00000000E+00  0.00000000E+00  0.00000000E+00
  0.00000000E+00  0.00000000E+00  0.00000000E+00
  0.00000000E+00  0.00000000E+00  0.00000000E+00
  0.00000000E+00  0.00000000E+00  0.00000000E+00
  0.00000000E+00  0.00000000E+00  0.00000000E+00
  0.00000000E+00  0.00000000E+00  0.00000000E+00
  0.00000000E+00  0.00000000E+00  0.00000000E+00
  0.00000000E+00  0.00000000E+00  0.00000000E+00
  0.00000000E+00  0.00000000E+00  0.00000000E+00
  0.00000000E+00  0.00000000E+00  0.00000000E+00
  0.00000000E+00  0.00000000E+00  0.00000000E+00
  0.00000000E+00  0.00000000E+00  0.00000000E+00
  0.00000000E+00  0.00000000E+00  0.00000000E+00
  0.00000000E+00  0.00000000E+00  0.00000000E+00
  0.00000000E+00  0.00000000E+00  0.00000000E+00
  0.00000000E+00  0.00000000E+00  0.00000000E+00
  0.00000000E+00  0.00000000E+00  0.00000000E+00
  0.00000000E+00  0.00000000E+00  0.00000000E+00
  0.00000000E+00  0.00000000E+00  0.00000000E+00
  0.00000000E+00  0.00000000E+00  0.00000000E+00
  0.00000000E+00  0.00000000E+00  0.00000000E+00
  0.00000000E+00  0.00000000E+00  0.00000000E+00
  0.00000000E+00  0.00000000E+00  0.00000000E+00
  0.00000000E+00  0.00000000E+00  0.00000000E+00
  0.00000000E+00  0.00000000E+00  0.00000000E+00
  0.00000000E+00  0.00000000E+00  0.00000000E+00
  0.00000000E+00  0.00000000E+00  0.00000000E+00
  0.00000000E+00  0.00000000E+00  0.00000000E+00
  0.00000000E+00  0.00000000E+00  0.00000000E+00
  0.00000000E+00  0.00000000E+00  0.00000000E+00
  0.00000000E+00  0.00000000E+00  0.00000000E+00
