       N       E                     dE             d eps       ncg     rms          rms(c)
RMM:   1     0.110222434988E+02    0.11022E+02   -0.80642E+03   129   0.144E+02
RMM:   2    -0.157986172604E+03   -0.16901E+03   -0.15392E+03   129   0.349E+01
RMM:   3    -0.204895698634E+03   -0.46910E+02   -0.41177E+02   129   0.176E+01
RMM:   4    -0.221841465438E+03   -0.16946E+02   -0.12080E+02   129   0.112E+01
RMM:   5    -0.228807005088E+03   -0.69655E+01   -0.42256E+01   129   0.626E+00
RMM:   6    -0.231399001072E+03   -0.25920E+01   -0.16908E+01   129   0.384E+00
RMM:   7    -0.232261934686E+03   -0.86293E+00   -0.65736E+00   129   0.231E+00
RMM:   8    -0.232573229445E+03   -0.31129E+00   -0.24308E+00   129   0.137E+00
RMM:   9    -0.232666784932E+03   -0.93555E-01   -0.78904E-01   248   0.791E-01
RMM:  10    -0.232708837491E+03   -0.42053E-01   -0.39635E-01   240   0.430E-01
RMM:  11    -0.232716622249E+03   -0.77848E-02   -0.56969E-02   225   0.203E-01
RMM:  12    -0.232719190944E+03   -0.25687E-02   -0.25079E-02   198   0.107E-01    0.581E+00
RMM:  13    -0.228926820118E+03    0.37924E+01   -0.83362E+00   363   0.177E+00    0.344E+00
RMM:  14    -0.227531385577E+03    0.13954E+01   -0.12894E+00   298   0.729E-01    0.184E+00
RMM:  15    -0.227230913261E+03    0.30047E+00   -0.24266E-01   258   0.450E-01    0.918E-01
RMM:  16    -0.227188479315E+03    0.42434E-01   -0.91035E-02   258   0.285E-01    0.481E-01
RMM:  17    -0.227178015189E+03    0.10464E-01   -0.19917E-02   259   0.154E-01    0.267E-01
RMM:  18    -0.227175305698E+03    0.27095E-02   -0.54442E-03   207   0.865E-02
      1 T=   593. E= -.22803578E+03 F= -.22717531E+03 E0= -.22713969E+03  EK= 0.97270E+01 SP= -.11E+02 SK= 0.12E-02
       N       E                     dE             d eps       ncg     rms          rms(c)
RMM:   1    -0.227191042218E+03   -0.13027E-01   -0.24268E+00   258   0.238E+00    0.461E-01
RMM:   2    -0.227195552111E+03   -0.45099E-02   -0.27799E-01   258   0.854E-01    0.225E-01
RMM:   3    -0.227195604183E+03   -0.52073E-04   -0.45816E-02   258   0.346E-01    0.141E-01
RMM:   4    -0.227194562736E+03    0.10414E-02   -0.97576E-03   246   0.146E-01
      2 T=   592. E= -.22803819E+03 F= -.22719456E+03 E0= -.22716066E+03  EK= 0.97212E+01 SP= -.11E+02 SK= 0.97E-03
       N       E                     dE             d eps       ncg     rms          rms(c)
RMM:   1    -0.227214304928E+03   -0.18701E-01   -0.24872E+00   258   0.242E+00    0.460E-01
RMM:   2    -0.227214180557E+03    0.12437E-03   -0.29081E-01   258   0.877E-01    0.511E-02
RMM:   3    -0.227218891582E+03   -0.47110E-02   -0.48263E-02   258   0.359E-01    0.377E-02
RMM:   4    -0.227219770087E+03   -0.87850E-03   -0.88887E-03   243   0.146E-01
      3 T=   592. E= -.22804623E+03 F= -.22721977E+03 E0= -.22718751E+03  EK= 0.97182E+01 SP= -.11E+02 SK= 0.74E-03
       N       E                     dE             d eps       ncg     rms          rms(c)
RMM:   1    -0.227242330242E+03   -0.23439E-01   -0.25189E+00   258   0.242E+00    0.450E-01
RMM:   2    -0.227242582512E+03   -0.25227E-03   -0.29010E-01   258   0.877E-01    0.321E-02
RMM:   3    -0.227247469729E+03   -0.48872E-02   -0.48192E-02   258   0.359E-01    0.225E-02
RMM:   4    -0.227248351139E+03   -0.88141E-03   -0.88008E-03   242   0.146E-01
      4 T=   592. E= -.22805592E+03 F= -.22724835E+03 E0= -.22721792E+03  EK= 0.97197E+01 SP= -.11E+02 SK= 0.54E-03
       N       E                     dE             d eps       ncg     rms          rms(c)
RMM:   1    -0.227274195817E+03   -0.26726E-01   -0.25289E+00   258   0.242E+00    0.446E-01
RMM:   2    -0.227274462518E+03   -0.26670E-03   -0.29056E-01   258   0.877E-01    0.348E-02
RMM:   3    -0.227279375449E+03   -0.49129E-02   -0.48151E-02   258   0.359E-01    0.172E-02
RMM:   4    -0.227280255415E+03   -0.87997E-03   -0.86979E-03   243   0.145E-01
      5 T=   593. E= -.22806586E+03 F= -.22728026E+03 E0= -.22725159E+03  EK= 0.97270E+01 SP= -.11E+02 SK= 0.38E-03
       N       E                     dE             d eps       ncg     rms          rms(c)
RMM:   1    -0.227307770794E+03   -0.28395E-01   -0.25434E+00   258   0.243E+00    0.443E-01
RMM:   2    -0.227307926497E+03   -0.15570E-03   -0.29096E-01   258   0.878E-01    0.358E-02
RMM:   3    -0.227312876511E+03   -0.49500E-02   -0.48344E-02   258   0.360E-01    0.134E-02
RMM:   4    -0.227313753143E+03   -0.87663E-03   -0.85980E-03   242   0.145E-01
      6 T=   593. E= -.22807608E+03 F= -.22731375E+03 E0= -.22728672E+03  EK= 0.97380E+01 SP= -.11E+02 SK= 0.26E-03
       N       E                     dE             d eps       ncg     rms          rms(c)
RMM:   1    -0.227336700742E+03   -0.23824E-01   -0.25597E+00   258   0.243E+00    0.445E-01
RMM:   2    -0.227336398851E+03    0.30189E-03   -0.29084E-01   258   0.878E-01    0.303E-02
RMM:   3    -0.227341358051E+03   -0.49592E-02   -0.48492E-02   258   0.361E-01    0.127E-02
RMM:   4    -0.227342241916E+03   -0.88386E-03   -0.86517E-03   242   0.145E-01
      7 T=   594. E= -.22808633E+03 F= -.22734224E+03 E0= -.22731663E+03  EK= 0.97462E+01 SP= -.10E+02 SK= 0.17E-03
       N       E                     dE             d eps       ncg     rms          rms(c)
RMM:   1    -0.227354790521E+03   -0.13432E-01   -0.25772E+00   258   0.244E+00    0.452E-01
RMM:   2    -0.227353477470E+03    0.13131E-02   -0.29032E-01   258   0.878E-01    0.246E-02
RMM:   3    -0.227358445896E+03   -0.49684E-02   -0.48608E-02   258   0.361E-01    0.153E-02
RMM:   4    -0.227359325900E+03   -0.88000E-03   -0.86197E-03   242   0.145E-01
      8 T=   594. E= -.22809688E+03 F= -.22735933E+03 E0= -.22733489E+03  EK= 0.97448E+01 SP= -.10E+02 SK= 0.10E-03
       N       E                     dE             d eps       ncg     rms          rms(c)
RMM:   1    -0.227353765322E+03    0.46806E-02   -0.25932E+00   258   0.244E+00    0.466E-01
RMM:   2    -0.227350568625E+03    0.31967E-02   -0.29022E-01   258   0.878E-01    0.312E-02
RMM:   3    -0.227355569754E+03   -0.50011E-02   -0.48882E-02   258   0.362E-01    0.143E-02
RMM:   4    -0.227356441755E+03   -0.87200E-03   -0.85598E-03   239   0.144E-01
      9 T=   592. E= -.22810691E+03 F= -.22735644E+03 E0= -.22733289E+03  EK= 0.97259E+01 SP= -.10E+02 SK= 0.49E-04
       N       E                     dE             d eps       ncg     rms          rms(c)
RMM:   1    -0.227327516769E+03    0.28053E-01   -0.25940E+00   258   0.244E+00    0.477E-01
RMM:   2    -0.227322643940E+03    0.48728E-02   -0.28978E-01   258   0.876E-01    0.360E-02
RMM:   3    -0.227327675370E+03   -0.50314E-02   -0.49082E-02   258   0.363E-01    0.111E-02
RMM:   4    -0.227328543501E+03   -0.86813E-03   -0.84900E-03   237   0.144E-01
     10 T=   590. E= -.22811694E+03 F= -.22732854E+03 E0= -.22730557E+03  EK= 0.96846E+01 SP= -.10E+02 SK= 0.76E-05
     11 T=   587. E= -.23650211E+03 F= -.23566834E+03 E0= -.23566834E+03  EK= 0.96395E+01 SP= -.10E+02 SK= 0.11E-04
     12 T=   583. E= -.23650219E+03 F= -.23559715E+03 E0= -.23559715E+03  EK= 0.95731E+01 SP= -.10E+02 SK= 0.12E-03
     13 T=   577. E= -.23650190E+03 F= -.23548412E+03 E0= -.23548412E+03  EK= 0.94716E+01 SP= -.10E+02 SK= 0.48E-03
     14 T=   569. E= -.23650132E+03 F= -.23533402E+03 E0= -.23533402E+03  EK= 0.93416E+01 SP= -.11E+02 SK= 0.14E-02
     15 T=   560. E= -.23650057E+03 F= -.23515618E+03 E0= -.23515618E+03  EK= 0.91953E+01 SP= -.11E+02 SK= 0.32E-02
     16 T=   551. E= -.23649977E+03 F= -.23496258E+03 E0= -.23496258E+03  EK= 0.90475E+01 SP= -.11E+02 SK= 0.67E-02
     17 T=   543. E= -.23649907E+03 F= -.23476593E+03 E0= -.23476593E+03  EK= 0.89134E+01 SP= -.11E+02 SK= 0.13E-01
     18 T=   537. E= -.23649848E+03 F= -.23457778E+03 E0= -.23457778E+03  EK= 0.88073E+01 SP= -.11E+02 SK= 0.22E-01
     19 T=   532. E= -.23649804E+03 F= -.23440777E+03 E0= -.23440777E+03  EK= 0.87410E+01 SP= -.11E+02 SK= 0.34E-01
       N       E                     dE             d eps       ncg     rms          rms(c)
RMM:   1    -0.225570977583E+03    0.17567E+01   -0.20711E+02   129   0.213E+01
RMM:   2    -0.228102220364E+03   -0.25312E+01   -0.21697E+01   129   0.715E+00
RMM:   3    -0.228471161087E+03   -0.36894E+00   -0.34905E+00   129   0.285E+00
RMM:   4    -0.228537860925E+03   -0.66700E-01   -0.64164E-01   258   0.118E+00
RMM:   5    -0.228556293387E+03   -0.18432E-01   -0.18175E-01   258   0.567E-01    0.464E+00
RMM:   6    -0.225377061419E+03    0.31792E+01   -0.58263E+00   329   0.177E+00    0.948E-01
RMM:   7    -0.225303659125E+03    0.73402E-01   -0.15477E-01   258   0.481E-01    0.511E-01
RMM:   8    -0.225293535737E+03    0.10123E-01   -0.46759E-02   258   0.227E-01    0.274E-01
RMM:   9    -0.225294679141E+03   -0.11434E-02   -0.11580E-02   241   0.123E-01
     20 T=   528. E= -.22757673E+03 F= -.22529468E+03 E0= -.22527388E+03  EK= 0.86758E+01 SP= -.11E+02 SK= 0.50E-01
     21 T=   529. E= -.23639278E+03 F= -.23397491E+03 E0= -.23397491E+03  EK= 0.86905E+01 SP= -.11E+02 SK= 0.71E-01
     22 T=   537. E= -.23639274E+03 F= -.23391504E+03 E0= -.23391504E+03  EK= 0.88077E+01 SP= -.11E+02 SK= 0.93E-01
     23 T=   548. E= -.23639287E+03 F= -.23389397E+03 E0= -.23389397E+03  EK= 0.89893E+01 SP= -.12E+02 SK= 0.11E+00
     24 T=   562. E= -.23639324E+03 F= -.23390806E+03 E0= -.23390806E+03  EK= 0.92299E+01 SP= -.12E+02 SK= 0.13E+00
     25 T=   580. E= -.23639367E+03 F= -.23395096E+03 E0= -.23395096E+03  EK= 0.95201E+01 SP= -.12E+02 SK= 0.15E+00
     26 T=   600. E= -.23639429E+03 F= -.23401543E+03 E0= -.23401543E+03  EK= 0.98473E+01 SP= -.12E+02 SK= 0.15E+00
     27 T=   621. E= -.23639515E+03 F= -.23409305E+03 E0= -.23409305E+03  EK= 0.10196E+02 SP= -.13E+02 SK= 0.14E+00
     28 T=   643. E= -.23639623E+03 F= -.23417394E+03 E0= -.23417394E+03  EK= 0.10549E+02 SP= -.13E+02 SK= 0.13E+00
     29 T=   663. E= -.23639744E+03 F= -.23424718E+03 E0= -.23424718E+03  EK= 0.10883E+02 SP= -.13E+02 SK= 0.11E+00
       N       E                     dE             d eps       ncg     rms          rms(c)
RMM:   1    -0.224554265867E+03    0.73927E+00   -0.19864E+02   129   0.211E+01
RMM:   2    -0.227063689072E+03   -0.25094E+01   -0.21293E+01   129   0.713E+00
RMM:   3    -0.227422575809E+03   -0.35889E+00   -0.34152E+00   129   0.285E+00
RMM:   4    -0.227487267633E+03   -0.64692E-01   -0.62242E-01   258   0.117E+00
RMM:   5    -0.227504819543E+03   -0.17552E-01   -0.17327E-01   258   0.560E-01    0.410E+00
RMM:   6    -0.225215314282E+03    0.22895E+01   -0.36625E+00   316   0.142E+00    0.168E+00
RMM:   7    -0.225052215013E+03    0.16310E+00   -0.30916E-01   258   0.570E-01    0.785E-01
RMM:   8    -0.225041645795E+03    0.10569E-01   -0.88399E-02   258   0.317E-01    0.450E-01
RMM:   9    -0.225041231451E+03    0.41434E-03   -0.18437E-02   258   0.162E-01
     30 T=   680. E= -.22715534E+03 F= -.22504123E+03 E0= -.22502653E+03  EK= 0.11160E+02 SP= -.13E+02 SK= 0.82E-01
     31 T=   694. E= -.23642751E+03 F= -.23434036E+03 E0= -.23434036E+03  EK= 0.11396E+02 SP= -.14E+02 SK= 0.55E-01
     32 T=   704. E= -.23642815E+03 F= -.23434323E+03 E0= -.23434323E+03  EK= 0.11565E+02 SP= -.14E+02 SK= 0.31E-01
     33 T=   710. E= -.23642831E+03 F= -.23430698E+03 E0= -.23430698E+03  EK= 0.11647E+02 SP= -.14E+02 SK= 0.13E-01
     34 T=   709. E= -.23642793E+03 F= -.23423319E+03 E0= -.23423319E+03  EK= 0.11640E+02 SP= -.14E+02 SK= 0.22E-02
     35 T=   703. E= -.23642712E+03 F= -.23412805E+03 E0= -.23412805E+03  EK= 0.11549E+02 SP= -.14E+02 SK= 0.25E-03
     36 T=   694. E= -.23642605E+03 F= -.23400164E+03 E0= -.23400164E+03  EK= 0.11387E+02 SP= -.14E+02 SK= 0.55E-02
     37 T=   681. E= -.23642481E+03 F= -.23386610E+03 E0= -.23386610E+03  EK= 0.11172E+02 SP= -.14E+02 SK= 0.16E-01
     38 T=   666. E= -.23642370E+03 F= -.23373439E+03 E0= -.23373439E+03  EK= 0.10926E+02 SP= -.14E+02 SK= 0.29E-01
     39 T=   650. E= -.23642283E+03 F= -.23361782E+03 E0= -.23361782E+03  EK= 0.10668E+02 SP= -.14E+02 SK= 0.41E-01
     40 T=   634. E= -.23642230E+03 F= -.23352456E+03 E0= -.23352456E+03  EK= 0.10414E+02 SP= -.13E+02 SK= 0.52E-01
       N       E                     dE             d eps       ncg     rms          rms(c)
RMM:   1    -0.222641814469E+03    0.23998E+01   -0.27481E+02   129   0.247E+01
RMM:   2    -0.226128285838E+03   -0.34865E+01   -0.28675E+01   129   0.825E+00
RMM:   3    -0.226616779236E+03   -0.48849E+00   -0.45987E+00   129   0.328E+00
RMM:   4    -0.226704595136E+03   -0.87816E-01   -0.84090E-01   258   0.135E+00
RMM:   5    -0.226728701070E+03   -0.24106E-01   -0.23767E-01   258   0.647E-01    0.482E+00
RMM:   6    -0.223565729526E+03    0.31630E+01   -0.47335E+00   315   0.162E+00    0.186E+00
RMM:   7    -0.223372093926E+03    0.19364E+00   -0.40432E-01   258   0.641E-01    0.109E+00
RMM:   8    -0.223361296042E+03    0.10798E-01   -0.12322E-01   258   0.368E-01    0.777E-01
RMM:   9    -0.223363700373E+03   -0.24043E-02   -0.23757E-02   258   0.190E-01
     41 T=   616. E= -.22639388E+03 F= -.22336370E+03 E0= -.22334113E+03  EK= 0.10109E+02 SP= -.13E+02 SK= 0.60E-01
     42 T=   601. E= -.23654685E+03 F= -.23344914E+03 E0= -.23344914E+03  EK= 0.98677E+01 SP= -.13E+02 SK= 0.62E-01
     43 T=   592. E= -.23654709E+03 F= -.23346426E+03 E0= -.23346426E+03  EK= 0.97106E+01 SP= -.13E+02 SK= 0.61E-01
     44 T=   584. E= -.23654745E+03 F= -.23349930E+03 E0= -.23349930E+03  EK= 0.95788E+01 SP= -.13E+02 SK= 0.58E-01
     45 T=   577. E= -.23654785E+03 F= -.23354810E+03 E0= -.23354810E+03  EK= 0.94688E+01 SP= -.13E+02 SK= 0.52E-01
     46 T=   571. E= -.23654831E+03 F= -.23360366E+03 E0= -.23360366E+03  EK= 0.93759E+01 SP= -.12E+02 SK= 0.46E-01
     47 T=   566. E= -.23654866E+03 F= -.23365868E+03 E0= -.23365868E+03  EK= 0.92945E+01 SP= -.12E+02 SK= 0.39E-01
     48 T=   562. E= -.23654899E+03 F= -.23370692E+03 E0= -.23370692E+03  EK= 0.92201E+01 SP= -.12E+02 SK= 0.31E-01
     49 T=   557. E= -.23654920E+03 F= -.23374329E+03 E0= -.23374329E+03  EK= 0.91490E+01 SP= -.12E+02 SK= 0.23E-01
     50 T=   553. E= -.23654936E+03 F= -.23376425E+03 E0= -.23376425E+03  EK= 0.90790E+01 SP= -.12E+02 SK= 0.16E-01
       N       E                     dE             d eps       ncg     rms          rms(c)
RMM:   1    -0.222898190695E+03    0.46311E+00   -0.19603E+02   129   0.210E+01
RMM:   2    -0.225279003280E+03   -0.23808E+01   -0.20502E+01   129   0.701E+00
RMM:   3    -0.225623434481E+03   -0.34443E+00   -0.32619E+00   129   0.280E+00
RMM:   4    -0.225684628131E+03   -0.61194E-01   -0.58987E-01   258   0.114E+00
RMM:   5    -0.225701211252E+03   -0.16583E-01   -0.16355E-01   258   0.547E-01    0.416E+00
RMM:   6    -0.223411091623E+03    0.22901E+01   -0.41373E+00   325   0.149E+00    0.146E+00
RMM:   7    -0.223288018374E+03    0.12307E+00   -0.20208E-01   258   0.485E-01    0.833E-01
RMM:   8    -0.223263291497E+03    0.24727E-01   -0.85666E-02   258   0.295E-01    0.496E-01
RMM:   9    -0.223255462855E+03    0.78286E-02   -0.16582E-02   258   0.153E-01    0.361E-01
RMM:  10    -0.223249378024E+03    0.60848E-02   -0.68695E-03   220   0.957E-02    0.268E-01
RMM:  11    -0.223246177401E+03    0.32006E-02   -0.28369E-03   181   0.581E-02    0.220E-01
RMM:  12    -0.223244170550E+03    0.20069E-02   -0.16051E-03   177   0.413E-02
     51 T=   550. E= -.22601188E+03 F= -.22324417E+03 E0= -.22323032E+03  EK= 0.90235E+01 SP= -.12E+02 SK= 0.99E-02
     52 T=   548. E= -.23651212E+03 F= -.23376967E+03 E0= -.23376967E+03  EK= 0.89942E+01 SP= -.12E+02 SK= 0.50E-02
     53 T=   545. E= -.23651177E+03 F= -.23375536E+03 E0= -.23375536E+03  EK= 0.89449E+01 SP= -.12E+02 SK= 0.16E-02
     54 T=   542. E= -.23651128E+03 F= -.23372977E+03 E0= -.23372977E+03  EK= 0.89045E+01 SP= -.12E+02 SK= 0.64E-04
     55 T=   541. E= -.23651065E+03 F= -.23370010E+03 E0= -.23370010E+03  EK= 0.88809E+01 SP= -.12E+02 SK= 0.65E-03
     56 T=   541. E= -.23651012E+03 F= -.23367483E+03 E0= -.23367483E+03  EK= 0.88829E+01 SP= -.12E+02 SK= 0.35E-02
     57 T=   543. E= -.23650975E+03 F= -.23366126E+03 E0= -.23366126E+03  EK= 0.89177E+01 SP= -.12E+02 SK= 0.86E-02
     58 T=   548. E= -.23650957E+03 F= -.23366404E+03 E0= -.23366404E+03  EK= 0.89894E+01 SP= -.12E+02 SK= 0.15E-01
     59 T=   554. E= -.23650964E+03 F= -.23368471E+03 E0= -.23368471E+03  EK= 0.90986E+01 SP= -.12E+02 SK= 0.23E-01
     60 T=   563. E= -.23650985E+03 F= -.23372153E+03 E0= -.23372153E+03  EK= 0.92420E+01 SP= -.12E+02 SK= 0.31E-01
       N       E                     dE             d eps       ncg     rms          rms(c)
RMM:   1    -0.223359843891E+03   -0.11367E+00   -0.19047E+02   129   0.207E+01
RMM:   2    -0.225737074187E+03   -0.23772E+01   -0.20069E+01   129   0.694E+00
RMM:   3    -0.226076581048E+03   -0.33951E+00   -0.32015E+00   129   0.277E+00
RMM:   4    -0.226136988024E+03   -0.60407E-01   -0.58180E-01   258   0.113E+00
RMM:   5    -0.226153402073E+03   -0.16414E-01   -0.16184E-01   258   0.544E-01    0.418E+00
RMM:   6    -0.223929677350E+03    0.22237E+01   -0.43669E+00   321   0.152E+00    0.190E+00
RMM:   7    -0.223612025539E+03    0.31765E+00   -0.38201E-01   258   0.634E-01    0.109E+00
RMM:   8    -0.223594327281E+03    0.17698E-01   -0.14451E-01   258   0.373E-01    0.888E-01
RMM:   9    -0.223603268635E+03   -0.89414E-02   -0.20319E-02   259   0.182E-01    0.708E-01
RMM:  10    -0.223616421011E+03   -0.13152E-01   -0.12433E-02   254   0.130E-01    0.522E-01
RMM:  11    -0.223620592544E+03   -0.41715E-02   -0.43315E-03   186   0.874E-02    0.355E-01
RMM:  12    -0.223624756808E+03   -0.41643E-02   -0.29681E-03   180   0.736E-02    0.195E-01
RMM:  13    -0.223625545367E+03   -0.78856E-03   -0.14224E-03   175   0.500E-02
     61 T=   573. E= -.22636428E+03 F= -.22362555E+03 E0= -.22360855E+03  EK= 0.94140E+01 SP= -.12E+02 SK= 0.38E-01
     62 T=   586. E= -.23649961E+03 F= -.23383824E+03 E0= -.23383824E+03  EK= 0.96262E+01 SP= -.12E+02 SK= 0.42E-01
     63 T=   599. E= -.23650030E+03 F= -.23390336E+03 E0= -.23390336E+03  EK= 0.98335E+01 SP= -.12E+02 SK= 0.44E-01
     64 T=   611. E= -.23650100E+03 F= -.23395663E+03 E0= -.23395663E+03  EK= 0.10032E+02 SP= -.13E+02 SK= 0.42E-01
     65 T=   622. E= -.23650171E+03 F= -.23398991E+03 E0= -.23398991E+03  EK= 0.10208E+02 SP= -.13E+02 SK= 0.38E-01
     66 T=   630. E= -.23650227E+03 F= -.23399614E+03 E0= -.23399614E+03  EK= 0.10350E+02 SP= -.13E+02 SK= 0.32E-01
     67 T=   636. E= -.23650268E+03 F= -.23397036E+03 E0= -.23397036E+03  EK= 0.10449E+02 SP= -.13E+02 SK= 0.25E-01
     68 T=   639. E= -.23650292E+03 F= -.23391011E+03 E0= -.23391011E+03  EK= 0.10497E+02 SP= -.13E+02 SK= 0.18E-01
     69 T=   639. E= -.23650296E+03 F= -.23381544E+03 E0= -.23381544E+03  EK= 0.10495E+02 SP= -.13E+02 SK= 0.12E-01
     70 T=   636. E= -.23650302E+03 F= -.23368838E+03 E0= -.23368838E+03  EK= 0.10442E+02 SP= -.13E+02 SK= 0.79E-02
     71 T=   630. E= -.23650282E+03 F= -.23353189E+03 E0= -.23353189E+03  EK= 0.10344E+02 SP= -.13E+02 SK= 0.47E-02
     72 T=   622. E= -.23650242E+03 F= -.23335137E+03 E0= -.23335137E+03  EK= 0.10208E+02 SP= -.13E+02 SK= 0.28E-02
     73 T=   612. E= -.23650175E+03 F= -.23315477E+03 E0= -.23315477E+03  EK= 0.10046E+02 SP= -.13E+02 SK= 0.18E-02
     74 T=   601. E= -.23650084E+03 F= -.23295323E+03 E0= -.23295323E+03  EK= 0.98732E+01 SP= -.13E+02 SK= 0.14E-02
       N       E                     dE             d eps       ncg     rms          rms(c)
RMM:   1    -0.222329983750E+03    0.12948E+01   -0.38971E+02   129   0.289E+01
RMM:   2    -0.227181163975E+03   -0.48512E+01   -0.39565E+01   129   0.960E+00
RMM:   3    -0.227880225649E+03   -0.69906E+00   -0.65318E+00   129   0.383E+00
RMM:   4    -0.228009361694E+03   -0.12914E+00   -0.12314E+00   258   0.161E+00
RMM:   5    -0.228046176166E+03   -0.36814E-01   -0.36254E-01   258   0.776E-01    0.614E+00
RMM:   6    -0.222678457218E+03    0.53677E+01   -0.88043E+00   321   0.218E+00    0.224E+00
RMM:   7    -0.222498906505E+03    0.17955E+00   -0.74609E-01   258   0.888E-01    0.151E+00
RMM:   8    -0.222327739916E+03    0.17117E+00   -0.31355E-01   258   0.579E-01    0.562E-01
RMM:   9    -0.222318448168E+03    0.92917E-02   -0.99097E-02   258   0.326E-01    0.269E-01
RMM:  10    -0.222317112554E+03    0.13356E-02   -0.16767E-02   256   0.162E-01
     75 T=   590. E= -.22607189E+03 F= -.22231711E+03 E0= -.22229074E+03  EK= 0.96925E+01 SP= -.13E+02 SK= 0.15E-02
     76 T=   582. E= -.23566614E+03 F= -.23174790E+03 E0= -.23174790E+03  EK= 0.95582E+01 SP= -.13E+02 SK= 0.22E-02
     77 T=   577. E= -.23566563E+03 F= -.23163348E+03 E0= -.23163348E+03  EK= 0.94795E+01 SP= -.14E+02 SK= 0.34E-02
     78 T=   577. E= -.23566566E+03 F= -.23157484E+03 E0= -.23157484E+03  EK= 0.94640E+01 SP= -.14E+02 SK= 0.50E-02
     79 T=   579. E= -.23566601E+03 F= -.23157162E+03 E0= -.23157162E+03  EK= 0.95124E+01 SP= -.14E+02 SK= 0.70E-02
     80 T=   586. E= -.23566659E+03 F= -.23161817E+03 E0= -.23161817E+03  EK= 0.96183E+01 SP= -.14E+02 SK= 0.87E-02
     81 T=   595. E= -.23566721E+03 F= -.23170553E+03 E0= -.23170553E+03  EK= 0.97708E+01 SP= -.14E+02 SK= 0.97E-02
     82 T=   607. E= -.23566783E+03 F= -.23182382E+03 E0= -.23182382E+03  EK= 0.99568E+01 SP= -.14E+02 SK= 0.94E-02
     83 T=   619. E= -.23566840E+03 F= -.23196350E+03 E0= -.23196350E+03  EK= 0.10162E+02 SP= -.14E+02 SK= 0.79E-02
     84 T=   632. E= -.23566893E+03 F= -.23211624E+03 E0= -.23211624E+03  EK= 0.10374E+02 SP= -.14E+02 SK= 0.54E-02
       N       E                     dE             d eps       ncg     rms          rms(c)
RMM:   1    -0.222680444068E+03   -0.36200E+00   -0.21162E+02   129   0.217E+01
RMM:   2    -0.225323205428E+03   -0.26428E+01   -0.22527E+01   129   0.733E+00
RMM:   3    -0.225704951946E+03   -0.38175E+00   -0.36241E+00   129   0.291E+00
RMM:   4    -0.225774084990E+03   -0.69133E-01   -0.66571E-01   258   0.120E+00
RMM:   5    -0.225793090098E+03   -0.19005E-01   -0.18754E-01   258   0.578E-01    0.447E+00
RMM:   6    -0.223101104840E+03    0.26920E+01   -0.43924E+00   320   0.156E+00    0.194E+00
RMM:   7    -0.222847383793E+03    0.25372E+00   -0.34898E-01   258   0.633E-01    0.110E+00
RMM:   8    -0.222843674169E+03    0.37096E-02   -0.14449E-01   258   0.408E-01    0.456E-01
RMM:   9    -0.222843469985E+03    0.20418E-03   -0.32067E-02   258   0.209E-01    0.205E-01
RMM:  10    -0.222844803062E+03   -0.13331E-02   -0.81424E-03   229   0.114E-01
     85 T=   646. E= -.22621139E+03 F= -.22284480E+03 E0= -.22282001E+03  EK= 0.10606E+02 SP= -.14E+02 SK= 0.26E-02
     86 T=   660. E= -.23560794E+03 F= -.23244573E+03 E0= -.23244573E+03  EK= 0.10836E+02 SP= -.14E+02 SK= 0.33E-03
     87 T=   670. E= -.23560863E+03 F= -.23260661E+03 E0= -.23260661E+03  EK= 0.10996E+02 SP= -.14E+02 SK= 0.43E-03
     88 T=   676. E= -.23560920E+03 F= -.23274863E+03 E0= -.23274863E+03  EK= 0.11104E+02 SP= -.14E+02 SK= 0.41E-02
     89 T=   679. E= -.23560951E+03 F= -.23286350E+03 E0= -.23286350E+03  EK= 0.11149E+02 SP= -.14E+02 SK= 0.12E-01
     90 T=   678. E= -.23560939E+03 F= -.23294517E+03 E0= -.23294517E+03  EK= 0.11125E+02 SP= -.14E+02 SK= 0.25E-01
     91 T=   672. E= -.23560889E+03 F= -.23299163E+03 E0= -.23299163E+03  EK= 0.11030E+02 SP= -.14E+02 SK= 0.41E-01
     92 T=   662. E= -.23560799E+03 F= -.23300561E+03 E0= -.23300561E+03  EK= 0.10872E+02 SP= -.14E+02 SK= 0.59E-01
     93 T=   650. E= -.23560696E+03 F= -.23299426E+03 E0= -.23299426E+03  EK= 0.10663E+02 SP= -.13E+02 SK= 0.76E-01
     94 T=   635. E= -.23560601E+03 F= -.23296682E+03 E0= -.23296682E+03  EK= 0.10421E+02 SP= -.13E+02 SK= 0.91E-01
       N       E                     dE             d eps       ncg     rms          rms(c)
RMM:   1    -0.222997670275E+03   -0.15420E+00   -0.23450E+02   129   0.228E+01
RMM:   2    -0.225878312311E+03   -0.28806E+01   -0.24627E+01   129   0.765E+00
RMM:   3    -0.226293443351E+03   -0.41513E+00   -0.39288E+00   129   0.306E+00
RMM:   4    -0.226367605313E+03   -0.74162E-01   -0.71368E-01   258   0.125E+00
RMM:   5    -0.226387576689E+03   -0.19971E-01   -0.19703E-01   258   0.601E-01    0.456E+00
RMM:   6    -0.223611833880E+03    0.27757E+01   -0.47490E+00   322   0.161E+00    0.139E+00
RMM:   7    -0.223485132423E+03    0.12670E+00   -0.23154E-01   258   0.527E-01    0.700E-01
RMM:   8    -0.223466917915E+03    0.18215E-01   -0.92680E-02   258   0.303E-01    0.295E-01
RMM:   9    -0.223466542216E+03    0.37570E-03   -0.17189E-02   258   0.162E-01
     95 T=   617. E= -.22616392E+03 F= -.22346654E+03 E0= -.22344941E+03  EK= 0.10137E+02 SP= -.13E+02 SK= 0.10E+00
     96 T=   601. E= -.23564853E+03 F= -.23291217E+03 E0= -.23291217E+03  EK= 0.98705E+01 SP= -.13E+02 SK= 0.10E+00
     97 T=   587. E= -.23564832E+03 F= -.23289970E+03 E0= -.23289970E+03  EK= 0.96355E+01 SP= -.12E+02 SK= 0.10E+00
     98 T=   574. E= -.23564826E+03 F= -.23289779E+03 E0= -.23289779E+03  EK= 0.94207E+01 SP= -.12E+02 SK= 0.96E-01
     99 T=   562. E= -.23564828E+03 F= -.23290700E+03 E0= -.23290700E+03  EK= 0.92311E+01 SP= -.12E+02 SK= 0.85E-01
    100 T=   552. E= -.23564843E+03 F= -.23292679E+03 E0= -.23292679E+03  EK= 0.90694E+01 SP= -.12E+02 SK= 0.72E-01
    101 T=   544. E= -.23564860E+03 F= -.23295535E+03 E0= -.23295535E+03  EK= 0.89365E+01 SP= -.12E+02 SK= 0.57E-01
    102 T=   538. E= -.23564861E+03 F= -.23299038E+03 E0= -.23299038E+03  EK= 0.88324E+01 SP= -.12E+02 SK= 0.42E-01
    103 T=   533. E= -.23564861E+03 F= -.23303050E+03 E0= -.23303050E+03  EK= 0.87567E+01 SP= -.11E+02 SK= 0.28E-01
    104 T=   531. E= -.23564860E+03 F= -.23307460E+03 E0= -.23307460E+03  EK= 0.87094E+01 SP= -.11E+02 SK= 0.16E-01
    105 T=   529. E= -.23564859E+03 F= -.23312168E+03 E0= -.23312168E+03  EK= 0.86899E+01 SP= -.11E+02 SK= 0.77E-02
    106 T=   530. E= -.23564860E+03 F= -.23317056E+03 E0= -.23317056E+03  EK= 0.86971E+01 SP= -.11E+02 SK= 0.22E-02
    107 T=   532. E= -.23564869E+03 F= -.23321956E+03 E0= -.23321956E+03  EK= 0.87291E+01 SP= -.11E+02 SK= 0.56E-04
    108 T=   535. E= -.23564889E+03 F= -.23326603E+03 E0= -.23326603E+03  EK= 0.87826E+01 SP= -.11E+02 SK= 0.95E-03
    109 T=   539. E= -.23564927E+03 F= -.23330562E+03 E0= -.23330562E+03  EK= 0.88523E+01 SP= -.11E+02 SK= 0.45E-02
    110 T=   544. E= -.23564974E+03 F= -.23333224E+03 E0= -.23333224E+03  EK= 0.89311E+01 SP= -.11E+02 SK= 0.10E-01
    111 T=   549. E= -.23565018E+03 F= -.23333882E+03 E0= -.23333882E+03  EK= 0.90107E+01 SP= -.11E+02 SK= 0.17E-01
    112 T=   553. E= -.23565060E+03 F= -.23331897E+03 E0= -.23331897E+03  EK= 0.90831E+01 SP= -.11E+02 SK= 0.25E-01
    113 T=   557. E= -.23565089E+03 F= -.23326770E+03 E0= -.23326770E+03  EK= 0.91422E+01 SP= -.12E+02 SK= 0.34E-01
    114 T=   559. E= -.23565102E+03 F= -.23318238E+03 E0= -.23318238E+03  EK= 0.91839E+01 SP= -.12E+02 SK= 0.43E-01
    115 T=   561. E= -.23565102E+03 F= -.23306339E+03 E0= -.23306339E+03  EK= 0.92075E+01 SP= -.12E+02 SK= 0.53E-01
    116 T=   561. E= -.23565080E+03 F= -.23291390E+03 E0= -.23291390E+03  EK= 0.92155E+01 SP= -.12E+02 SK= 0.63E-01
    117 T=   561. E= -.23565043E+03 F= -.23274014E+03 E0= -.23274014E+03  EK= 0.92137E+01 SP= -.12E+02 SK= 0.75E-01
    118 T=   561. E= -.23564989E+03 F= -.23255087E+03 E0= -.23255087E+03  EK= 0.92108E+01 SP= -.12E+02 SK= 0.87E-01
    119 T=   561. E= -.23564925E+03 F= -.23235688E+03 E0= -.23235688E+03  EK= 0.92176E+01 SP= -.13E+02 SK= 0.10E+00
    120 T=   563. E= -.23564867E+03 F= -.23217000E+03 E0= -.23217000E+03  EK= 0.92460E+01 SP= -.13E+02 SK= 0.11E+00
    121 T=   567. E= -.23564817E+03 F= -.23200118E+03 E0= -.23200118E+03  EK= 0.93069E+01 SP= -.13E+02 SK= 0.13E+00
    122 T=   573. E= -.23564779E+03 F= -.23185967E+03 E0= -.23185967E+03  EK= 0.94093E+01 SP= -.13E+02 SK= 0.14E+00
    123 T=   582. E= -.23564764E+03 F= -.23175206E+03 E0= -.23175206E+03  EK= 0.95585E+01 SP= -.14E+02 SK= 0.15E+00
    124 T=   594. E= -.23564773E+03 F= -.23168173E+03 E0= -.23168173E+03  EK= 0.97560E+01 SP= -.14E+02 SK= 0.16E+00
    125 T=   609. E= -.23564793E+03 F= -.23164928E+03 E0= -.23164928E+03  EK= 0.99992E+01 SP= -.14E+02 SK= 0.15E+00
    126 T=   626. E= -.23564831E+03 F= -.23165342E+03 E0= -.23165342E+03  EK= 0.10282E+02 SP= -.14E+02 SK= 0.15E+00
    127 T=   645. E= -.23564900E+03 F= -.23169077E+03 E0= -.23169077E+03  EK= 0.10594E+02 SP= -.15E+02 SK= 0.13E+00
    128 T=   665. E= -.23564988E+03 F= -.23175506E+03 E0= -.23175506E+03  EK= 0.10920E+02 SP= -.15E+02 SK= 0.11E+00
    129 T=   685. E= -.23565098E+03 F= -.23183781E+03 E0= -.23183781E+03  EK= 0.11242E+02 SP= -.15E+02 SK= 0.81E-01
       N       E                     dE             d eps       ncg     rms          rms(c)
RMM:   1    -0.224055719138E+03   -0.58880E+00   -0.95072E+02   129   0.439E+01
RMM:   2    -0.235375939279E+03   -0.11320E+02   -0.92688E+01   129   0.143E+01
RMM:   3    -0.237135414976E+03   -0.17595E+01   -0.15832E+01   129   0.566E+00
RMM:   4    -0.237476009964E+03   -0.34059E+00   -0.31646E+00   258   0.253E+00
RMM:   5    -0.237578454009E+03   -0.10244E+00   -0.99805E-01   260   0.124E+00    0.915E+00
RMM:   6    -0.223939210050E+03    0.13639E+02   -0.21069E+01   314   0.330E+00    0.372E+00
RMM:   7    -0.222625811908E+03    0.13134E+01   -0.21600E+00   258   0.145E+00    0.179E+00
RMM:   8    -0.222455268414E+03    0.17054E+00   -0.82775E-01   258   0.875E-01    0.860E-01
RMM:   9    -0.222437344723E+03    0.17924E-01   -0.16392E-01   259   0.483E-01    0.352E-01
RMM:  10    -0.222439196040E+03   -0.18513E-02   -0.44989E-02   260   0.252E-01    0.163E-01
RMM:  11    -0.222439949793E+03   -0.75375E-03   -0.10654E-02   233   0.127E-01
    130 T=   702. E= -.22618174E+03 F= -.22243995E+03 E0= -.22242503E+03  EK= 0.11521E+02 SP= -.15E+02 SK= 0.52E-01
    131 T=   717. E= -.23568402E+03 F= -.23202520E+03 E0= -.23202520E+03  EK= 0.11765E+02 SP= -.15E+02 SK= 0.27E-01
    132 T=   728. E= -.23568460E+03 F= -.23210941E+03 E0= -.23210941E+03  EK= 0.11956E+02 SP= -.16E+02 SK= 0.83E-02
    133 T=   735. E= -.23568469E+03 F= -.23217640E+03 E0= -.23217640E+03  EK= 0.12068E+02 SP= -.16E+02 SK= 0.17E-03
    134 T=   737. E= -.23568440E+03 F= -.23222594E+03 E0= -.23222594E+03  EK= 0.12094E+02 SP= -.16E+02 SK= 0.45E-02
    135 T=   733. E= -.23568379E+03 F= -.23226105E+03 E0= -.23226105E+03  EK= 0.12038E+02 SP= -.15E+02 SK= 0.22E-01
    136 T=   725. E= -.23568306E+03 F= -.23228644E+03 E0= -.23228644E+03  EK= 0.11907E+02 SP= -.15E+02 SK= 0.50E-01
    137 T=   713. E= -.23568226E+03 F= -.23230656E+03 E0= -.23230656E+03  EK= 0.11711E+02 SP= -.15E+02 SK= 0.86E-01
    138 T=   698. E= -.23568150E+03 F= -.23232539E+03 E0= -.23232539E+03  EK= 0.11463E+02 SP= -.15E+02 SK= 0.13E+00
    139 T=   681. E= -.23568087E+03 F= -.23234594E+03 E0= -.23234594E+03  EK= 0.11177E+02 SP= -.15E+02 SK= 0.17E+00
    140 T=   662. E= -.23568037E+03 F= -.23236976E+03 E0= -.23236976E+03  EK= 0.10864E+02 SP= -.14E+02 SK= 0.20E+00
    141 T=   642. E= -.23567998E+03 F= -.23239729E+03 E0= -.23239729E+03  EK= 0.10537E+02 SP= -.14E+02 SK= 0.23E+00
    142 T=   622. E= -.23567961E+03 F= -.23242832E+03 E0= -.23242832E+03  EK= 0.10207E+02 SP= -.14E+02 SK= 0.25E+00
    143 T=   602. E= -.23567938E+03 F= -.23246273E+03 E0= -.23246273E+03  EK= 0.98810E+01 SP= -.13E+02 SK= 0.26E+00
    144 T=   583. E= -.23567925E+03 F= -.23250021E+03 E0= -.23250021E+03  EK= 0.95687E+01 SP= -.13E+02 SK= 0.26E+00
    145 T=   565. E= -.23567915E+03 F= -.23254056E+03 E0= -.23254056E+03  EK= 0.92763E+01 SP= -.13E+02 SK= 0.24E+00
    146 T=   549. E= -.23567914E+03 F= -.23258394E+03 E0= -.23258394E+03  EK= 0.90094E+01 SP= -.12E+02 SK= 0.22E+00
    147 T=   534. E= -.23567909E+03 F= -.23263072E+03 E0= -.23263072E+03  EK= 0.87729E+01 SP= -.12E+02 SK= 0.19E+00
    148 T=   522. E= -.23567903E+03 F= -.23268219E+03 E0= -.23268219E+03  EK= 0.85710E+01 SP= -.12E+02 SK= 0.15E+00
    149 T=   512. E= -.23567899E+03 F= -.23274031E+03 E0= -.23274031E+03  EK= 0.84080E+01 SP= -.11E+02 SK= 0.12E+00
    150 T=   505. E= -.23567891E+03 F= -.23280732E+03 E0= -.23280732E+03  EK= 0.82873E+01 SP= -.11E+02 SK= 0.85E-01
    151 T=   500. E= -.23567884E+03 F= -.23288550E+03 E0= -.23288550E+03  EK= 0.82120E+01 SP= -.11E+02 SK= 0.55E-01
    152 T=   499. E= -.23567885E+03 F= -.23297656E+03 E0= -.23297656E+03  EK= 0.81837E+01 SP= -.11E+02 SK= 0.31E-01
    153 T=   500. E= -.23567891E+03 F= -.23308063E+03 E0= -.23308063E+03  EK= 0.82022E+01 SP= -.11E+02 SK= 0.14E-01
    154 T=   503. E= -.23567908E+03 F= -.23319612E+03 E0= -.23319612E+03  EK= 0.82653E+01 SP= -.11E+02 SK= 0.37E-02
    155 T=   510. E= -.23567932E+03 F= -.23331952E+03 E0= -.23331952E+03  EK= 0.83683E+01 SP= -.11E+02 SK= 0.52E-04
    156 T=   518. E= -.23567959E+03 F= -.23344597E+03 E0= -.23344597E+03  EK= 0.85050E+01 SP= -.11E+02 SK= 0.18E-02
    157 T=   528. E= -.23567983E+03 F= -.23357015E+03 E0= -.23357015E+03  EK= 0.86682E+01 SP= -.11E+02 SK= 0.75E-02
    158 T=   539. E= -.23568001E+03 F= -.23368726E+03 E0= -.23368726E+03  EK= 0.88508E+01 SP= -.11E+02 SK= 0.16E-01
    159 T=   551. E= -.23568020E+03 F= -.23379356E+03 E0= -.23379356E+03  EK= 0.90460E+01 SP= -.11E+02 SK= 0.24E-01
    160 T=   563. E= -.23568039E+03 F= -.23388601E+03 E0= -.23388601E+03  EK= 0.92473E+01 SP= -.11E+02 SK= 0.33E-01
    161 T=   576. E= -.23568050E+03 F= -.23396223E+03 E0= -.23396223E+03  EK= 0.94486E+01 SP= -.11E+02 SK= 0.39E-01
    162 T=   587. E= -.23568075E+03 F= -.23402085E+03 E0= -.23402085E+03  EK= 0.96441E+01 SP= -.11E+02 SK= 0.43E-01
    163 T=   599. E= -.23568091E+03 F= -.23406047E+03 E0= -.23406047E+03  EK= 0.98279E+01 SP= -.11E+02 SK= 0.44E-01
    164 T=   609. E= -.23568104E+03 F= -.23408053E+03 E0= -.23408053E+03  EK= 0.99949E+01 SP= -.12E+02 SK= 0.43E-01
    165 T=   618. E= -.23568119E+03 F= -.23408111E+03 E0= -.23408111E+03  EK= 0.10141E+02 SP= -.12E+02 SK= 0.40E-01
    166 T=   625. E= -.23568135E+03 F= -.23406228E+03 E0= -.23406228E+03  EK= 0.10261E+02 SP= -.12E+02 SK= 0.35E-01
    167 T=   631. E= -.23568148E+03 F= -.23402410E+03 E0= -.23402410E+03  EK= 0.10352E+02 SP= -.12E+02 SK= 0.28E-01
    168 T=   634. E= -.23568161E+03 F= -.23396683E+03 E0= -.23396683E+03  EK= 0.10412E+02 SP= -.12E+02 SK= 0.22E-01
    169 T=   636. E= -.23568156E+03 F= -.23389100E+03 E0= -.23389100E+03  EK= 0.10438E+02 SP= -.12E+02 SK= 0.16E-01
    170 T=   636. E= -.23568144E+03 F= -.23379876E+03 E0= -.23379876E+03  EK= 0.10433E+02 SP= -.12E+02 SK= 0.11E-01
    171 T=   633. E= -.23568120E+03 F= -.23369349E+03 E0= -.23369349E+03  EK= 0.10398E+02 SP= -.12E+02 SK= 0.72E-02
    172 T=   630. E= -.23568103E+03 F= -.23357925E+03 E0= -.23357925E+03  EK= 0.10340E+02 SP= -.12E+02 SK= 0.43E-02
    173 T=   625. E= -.23568096E+03 F= -.23345904E+03 E0= -.23345904E+03  EK= 0.10261E+02 SP= -.12E+02 SK= 0.24E-02
    174 T=   619. E= -.23568101E+03 F= -.23333443E+03 E0= -.23333443E+03  EK= 0.10167E+02 SP= -.13E+02 SK= 0.12E-02
       N       E                     dE             d eps       ncg     rms          rms(c)
RMM:   1    -0.221453333454E+03    0.98586E+00   -0.10235E+03   129   0.455E+01
RMM:   2    -0.233896130134E+03   -0.12443E+02   -0.99336E+01   129   0.147E+01
RMM:   3    -0.235816416380E+03   -0.19203E+01   -0.17033E+01   129   0.574E+00
RMM:   4    -0.236201853101E+03   -0.38544E+00   -0.35325E+00   259   0.259E+00
RMM:   5    -0.236328577025E+03   -0.12672E+00   -0.12212E+00   265   0.127E+00    0.862E+00
RMM:   6    -0.224576655778E+03    0.11752E+02   -0.21694E+01   308   0.329E+00    0.362E+00
RMM:   7    -0.223570798577E+03    0.10059E+01   -0.17735E+00   258   0.140E+00    0.177E+00
RMM:   8    -0.223438492382E+03    0.13231E+00   -0.52534E-01   258   0.730E-01    0.830E-01
RMM:   9    -0.223426535036E+03    0.11957E-01   -0.13730E-01   259   0.413E-01    0.354E-01
RMM:  10    -0.223426728971E+03   -0.19394E-03   -0.30735E-02   264   0.217E-01    0.142E-01
RMM:  11    -0.223427128944E+03   -0.39997E-03   -0.74379E-03   217   0.106E-01
    175 T=   612. E= -.22592117E+03 F= -.22342713E+03 E0= -.22340555E+03  EK= 0.10042E+02 SP= -.13E+02 SK= 0.63E-03
    176 T=   605. E= -.23571278E+03 F= -.23308552E+03 E0= -.23308552E+03  EK= 0.99243E+01 SP= -.13E+02 SK= 0.40E-03
    177 T=   598. E= -.23571267E+03 F= -.23296095E+03 E0= -.23296095E+03  EK= 0.98133E+01 SP= -.13E+02 SK= 0.34E-03
    178 T=   591. E= -.23571244E+03 F= -.23283422E+03 E0= -.23283422E+03  EK= 0.97005E+01 SP= -.13E+02 SK= 0.45E-03
    179 T=   584. E= -.23571209E+03 F= -.23271000E+03 E0= -.23271000E+03  EK= 0.95933E+01 SP= -.13E+02 SK= 0.77E-03
    180 T=   579. E= -.23571174E+03 F= -.23259444E+03 E0= -.23259444E+03  EK= 0.95003E+01 SP= -.13E+02 SK= 0.14E-02
    181 T=   574. E= -.23571150E+03 F= -.23249373E+03 E0= -.23249373E+03  EK= 0.94296E+01 SP= -.13E+02 SK= 0.26E-02
    182 T=   572. E= -.23571157E+03 F= -.23241227E+03 E0= -.23241227E+03  EK= 0.93871E+01 SP= -.13E+02 SK= 0.44E-02
    183 T=   571. E= -.23571194E+03 F= -.23235033E+03 E0= -.23235033E+03  EK= 0.93740E+01 SP= -.13E+02 SK= 0.67E-02
    184 T=   572. E= -.23571248E+03 F= -.23230383E+03 E0= -.23230383E+03  EK= 0.93869E+01 SP= -.13E+02 SK= 0.96E-02
    185 T=   574. E= -.23571312E+03 F= -.23226582E+03 E0= -.23226582E+03  EK= 0.94188E+01 SP= -.13E+02 SK= 0.13E-01
    186 T=   576. E= -.23571371E+03 F= -.23222835E+03 E0= -.23222835E+03  EK= 0.94613E+01 SP= -.13E+02 SK= 0.16E-01
    187 T=   579. E= -.23571416E+03 F= -.23218428E+03 E0= -.23218428E+03  EK= 0.95065E+01 SP= -.13E+02 SK= 0.19E-01
    188 T=   582. E= -.23571440E+03 F= -.23212868E+03 E0= -.23212868E+03  EK= 0.95484E+01 SP= -.13E+02 SK= 0.22E-01
       N       E                     dE             d eps       ncg     rms          rms(c)
RMM:   1    -0.221157662325E+03    0.22691E+01   -0.34804E+02   129   0.277E+01
RMM:   2    -0.225418231714E+03   -0.42606E+01   -0.35696E+01   129   0.916E+00
RMM:   3    -0.226032457965E+03   -0.61423E+00   -0.57692E+00   129   0.366E+00
RMM:   4    -0.226143777618E+03   -0.11132E+00   -0.10678E+00   258   0.151E+00
RMM:   5    -0.226175142326E+03   -0.31365E-01   -0.30897E-01   258   0.726E-01    0.543E+00
RMM:   6    -0.222282043431E+03    0.38931E+01   -0.59293E+00   313   0.178E+00    0.221E+00
RMM:   7    -0.221912021227E+03    0.37002E+00   -0.69798E-01   258   0.817E-01    0.103E+00
RMM:   8    -0.221860461075E+03    0.51560E-01   -0.24711E-01   258   0.494E-01    0.426E-01
RMM:   9    -0.221857728773E+03    0.27323E-02   -0.46509E-02   258   0.258E-01    0.198E-01
RMM:  10    -0.221858040631E+03   -0.31186E-03   -0.12218E-02   259   0.137E-01
    189 T=   583. E= -.22552712E+03 F= -.22185804E+03 E0= -.22184622E+03  EK= 0.95700E+01 SP= -.13E+02 SK= 0.25E-01
    190 T=   585. E= -.23484212E+03 F= -.23109321E+03 E0= -.23109321E+03  EK= 0.96013E+01 SP= -.13E+02 SK= 0.28E-01
    191 T=   587. E= -.23484194E+03 F= -.23101512E+03 E0= -.23101512E+03  EK= 0.96405E+01 SP= -.13E+02 SK= 0.31E-01
    192 T=   590. E= -.23484175E+03 F= -.23093424E+03 E0= -.23093424E+03  EK= 0.96820E+01 SP= -.14E+02 SK= 0.33E-01
    193 T=   593. E= -.23484154E+03 F= -.23085551E+03 E0= -.23085551E+03  EK= 0.97297E+01 SP= -.14E+02 SK= 0.34E-01
    194 T=   596. E= -.23484138E+03 F= -.23078359E+03 E0= -.23078359E+03  EK= 0.97872E+01 SP= -.14E+02 SK= 0.35E-01
    195 T=   600. E= -.23484134E+03 F= -.23072219E+03 E0= -.23072219E+03  EK= 0.98569E+01 SP= -.14E+02 SK= 0.35E-01
    196 T=   605. E= -.23484155E+03 F= -.23067348E+03 E0= -.23067348E+03  EK= 0.99393E+01 SP= -.14E+02 SK= 0.35E-01
    197 T=   611. E= -.23484189E+03 F= -.23063650E+03 E0= -.23063650E+03  EK= 0.10032E+02 SP= -.14E+02 SK= 0.32E-01
    198 T=   617. E= -.23484217E+03 F= -.23060840E+03 E0= -.23060840E+03  EK= 0.10129E+02 SP= -.14E+02 SK= 0.29E-01
    199 T=   623. E= -.23484244E+03 F= -.23058657E+03 E0= -.23058657E+03  EK= 0.10226E+02 SP= -.15E+02 SK= 0.25E-01
    200 T=   629. E= -.23484255E+03 F= -.23056929E+03 E0= -.23056929E+03  EK= 0.10319E+02 SP= -.15E+02 SK= 0.20E-01
    201 T=   634. E= -.23484248E+03 F= -.23055681E+03 E0= -.23055681E+03  EK= 0.10404E+02 SP= -.15E+02 SK= 0.15E-01
    202 T=   639. E= -.23484224E+03 F= -.23055168E+03 E0= -.23055168E+03  EK= 0.10483E+02 SP= -.15E+02 SK= 0.10E-01
    203 T=   643. E= -.23484204E+03 F= -.23055779E+03 E0= -.23055779E+03  EK= 0.10557E+02 SP= -.15E+02 SK= 0.60E-02
    204 T=   647. E= -.23484195E+03 F= -.23057820E+03 E0= -.23057820E+03  EK= 0.10625E+02 SP= -.15E+02 SK= 0.25E-02
    205 T=   651. E= -.23484205E+03 F= -.23061396E+03 E0= -.23061396E+03  EK= 0.10688E+02 SP= -.15E+02 SK= 0.44E-03
    206 T=   654. E= -.23484230E+03 F= -.23066327E+03 E0= -.23066327E+03  EK= 0.10741E+02 SP= -.15E+02 SK= 0.11E-03
    207 T=   657. E= -.23484266E+03 F= -.23072169E+03 E0= -.23072169E+03  EK= 0.10778E+02 SP= -.15E+02 SK= 0.19E-02
    208 T=   657. E= -.23484289E+03 F= -.23078338E+03 E0= -.23078338E+03  EK= 0.10793E+02 SP= -.15E+02 SK= 0.61E-02
    209 T=   657. E= -.23484304E+03 F= -.23084330E+03 E0= -.23084330E+03  EK= 0.10780E+02 SP= -.15E+02 SK= 0.13E-01
    210 T=   654. E= -.23484312E+03 F= -.23089729E+03 E0= -.23089729E+03  EK= 0.10736E+02 SP= -.15E+02 SK= 0.21E-01
    211 T=   649. E= -.23484304E+03 F= -.23094206E+03 E0= -.23094206E+03  EK= 0.10658E+02 SP= -.15E+02 SK= 0.31E-01
    212 T=   643. E= -.23484277E+03 F= -.23097581E+03 E0= -.23097581E+03  EK= 0.10549E+02 SP= -.14E+02 SK= 0.42E-01
    213 T=   634. E= -.23484223E+03 F= -.23099932E+03 E0= -.23099932E+03  EK= 0.10413E+02 SP= -.14E+02 SK= 0.52E-01
    214 T=   625. E= -.23484155E+03 F= -.23101611E+03 E0= -.23101611E+03  EK= 0.10257E+02 SP= -.14E+02 SK= 0.60E-01
    215 T=   615. E= -.23484080E+03 F= -.23103186E+03 E0= -.23103186E+03  EK= 0.10092E+02 SP= -.14E+02 SK= 0.66E-01
    216 T=   605. E= -.23484021E+03 F= -.23105348E+03 E0= -.23105348E+03  EK= 0.99291E+01 SP= -.14E+02 SK= 0.70E-01
    217 T=   596. E= -.23483972E+03 F= -.23108664E+03 E0= -.23108664E+03  EK= 0.97780E+01 SP= -.14E+02 SK= 0.70E-01
    218 T=   588. E= -.23483951E+03 F= -.23113495E+03 E0= -.23113495E+03  EK= 0.96457E+01 SP= -.13E+02 SK= 0.68E-01
    219 T=   581. E= -.23483955E+03 F= -.23119858E+03 E0= -.23119858E+03  EK= 0.95351E+01 SP= -.13E+02 SK= 0.63E-01
    220 T=   575. E= -.23483978E+03 F= -.23127450E+03 E0= -.23127450E+03  EK= 0.94454E+01 SP= -.13E+02 SK= 0.57E-01
    221 T=   571. E= -.23484017E+03 F= -.23135706E+03 E0= -.23135706E+03  EK= 0.93728E+01 SP= -.13E+02 SK= 0.50E-01
    222 T=   567. E= -.23484055E+03 F= -.23143858E+03 E0= -.23143858E+03  EK= 0.93109E+01 SP= -.13E+02 SK= 0.43E-01
    223 T=   564. E= -.23484088E+03 F= -.23151116E+03 E0= -.23151116E+03  EK= 0.92531E+01 SP= -.13E+02 SK= 0.35E-01
    224 T=   560. E= -.23484109E+03 F= -.23156786E+03 E0= -.23156786E+03  EK= 0.91938E+01 SP= -.12E+02 SK= 0.28E-01
    225 T=   556. E= -.23484106E+03 F= -.23160414E+03 E0= -.23160414E+03  EK= 0.91297E+01 SP= -.12E+02 SK= 0.20E-01
    226 T=   552. E= -.23484083E+03 F= -.23161915E+03 E0= -.23161915E+03  EK= 0.90614E+01 SP= -.12E+02 SK= 0.14E-01
    227 T=   548. E= -.23484040E+03 F= -.23161583E+03 E0= -.23161583E+03  EK= 0.89930E+01 SP= -.12E+02 SK= 0.78E-02
    228 T=   544. E= -.23483977E+03 F= -.23160051E+03 E0= -.23160051E+03  EK= 0.89321E+01 SP= -.12E+02 SK= 0.33E-02
    229 T=   541. E= -.23483913E+03 F= -.23158230E+03 E0= -.23158230E+03  EK= 0.88888E+01 SP= -.12E+02 SK= 0.59E-03
    230 T=   541. E= -.23483853E+03 F= -.23157121E+03 E0= -.23157121E+03  EK= 0.88736E+01 SP= -.12E+02 SK= 0.90E-04
    231 T=   542. E= -.23483800E+03 F= -.23157670E+03 E0= -.23157670E+03  EK= 0.88963E+01 SP= -.12E+02 SK= 0.19E-02
    232 T=   546. E= -.23483765E+03 F= -.23160657E+03 E0= -.23160657E+03  EK= 0.89641E+01 SP= -.12E+02 SK= 0.57E-02
    233 T=   553. E= -.23483751E+03 F= -.23166584E+03 E0= -.23166584E+03  EK= 0.90811E+01 SP= -.12E+02 SK= 0.11E-01
    234 T=   563. E= -.23483764E+03 F= -.23175609E+03 E0= -.23175609E+03  EK= 0.92469E+01 SP= -.12E+02 SK= 0.17E-01
    235 T=   576. E= -.23483804E+03 F= -.23187494E+03 E0= -.23187494E+03  EK= 0.94563E+01 SP= -.12E+02 SK= 0.21E-01
    236 T=   591. E= -.23483867E+03 F= -.23201641E+03 E0= -.23201641E+03  EK= 0.96992E+01 SP= -.13E+02 SK= 0.24E-01
    237 T=   607. E= -.23483950E+03 F= -.23217198E+03 E0= -.23217198E+03  EK= 0.99620E+01 SP= -.13E+02 SK= 0.24E-01
    238 T=   623. E= -.23484037E+03 F= -.23233131E+03 E0= -.23233131E+03  EK= 0.10228E+02 SP= -.13E+02 SK= 0.21E-01
    239 T=   638. E= -.23484122E+03 F= -.23248353E+03 E0= -.23248353E+03  EK= 0.10480E+02 SP= -.13E+02 SK= 0.16E-01
    240 T=   652. E= -.23484196E+03 F= -.23261844E+03 E0= -.23261844E+03  EK= 0.10699E+02 SP= -.13E+02 SK= 0.99E-02
    241 T=   662. E= -.23484252E+03 F= -.23272753E+03 E0= -.23272753E+03  EK= 0.10871E+02 SP= -.13E+02 SK= 0.43E-02
    242 T=   669. E= -.23484294E+03 F= -.23280441E+03 E0= -.23280441E+03  EK= 0.10983E+02 SP= -.13E+02 SK= 0.68E-03
    243 T=   672. E= -.23484310E+03 F= -.23284418E+03 E0= -.23284418E+03  EK= 0.11026E+02 SP= -.13E+02 SK= 0.25E-03
    244 T=   670. E= -.23484303E+03 F= -.23284407E+03 E0= -.23284407E+03  EK= 0.10997E+02 SP= -.13E+02 SK= 0.34E-02
       N       E                     dE             d eps       ncg     rms          rms(c)
RMM:   1    -0.219002246836E+03    0.28555E+01   -0.11383E+03   129   0.480E+01
RMM:   2    -0.231884061575E+03   -0.12882E+02   -0.10469E+02   129   0.153E+01
RMM:   3    -0.233734610660E+03   -0.18505E+01   -0.16703E+01   129   0.575E+00
RMM:   4    -0.234086368132E+03   -0.35176E+00   -0.32730E+00   258   0.254E+00
RMM:   5    -0.234195973097E+03   -0.10960E+00   -0.10669E+00   265   0.121E+00    0.770E+00
RMM:   6    -0.225123416085E+03    0.90726E+01   -0.13116E+01   298   0.265E+00    0.322E+00
RMM:   7    -0.224424501470E+03    0.69891E+00   -0.15335E+00   258   0.126E+00    0.162E+00
RMM:   8    -0.224337292853E+03    0.87209E-01   -0.56222E-01   258   0.743E-01    0.709E-01
RMM:   9    -0.224329106894E+03    0.81860E-02   -0.89167E-02   260   0.382E-01    0.359E-01
RMM:  10    -0.224329990368E+03   -0.88347E-03   -0.29496E-02   260   0.205E-01
    245 T=   663. E= -.22637554E+03 F= -.22432999E+03 E0= -.22430991E+03  EK= 0.10890E+02 SP= -.13E+02 SK= 0.97E-02
    246 T=   654. E= -.23485106E+03 F= -.23273919E+03 E0= -.23273919E+03  EK= 0.10734E+02 SP= -.13E+02 SK= 0.18E-01
    247 T=   642. E= -.23485008E+03 F= -.23264758E+03 E0= -.23264758E+03  EK= 0.10532E+02 SP= -.13E+02 SK= 0.26E-01
    248 T=   627. E= -.23484904E+03 F= -.23254089E+03 E0= -.23254089E+03  EK= 0.10299E+02 SP= -.13E+02 SK= 0.34E-01
    249 T=   613. E= -.23484803E+03 F= -.23243273E+03 E0= -.23243273E+03  EK= 0.10055E+02 SP= -.13E+02 SK= 0.38E-01
    250 T=   598. E= -.23484726E+03 F= -.23233677E+03 E0= -.23233677E+03  EK= 0.98209E+01 SP= -.12E+02 SK= 0.40E-01
    251 T=   586. E= -.23484675E+03 F= -.23226415E+03 E0= -.23226415E+03  EK= 0.96131E+01 SP= -.12E+02 SK= 0.38E-01
    252 T=   575. E= -.23484630E+03 F= -.23222301E+03 E0= -.23222301E+03  EK= 0.94446E+01 SP= -.12E+02 SK= 0.34E-01
    253 T=   568. E= -.23484597E+03 F= -.23221989E+03 E0= -.23221989E+03  EK= 0.93249E+01 SP= -.12E+02 SK= 0.28E-01
    254 T=   564. E= -.23484578E+03 F= -.23225962E+03 E0= -.23225962E+03  EK= 0.92608E+01 SP= -.12E+02 SK= 0.22E-01
    255 T=   564. E= -.23484585E+03 F= -.23234432E+03 E0= -.23234432E+03  EK= 0.92549E+01 SP= -.12E+02 SK= 0.16E-01
    256 T=   567. E= -.23484629E+03 F= -.23247155E+03 E0= -.23247155E+03  EK= 0.93044E+01 SP= -.12E+02 SK= 0.12E-01
    257 T=   573. E= -.23484702E+03 F= -.23263338E+03 E0= -.23263338E+03  EK= 0.93998E+01 SP= -.12E+02 SK= 0.82E-02
    258 T=   580. E= -.23484792E+03 F= -.23281743E+03 E0= -.23281743E+03  EK= 0.95267E+01 SP= -.12E+02 SK= 0.60E-02
    259 T=   589. E= -.23484883E+03 F= -.23300859E+03 E0= -.23300859E+03  EK= 0.96673E+01 SP= -.12E+02 SK= 0.47E-02
    260 T=   597. E= -.23484967E+03 F= -.23319109E+03 E0= -.23319109E+03  EK= 0.98025E+01 SP= -.11E+02 SK= 0.43E-02
    261 T=   604. E= -.23485028E+03 F= -.23335031E+03 E0= -.23335031E+03  EK= 0.99148E+01 SP= -.11E+02 SK= 0.45E-02
    262 T=   609. E= -.23485066E+03 F= -.23347457E+03 E0= -.23347457E+03  EK= 0.99900E+01 SP= -.11E+02 SK= 0.51E-02
    263 T=   610. E= -.23485075E+03 F= -.23355609E+03 E0= -.23355609E+03  EK= 0.10018E+02 SP= -.11E+02 SK= 0.60E-02
    264 T=   609. E= -.23485047E+03 F= -.23359136E+03 E0= -.23359136E+03  EK= 0.99965E+01 SP= -.11E+02 SK= 0.71E-02
    265 T=   605. E= -.23485003E+03 F= -.23358174E+03 E0= -.23358174E+03  EK= 0.99260E+01 SP= -.11E+02 SK= 0.79E-02
    266 T=   598. E= -.23484945E+03 F= -.23353206E+03 E0= -.23353206E+03  EK= 0.98139E+01 SP= -.11E+02 SK= 0.82E-02
    267 T=   589. E= -.23484879E+03 F= -.23344960E+03 E0= -.23344960E+03  EK= 0.96705E+01 SP= -.11E+02 SK= 0.77E-02
    268 T=   579. E= -.23484812E+03 F= -.23334330E+03 E0= -.23334330E+03  EK= 0.95081E+01 SP= -.11E+02 SK= 0.63E-02
    269 T=   569. E= -.23484749E+03 F= -.23322291E+03 E0= -.23322291E+03  EK= 0.93404E+01 SP= -.11E+02 SK= 0.42E-02
    270 T=   559. E= -.23484692E+03 F= -.23309819E+03 E0= -.23309819E+03  EK= 0.91805E+01 SP= -.11E+02 SK= 0.20E-02
    271 T=   551. E= -.23484651E+03 F= -.23297838E+03 E0= -.23297838E+03  EK= 0.90409E+01 SP= -.11E+02 SK= 0.34E-03
    272 T=   544. E= -.23484625E+03 F= -.23287091E+03 E0= -.23287091E+03  EK= 0.89316E+01 SP= -.11E+02 SK= 0.14E-03
    273 T=   540. E= -.23484613E+03 F= -.23278077E+03 E0= -.23278077E+03  EK= 0.88596E+01 SP= -.11E+02 SK= 0.21E-02
    274 T=   538. E= -.23484611E+03 F= -.23271086E+03 E0= -.23271086E+03  EK= 0.88292E+01 SP= -.11E+02 SK= 0.65E-02
    275 T=   539. E= -.23484619E+03 F= -.23266221E+03 E0= -.23266221E+03  EK= 0.88421E+01 SP= -.11E+02 SK= 0.14E-01
    276 T=   542. E= -.23484635E+03 F= -.23263413E+03 E0= -.23263413E+03  EK= 0.88977E+01 SP= -.11E+02 SK= 0.23E-01
    277 T=   548. E= -.23484662E+03 F= -.23262429E+03 E0= -.23262429E+03  EK= 0.89932E+01 SP= -.11E+02 SK= 0.33E-01
    278 T=   556. E= -.23484699E+03 F= -.23262859E+03 E0= -.23262859E+03  EK= 0.91230E+01 SP= -.11E+02 SK= 0.44E-01
    279 T=   565. E= -.23484760E+03 F= -.23264132E+03 E0= -.23264132E+03  EK= 0.92795E+01 SP= -.12E+02 SK= 0.54E-01
    280 T=   576. E= -.23484833E+03 F= -.23265447E+03 E0= -.23265447E+03  EK= 0.94518E+01 SP= -.12E+02 SK= 0.62E-01
    281 T=   586. E= -.23484918E+03 F= -.23265861E+03 E0= -.23265861E+03  EK= 0.96272E+01 SP= -.12E+02 SK= 0.67E-01
    282 T=   596. E= -.23485014E+03 F= -.23264341E+03 E0= -.23264341E+03  EK= 0.97912E+01 SP= -.12E+02 SK= 0.70E-01
    283 T=   605. E= -.23485096E+03 F= -.23259857E+03 E0= -.23259857E+03  EK= 0.99296E+01 SP= -.12E+02 SK= 0.69E-01
    284 T=   611. E= -.23485159E+03 F= -.23251603E+03 E0= -.23251603E+03  EK= 0.10030E+02 SP= -.12E+02 SK= 0.66E-01
    285 T=   614. E= -.23485180E+03 F= -.23239190E+03 E0= -.23239190E+03  EK= 0.10086E+02 SP= -.13E+02 SK= 0.62E-01
    286 T=   615. E= -.23485163E+03 F= -.23222829E+03 E0= -.23222829E+03  EK= 0.10097E+02 SP= -.13E+02 SK= 0.57E-01
    287 T=   613. E= -.23485114E+03 F= -.23203267E+03 E0= -.23203267E+03  EK= 0.10070E+02 SP= -.13E+02 SK= 0.53E-01
    288 T=   610. E= -.23485034E+03 F= -.23181711E+03 E0= -.23181711E+03  EK= 0.10016E+02 SP= -.13E+02 SK= 0.49E-01
    289 T=   606. E= -.23484948E+03 F= -.23159707E+03 E0= -.23159707E+03  EK= 0.99522E+01 SP= -.13E+02 SK= 0.47E-01
    290 T=   603. E= -.23484870E+03 F= -.23138860E+03 E0= -.23138860E+03  EK= 0.98956E+01 SP= -.13E+02 SK= 0.45E-01
    291 T=   601. E= -.23484802E+03 F= -.23120653E+03 E0= -.23120653E+03  EK= 0.98630E+01 SP= -.14E+02 SK= 0.45E-01
    292 T=   601. E= -.23484749E+03 F= -.23106373E+03 E0= -.23106373E+03  EK= 0.98683E+01 SP= -.14E+02 SK= 0.44E-01
    293 T=   604. E= -.23484704E+03 F= -.23097103E+03 E0= -.23097103E+03  EK= 0.99230E+01 SP= -.14E+02 SK= 0.43E-01
    294 T=   611. E= -.23484690E+03 F= -.23093689E+03 E0= -.23093689E+03  EK= 0.10035E+02 SP= -.14E+02 SK= 0.41E-01
    295 T=   622. E= -.23484694E+03 F= -.23096603E+03 E0= -.23096603E+03  EK= 0.10206E+02 SP= -.14E+02 SK= 0.37E-01
    296 T=   636. E= -.23484749E+03 F= -.23105905E+03 E0= -.23105905E+03  EK= 0.10434E+02 SP= -.14E+02 SK= 0.31E-01
    297 T=   652. E= -.23484845E+03 F= -.23121025E+03 E0= -.23121025E+03  EK= 0.10707E+02 SP= -.14E+02 SK= 0.23E-01
    298 T=   670. E= -.23484980E+03 F= -.23140802E+03 E0= -.23140802E+03  EK= 0.11005E+02 SP= -.14E+02 SK= 0.13E-01
    299 T=   689. E= -.23485137E+03 F= -.23163573E+03 E0= -.23163573E+03  EK= 0.11303E+02 SP= -.15E+02 SK= 0.45E-02
    300 T=   705. E= -.23485270E+03 F= -.23187444E+03 E0= -.23187444E+03  EK= 0.11571E+02 SP= -.15E+02 SK= 0.89E-04
    301 T=   718. E= -.23485360E+03 F= -.23210682E+03 E0= -.23210682E+03  EK= 0.11783E+02 SP= -.15E+02 SK= 0.32E-02
    302 T=   726. E= -.23485411E+03 F= -.23231893E+03 E0= -.23231893E+03  EK= 0.11916E+02 SP= -.14E+02 SK= 0.17E-01
    303 T=   728. E= -.23485407E+03 F= -.23250030E+03 E0= -.23250030E+03  EK= 0.11957E+02 SP= -.14E+02 SK= 0.42E-01
    304 T=   725. E= -.23485380E+03 F= -.23264405E+03 E0= -.23264405E+03  EK= 0.11896E+02 SP= -.14E+02 SK= 0.78E-01
    305 T=   715. E= -.23485327E+03 F= -.23274482E+03 E0= -.23274482E+03  EK= 0.11733E+02 SP= -.14E+02 SK= 0.12E+00
    306 T=   699. E= -.23485240E+03 F= -.23279874E+03 E0= -.23279874E+03  EK= 0.11472E+02 SP= -.14E+02 SK= 0.17E+00
    307 T=   678. E= -.23485132E+03 F= -.23280477E+03 E0= -.23280477E+03  EK= 0.11126E+02 SP= -.13E+02 SK= 0.22E+00
    308 T=   653. E= -.23484999E+03 F= -.23276546E+03 E0= -.23276546E+03  EK= 0.10712E+02 SP= -.13E+02 SK= 0.26E+00
    309 T=   624. E= -.23484868E+03 F= -.23268755E+03 E0= -.23268755E+03  EK= 0.10250E+02 SP= -.13E+02 SK= 0.28E+00
    310 T=   595. E= -.23484746E+03 F= -.23258074E+03 E0= -.23258074E+03  EK= 0.97671E+01 SP= -.12E+02 SK= 0.29E+00
    311 T=   566. E= -.23484638E+03 F= -.23245712E+03 E0= -.23245712E+03  EK= 0.92867E+01 SP= -.12E+02 SK= 0.27E+00
    312 T=   538. E= -.23484570E+03 F= -.23232986E+03 E0= -.23232986E+03  EK= 0.88324E+01 SP= -.12E+02 SK= 0.25E+00
    313 T=   513. E= -.23484540E+03 F= -.23221048E+03 E0= -.23221048E+03  EK= 0.84230E+01 SP= -.11E+02 SK= 0.21E+00
    314 T=   492. E= -.23484546E+03 F= -.23210767E+03 E0= -.23210767E+03  EK= 0.80717E+01 SP= -.11E+02 SK= 0.16E+00
       N       E                     dE             d eps       ncg     rms          rms(c)
RMM:   1    -0.214320932743E+03    0.10008E+02   -0.13912E+03   129   0.524E+01
RMM:   2    -0.229938401846E+03   -0.15617E+02   -0.12437E+02   129   0.165E+01
RMM:   3    -0.232026236927E+03   -0.20878E+01   -0.18198E+01   129   0.596E+00
RMM:   4    -0.232403212517E+03   -0.37698E+00   -0.34721E+00   258   0.259E+00
RMM:   5    -0.232518539384E+03   -0.11533E+00   -0.11140E+00   267   0.121E+00    0.776E+00
RMM:   6    -0.223779265294E+03    0.87393E+01   -0.11520E+01   272   0.261E+00    0.340E+00
RMM:   7    -0.223039291141E+03    0.73997E+00   -0.24858E+00   258   0.158E+00    0.153E+00
RMM:   8    -0.222993537376E+03    0.45754E-01   -0.72824E-01   258   0.869E-01    0.746E-01
RMM:   9    -0.222991786371E+03    0.17510E-02   -0.13901E-01   260   0.462E-01    0.358E-01
RMM:  10    -0.222993636441E+03   -0.18501E-02   -0.44977E-02   260   0.245E-01    0.147E-01
RMM:  11    -0.222994116779E+03   -0.48034E-03   -0.90688E-03   227   0.118E-01
    315 T=   475. E= -.22580157E+03 F= -.22299412E+03 E0= -.22295886E+03  EK= 0.77981E+01 SP= -.11E+02 SK= 0.11E+00
    316 T=   463. E= -.23481810E+03 F= -.23198041E+03 E0= -.23198041E+03  EK= 0.76088E+01 SP= -.11E+02 SK= 0.64E-01
    317 T=   455. E= -.23481828E+03 F= -.23195963E+03 E0= -.23195963E+03  EK= 0.74743E+01 SP= -.10E+02 SK= 0.30E-01
    318 T=   452. E= -.23481830E+03 F= -.23196581E+03 E0= -.23196581E+03  EK= 0.74123E+01 SP= -.10E+02 SK= 0.75E-02
    319 T=   452. E= -.23481821E+03 F= -.23200058E+03 E0= -.23200058E+03  EK= 0.74241E+01 SP= -.10E+02 SK= 0.60E-06
    320 T=   458. E= -.23481814E+03 F= -.23206518E+03 E0= -.23206518E+03  EK= 0.75107E+01 SP= -.10E+02 SK= 0.70E-02
    321 T=   467. E= -.23481814E+03 F= -.23215920E+03 E0= -.23215920E+03  EK= 0.76710E+01 SP= -.10E+02 SK= 0.27E-01
    322 T=   481. E= -.23481837E+03 F= -.23227934E+03 E0= -.23227934E+03  EK= 0.79011E+01 SP= -.10E+02 SK= 0.56E-01
    323 T=   499. E= -.23481884E+03 F= -.23241820E+03 E0= -.23241820E+03  EK= 0.81923E+01 SP= -.11E+02 SK= 0.90E-01
    324 T=   520. E= -.23481948E+03 F= -.23256455E+03 E0= -.23256455E+03  EK= 0.85313E+01 SP= -.11E+02 SK= 0.12E+00
    325 T=   542. E= -.23482019E+03 F= -.23270549E+03 E0= -.23270549E+03  EK= 0.89014E+01 SP= -.11E+02 SK= 0.15E+00
    326 T=   566. E= -.23482088E+03 F= -.23282886E+03 E0= -.23282886E+03  EK= 0.92853E+01 SP= -.11E+02 SK= 0.17E+00
    327 T=   589. E= -.23482146E+03 F= -.23292490E+03 E0= -.23292490E+03  EK= 0.96660E+01 SP= -.12E+02 SK= 0.19E+00
    328 T=   611. E= -.23482191E+03 F= -.23298748E+03 E0= -.23298748E+03  EK= 0.10029E+02 SP= -.12E+02 SK= 0.18E+00
    329 T=   631. E= -.23482229E+03 F= -.23301452E+03 E0= -.23301452E+03  EK= 0.10362E+02 SP= -.12E+02 SK= 0.17E+00
    330 T=   649. E= -.23482248E+03 F= -.23300715E+03 E0= -.23300715E+03  EK= 0.10656E+02 SP= -.13E+02 SK= 0.15E+00
       N       E                     dE             d eps       ncg     rms          rms(c)
RMM:   1    -0.224029110686E+03   -0.10355E+01   -0.39801E+02   129   0.293E+01
RMM:   2    -0.229031886771E+03   -0.50028E+01   -0.40640E+01   129   0.972E+00
RMM:   3    -0.229755522633E+03   -0.72364E+00   -0.67324E+00   129   0.388E+00
RMM:   4    -0.229889538058E+03   -0.13402E+00   -0.12723E+00   258   0.163E+00
RMM:   5    -0.229927768646E+03   -0.38231E-01   -0.37577E-01   258   0.788E-01    0.602E+00
RMM:   6    -0.225034941639E+03    0.48928E+01   -0.78385E+00   320   0.203E+00    0.232E+00
RMM:   7    -0.224548024382E+03    0.48692E+00   -0.86801E-01   258   0.891E-01    0.997E-01
RMM:   8    -0.224500455207E+03    0.47569E-01   -0.25143E-01   258   0.517E-01    0.421E-01
RMM:   9    -0.224498888489E+03    0.15667E-02   -0.50466E-02   258   0.266E-01    0.218E-01
RMM:  10    -0.224499610947E+03   -0.72246E-03   -0.13518E-02   261   0.145E-01
    331 T=   664. E= -.22635004E+03 F= -.22449961E+03 E0= -.22448312E+03  EK= 0.10908E+02 SP= -.13E+02 SK= 0.13E+00
    332 T=   677. E= -.23481276E+03 F= -.23291174E+03 E0= -.23291174E+03  EK= 0.11121E+02 SP= -.13E+02 SK= 0.10E+00
    333 T=   687. E= -.23481266E+03 F= -.23283699E+03 E0= -.23283699E+03  EK= 0.11278E+02 SP= -.13E+02 SK= 0.71E-01
    334 T=   694. E= -.23481245E+03 F= -.23275380E+03 E0= -.23275380E+03  EK= 0.11388E+02 SP= -.13E+02 SK= 0.46E-01
    335 T=   698. E= -.23481221E+03 F= -.23267123E+03 E0= -.23267123E+03  EK= 0.11456E+02 SP= -.14E+02 SK= 0.25E-01
    336 T=   700. E= -.23481197E+03 F= -.23259781E+03 E0= -.23259781E+03  EK= 0.11486E+02 SP= -.14E+02 SK= 0.97E-02
    337 T=   700. E= -.23481188E+03 F= -.23254039E+03 E0= -.23254039E+03  EK= 0.11485E+02 SP= -.14E+02 SK= 0.15E-02
    338 T=   698. E= -.23481183E+03 F= -.23250266E+03 E0= -.23250266E+03  EK= 0.11456E+02 SP= -.14E+02 SK= 0.36E-03
    339 T=   694. E= -.23481172E+03 F= -.23248603E+03 E0= -.23248603E+03  EK= 0.11401E+02 SP= -.14E+02 SK= 0.58E-02
    340 T=   690. E= -.23481163E+03 F= -.23249047E+03 E0= -.23249047E+03  EK= 0.11322E+02 SP= -.14E+02 SK= 0.17E-01
    341 T=   684. E= -.23481162E+03 F= -.23251422E+03 E0= -.23251422E+03  EK= 0.11221E+02 SP= -.14E+02 SK= 0.33E-01
    342 T=   676. E= -.23481163E+03 F= -.23255317E+03 E0= -.23255317E+03  EK= 0.11097E+02 SP= -.13E+02 SK= 0.52E-01
    343 T=   667. E= -.23481176E+03 F= -.23260141E+03 E0= -.23260141E+03  EK= 0.10950E+02 SP= -.13E+02 SK= 0.74E-01
       N       E                     dE             d eps       ncg     rms          rms(c)
RMM:   1    -0.223853029982E+03    0.64586E+00   -0.36234E+02   129   0.280E+01
RMM:   2    -0.228389528108E+03   -0.45365E+01   -0.37011E+01   129   0.938E+00
RMM:   3    -0.229037085424E+03   -0.64756E+00   -0.60598E+00   129   0.372E+00
RMM:   4    -0.229155561250E+03   -0.11848E+00   -0.11295E+00   258   0.156E+00
RMM:   5    -0.229188801352E+03   -0.33240E-01   -0.32719E-01   258   0.749E-01    0.585E+00
RMM:   6    -0.224435294556E+03    0.47535E+01   -0.72098E+00   319   0.192E+00    0.236E+00
RMM:   7    -0.223985062816E+03    0.45023E+00   -0.78915E-01   258   0.843E-01    0.106E+00
RMM:   8    -0.223928075572E+03    0.56987E-01   -0.24475E-01   258   0.495E-01    0.484E-01
RMM:   9    -0.223922831964E+03    0.52436E-02   -0.54277E-02   259   0.268E-01    0.231E-01
RMM:  10    -0.223922723645E+03    0.10832E-03   -0.14324E-02   258   0.142E-01
    344 T=   655. E= -.22610223E+03 F= -.22392272E+03 E0= -.22390041E+03  EK= 0.10757E+02 SP= -.13E+02 SK= 0.95E-01
    345 T=   643. E= -.23484502E+03 F= -.23270552E+03 E0= -.23270552E+03  EK= 0.10553E+02 SP= -.13E+02 SK= 0.11E+00
    346 T=   630. E= -.23484510E+03 F= -.23274502E+03 E0= -.23274502E+03  EK= 0.10334E+02 SP= -.13E+02 SK= 0.13E+00
    347 T=   614. E= -.23484500E+03 F= -.23276303E+03 E0= -.23276303E+03  EK= 0.10087E+02 SP= -.12E+02 SK= 0.14E+00
    348 T=   598. E= -.23484474E+03 F= -.23275573E+03 E0= -.23275573E+03  EK= 0.98153E+01 SP= -.12E+02 SK= 0.14E+00
    349 T=   580. E= -.23484432E+03 F= -.23272291E+03 E0= -.23272291E+03  EK= 0.95258E+01 SP= -.12E+02 SK= 0.14E+00
    350 T=   562. E= -.23484382E+03 F= -.23266802E+03 E0= -.23266802E+03  EK= 0.92294E+01 SP= -.12E+02 SK= 0.13E+00
    351 T=   544. E= -.23484333E+03 F= -.23259717E+03 E0= -.23259717E+03  EK= 0.89384E+01 SP= -.11E+02 SK= 0.11E+00
    352 T=   528. E= -.23484281E+03 F= -.23251794E+03 E0= -.23251794E+03  EK= 0.86656E+01 SP= -.11E+02 SK= 0.86E-01
    353 T=   513. E= -.23484229E+03 F= -.23243933E+03 E0= -.23243933E+03  EK= 0.84242E+01 SP= -.11E+02 SK= 0.61E-01
    354 T=   501. E= -.23484177E+03 F= -.23237135E+03 E0= -.23237135E+03  EK= 0.82270E+01 SP= -.11E+02 SK= 0.37E-01
    355 T=   493. E= -.23484135E+03 F= -.23232377E+03 E0= -.23232377E+03  EK= 0.80855E+01 SP= -.11E+02 SK= 0.18E-01
    356 T=   488. E= -.23484106E+03 F= -.23230463E+03 E0= -.23230463E+03  EK= 0.80088E+01 SP= -.11E+02 SK= 0.49E-02
    357 T=   487. E= -.23484096E+03 F= -.23231921E+03 E0= -.23231921E+03  EK= 0.80024E+01 SP= -.11E+02 SK= 0.20E-04
    358 T=   491. E= -.23484104E+03 F= -.23236874E+03 E0= -.23236874E+03  EK= 0.80675E+01 SP= -.11E+02 SK= 0.36E-02
    359 T=   500. E= -.23484132E+03 F= -.23245023E+03 E0= -.23245023E+03  EK= 0.82006E+01 SP= -.11E+02 SK= 0.14E-01
    360 T=   511. E= -.23484175E+03 F= -.23255685E+03 E0= -.23255685E+03  EK= 0.83935E+01 SP= -.11E+02 SK= 0.31E-01
    361 T=   526. E= -.23484232E+03 F= -.23267893E+03 E0= -.23267893E+03  EK= 0.86347E+01 SP= -.11E+02 SK= 0.49E-01
    362 T=   543. E= -.23484297E+03 F= -.23280484E+03 E0= -.23280484E+03  EK= 0.89097E+01 SP= -.11E+02 SK= 0.67E-01
    363 T=   561. E= -.23484368E+03 F= -.23292231E+03 E0= -.23292231E+03  EK= 0.92021E+01 SP= -.11E+02 SK= 0.83E-01
    364 T=   578. E= -.23484440E+03 F= -.23301974E+03 E0= -.23301974E+03  EK= 0.94949E+01 SP= -.11E+02 SK= 0.93E-01
    365 T=   595. E= -.23484507E+03 F= -.23308718E+03 E0= -.23308718E+03  EK= 0.97720E+01 SP= -.12E+02 SK= 0.97E-01
    366 T=   610. E= -.23484563E+03 F= -.23311716E+03 E0= -.23311716E+03  EK= 0.10019E+02 SP= -.12E+02 SK= 0.95E-01
    367 T=   623. E= -.23484607E+03 F= -.23310523E+03 E0= -.23310523E+03  EK= 0.10225E+02 SP= -.12E+02 SK= 0.89E-01
    368 T=   632. E= -.23484641E+03 F= -.23304954E+03 E0= -.23304954E+03  EK= 0.10380E+02 SP= -.12E+02 SK= 0.79E-01
    369 T=   638. E= -.23484655E+03 F= -.23295058E+03 E0= -.23295058E+03  EK= 0.10481E+02 SP= -.12E+02 SK= 0.67E-01
    370 T=   641. E= -.23484661E+03 F= -.23281124E+03 E0= -.23281124E+03  EK= 0.10526E+02 SP= -.13E+02 SK= 0.55E-01
    371 T=   641. E= -.23484663E+03 F= -.23263550E+03 E0= -.23263550E+03  EK= 0.10517E+02 SP= -.13E+02 SK= 0.44E-01
    372 T=   637. E= -.23484663E+03 F= -.23242762E+03 E0= -.23242762E+03  EK= 0.10457E+02 SP= -.13E+02 SK= 0.35E-01
    373 T=   631. E= -.23484659E+03 F= -.23219192E+03 E0= -.23219192E+03  EK= 0.10351E+02 SP= -.13E+02 SK= 0.28E-01
    374 T=   622. E= -.23484638E+03 F= -.23193312E+03 E0= -.23193312E+03  EK= 0.10208E+02 SP= -.13E+02 SK= 0.22E-01
    375 T=   611. E= -.23484589E+03 F= -.23165811E+03 E0= -.23165811E+03  EK= 0.10038E+02 SP= -.13E+02 SK= 0.19E-01
    376 T=   600. E= -.23484517E+03 F= -.23137741E+03 E0= -.23137741E+03  EK= 0.98545E+01 SP= -.13E+02 SK= 0.18E-01
    377 T=   590. E= -.23484424E+03 F= -.23110492E+03 E0= -.23110492E+03  EK= 0.96774E+01 SP= -.13E+02 SK= 0.19E-01
    378 T=   580. E= -.23484329E+03 F= -.23085674E+03 E0= -.23085674E+03  EK= 0.95267E+01 SP= -.14E+02 SK= 0.21E-01
    379 T=   574. E= -.23484247E+03 F= -.23064889E+03 E0= -.23064889E+03  EK= 0.94219E+01 SP= -.14E+02 SK= 0.25E-01
       N       E                     dE             d eps       ncg     rms          rms(c)
RMM:   1    -0.220015789969E+03    0.39070E+01   -0.93016E+02   129   0.437E+01
RMM:   2    -0.231075375155E+03   -0.11060E+02   -0.87147E+01   129   0.142E+01
RMM:   3    -0.232640319857E+03   -0.15649E+01   -0.14265E+01   129   0.546E+00
RMM:   4    -0.232930152997E+03   -0.28983E+00   -0.27107E+00   258   0.240E+00
RMM:   5    -0.233011836669E+03   -0.81684E-01   -0.79783E-01   260   0.114E+00    0.790E+00
RMM:   6    -0.223082432219E+03    0.99294E+01   -0.11650E+01   300   0.254E+00    0.332E+00
RMM:   7    -0.222115366383E+03    0.96707E+00   -0.24770E+00   258   0.141E+00    0.147E+00
RMM:   8    -0.222070120949E+03    0.45245E-01   -0.45334E-01   258   0.789E-01    0.698E-01
RMM:   9    -0.222068142856E+03    0.19781E-02   -0.13293E-01   258   0.420E-01    0.327E-01
RMM:  10    -0.222069712127E+03   -0.15693E-02   -0.30874E-02   262   0.222E-01    0.148E-01
RMM:  11    -0.222070140451E+03   -0.42832E-03   -0.80920E-03   226   0.112E-01
    380 T=   571. E= -.22641989E+03 F= -.22207014E+03 E0= -.22204405E+03  EK= 0.93767E+01 SP= -.14E+02 SK= 0.30E-01
    381 T=   574. E= -.23424601E+03 F= -.22981566E+03 E0= -.22981566E+03  EK= 0.94175E+01 SP= -.14E+02 SK= 0.36E-01
    382 T=   581. E= -.23424604E+03 F= -.22980193E+03 E0= -.22980193E+03  EK= 0.95357E+01 SP= -.14E+02 SK= 0.41E-01
    383 T=   593. E= -.23424632E+03 F= -.22985838E+03 E0= -.22985838E+03  EK= 0.97330E+01 SP= -.14E+02 SK= 0.44E-01
    384 T=   609. E= -.23424715E+03 F= -.22997937E+03 E0= -.22997937E+03  EK= 0.10000E+02 SP= -.14E+02 SK= 0.44E-01
    385 T=   629. E= -.23424834E+03 F= -.23015332E+03 E0= -.23015332E+03  EK= 0.10320E+02 SP= -.14E+02 SK= 0.39E-01
    386 T=   650. E= -.23424980E+03 F= -.23036456E+03 E0= -.23036456E+03  EK= 0.10668E+02 SP= -.15E+02 SK= 0.30E-01
    387 T=   671. E= -.23425140E+03 F= -.23059444E+03 E0= -.23059444E+03  EK= 0.11017E+02 SP= -.15E+02 SK= 0.19E-01
    388 T=   690. E= -.23425289E+03 F= -.23082344E+03 E0= -.23082344E+03  EK= 0.11335E+02 SP= -.15E+02 SK= 0.82E-02
    389 T=   706. E= -.23425400E+03 F= -.23103364E+03 E0= -.23103364E+03  EK= 0.11594E+02 SP= -.15E+02 SK= 0.10E-02
    390 T=   717. E= -.23425458E+03 F= -.23121108E+03 E0= -.23121108E+03  EK= 0.11770E+02 SP= -.15E+02 SK= 0.12E-02
    391 T=   722. E= -.23425460E+03 F= -.23134749E+03 E0= -.23134749E+03  EK= 0.11847E+02 SP= -.15E+02 SK= 0.11E-01
    392 T=   720. E= -.23425412E+03 F= -.23144016E+03 E0= -.23144016E+03  EK= 0.11822E+02 SP= -.15E+02 SK= 0.31E-01
    393 T=   712. E= -.23425331E+03 F= -.23149056E+03 E0= -.23149056E+03  EK= 0.11696E+02 SP= -.15E+02 SK= 0.61E-01
    394 T=   699. E= -.23425222E+03 F= -.23150273E+03 E0= -.23150273E+03  EK= 0.11481E+02 SP= -.14E+02 SK= 0.96E-01
    395 T=   682. E= -.23425090E+03 F= -.23148352E+03 E0= -.23148352E+03  EK= 0.11192E+02 SP= -.14E+02 SK= 0.13E+00
    396 T=   661. E= -.23424934E+03 F= -.23144252E+03 E0= -.23144252E+03  EK= 0.10852E+02 SP= -.14E+02 SK= 0.16E+00
    397 T=   639. E= -.23424799E+03 F= -.23139203E+03 E0= -.23139203E+03  EK= 0.10485E+02 SP= -.14E+02 SK= 0.19E+00
    398 T=   616. E= -.23424696E+03 F= -.23134416E+03 E0= -.23134416E+03  EK= 0.10114E+02 SP= -.13E+02 SK= 0.20E+00
    399 T=   595. E= -.23424627E+03 F= -.23130893E+03 E0= -.23130893E+03  EK= 0.97594E+01 SP= -.13E+02 SK= 0.21E+00
    400 T=   575. E= -.23424598E+03 F= -.23129363E+03 E0= -.23129363E+03  EK= 0.94374E+01 SP= -.13E+02 SK= 0.20E+00
    401 T=   558. E= -.23424595E+03 F= -.23130210E+03 E0= -.23130210E+03  EK= 0.91577E+01 SP= -.12E+02 SK= 0.18E+00
    402 T=   544. E= -.23424615E+03 F= -.23133495E+03 E0= -.23133495E+03  EK= 0.89254E+01 SP= -.12E+02 SK= 0.16E+00
    403 T=   532. E= -.23424646E+03 F= -.23138983E+03 E0= -.23138983E+03  EK= 0.87411E+01 SP= -.12E+02 SK= 0.13E+00
    404 T=   524. E= -.23424685E+03 F= -.23146268E+03 E0= -.23146268E+03  EK= 0.86027E+01 SP= -.11E+02 SK= 0.10E+00
    405 T=   518. E= -.23424709E+03 F= -.23154858E+03 E0= -.23154858E+03  EK= 0.85067E+01 SP= -.11E+02 SK= 0.77E-01
    406 T=   515. E= -.23424736E+03 F= -.23164301E+03 E0= -.23164301E+03  EK= 0.84490E+01 SP= -.11E+02 SK= 0.52E-01
    407 T=   513. E= -.23424750E+03 F= -.23174135E+03 E0= -.23174135E+03  EK= 0.84254E+01 SP= -.11E+02 SK= 0.32E-01
    408 T=   514. E= -.23424762E+03 F= -.23183979E+03 E0= -.23183979E+03  EK= 0.84317E+01 SP= -.11E+02 SK= 0.17E-01
    409 T=   516. E= -.23424771E+03 F= -.23193511E+03 E0= -.23193511E+03  EK= 0.84644E+01 SP= -.11E+02 SK= 0.64E-02
    410 T=   519. E= -.23424783E+03 F= -.23202417E+03 E0= -.23202417E+03  EK= 0.85196E+01 SP= -.11E+02 SK= 0.10E-02
    411 T=   523. E= -.23424800E+03 F= -.23210339E+03 E0= -.23210339E+03  EK= 0.85929E+01 SP= -.11E+02 SK= 0.17E-03
    412 T=   529. E= -.23424816E+03 F= -.23216877E+03 E0= -.23216877E+03  EK= 0.86793E+01 SP= -.11E+02 SK= 0.31E-02
    413 T=   534. E= -.23424837E+03 F= -.23221647E+03 E0= -.23221647E+03  EK= 0.87733E+01 SP= -.11E+02 SK= 0.90E-02
    414 T=   540. E= -.23424852E+03 F= -.23224280E+03 E0= -.23224280E+03  EK= 0.88701E+01 SP= -.11E+02 SK= 0.17E-01
    415 T=   546. E= -.23424862E+03 F= -.23224535E+03 E0= -.23224535E+03  EK= 0.89656E+01 SP= -.11E+02 SK= 0.27E-01
    416 T=   552. E= -.23424848E+03 F= -.23222345E+03 E0= -.23222345E+03  EK= 0.90574E+01 SP= -.11E+02 SK= 0.37E-01
    417 T=   557. E= -.23424823E+03 F= -.23217942E+03 E0= -.23217942E+03  EK= 0.91461E+01 SP= -.11E+02 SK= 0.48E-01
    418 T=   563. E= -.23424774E+03 F= -.23211830E+03 E0= -.23211830E+03  EK= 0.92351E+01 SP= -.11E+02 SK= 0.58E-01
    419 T=   568. E= -.23424719E+03 F= -.23204820E+03 E0= -.23204820E+03  EK= 0.93306E+01 SP= -.12E+02 SK= 0.68E-01
    420 T=   575. E= -.23424662E+03 F= -.23197854E+03 E0= -.23197854E+03  EK= 0.94402E+01 SP= -.12E+02 SK= 0.77E-01
    421 T=   583. E= -.23424611E+03 F= -.23191853E+03 E0= -.23191853E+03  EK= 0.95710E+01 SP= -.12E+02 SK= 0.83E-01
    422 T=   593. E= -.23424580E+03 F= -.23187614E+03 E0= -.23187614E+03  EK= 0.97284E+01 SP= -.12E+02 SK= 0.87E-01
    423 T=   604. E= -.23424569E+03 F= -.23185689E+03 E0= -.23185689E+03  EK= 0.99149E+01 SP= -.12E+02 SK= 0.87E-01
    424 T=   617. E= -.23424590E+03 F= -.23186305E+03 E0= -.23186305E+03  EK= 0.10129E+02 SP= -.13E+02 SK= 0.84E-01
    425 T=   631. E= -.23424632E+03 F= -.23189340E+03 E0= -.23189340E+03  EK= 0.10363E+02 SP= -.13E+02 SK= 0.75E-01
    426 T=   646. E= -.23424702E+03 F= -.23194373E+03 E0= -.23194373E+03  EK= 0.10608E+02 SP= -.13E+02 SK= 0.63E-01
    427 T=   661. E= -.23424799E+03 F= -.23200673E+03 E0= -.23200673E+03  EK= 0.10850E+02 SP= -.13E+02 SK= 0.48E-01
    428 T=   674. E= -.23424902E+03 F= -.23207250E+03 E0= -.23207250E+03  EK= 0.11070E+02 SP= -.13E+02 SK= 0.32E-01
    429 T=   685. E= -.23425001E+03 F= -.23213031E+03 E0= -.23213031E+03  EK= 0.11250E+02 SP= -.13E+02 SK= 0.17E-01
    430 T=   693. E= -.23425084E+03 F= -.23216973E+03 E0= -.23216973E+03  EK= 0.11373E+02 SP= -.13E+02 SK= 0.63E-02
    431 T=   696. E= -.23425126E+03 F= -.23218209E+03 E0= -.23218209E+03  EK= 0.11427E+02 SP= -.13E+02 SK= 0.54E-03
    432 T=   695. E= -.23425135E+03 F= -.23216242E+03 E0= -.23216242E+03  EK= 0.11403E+02 SP= -.13E+02 SK= 0.11E-02
    433 T=   688. E= -.23425124E+03 F= -.23210865E+03 E0= -.23210865E+03  EK= 0.11300E+02 SP= -.13E+02 SK= 0.77E-02
    434 T=   678. E= -.23425106E+03 F= -.23202007E+03 E0= -.23202007E+03  EK= 0.11122E+02 SP= -.13E+02 SK= 0.19E-01
    435 T=   662. E= -.23425092E+03 F= -.23189623E+03 E0= -.23189623E+03  EK= 0.10875E+02 SP= -.13E+02 SK= 0.32E-01
    436 T=   644. E= -.23425067E+03 F= -.23173606E+03 E0= -.23173606E+03  EK= 0.10567E+02 SP= -.13E+02 SK= 0.45E-01
    437 T=   622. E= -.23425013E+03 F= -.23154034E+03 E0= -.23154034E+03  EK= 0.10209E+02 SP= -.13E+02 SK= 0.53E-01
    438 T=   598. E= -.23424930E+03 F= -.23131417E+03 E0= -.23131417E+03  EK= 0.98169E+01 SP= -.13E+02 SK= 0.56E-01
    439 T=   573. E= -.23424833E+03 F= -.23106786E+03 E0= -.23106786E+03  EK= 0.94122E+01 SP= -.13E+02 SK= 0.53E-01
    440 T=   549. E= -.23424734E+03 F= -.23081597E+03 E0= -.23081597E+03  EK= 0.90183E+01 SP= -.12E+02 SK= 0.43E-01
    441 T=   527. E= -.23424661E+03 F= -.23057444E+03 E0= -.23057444E+03  EK= 0.86584E+01 SP= -.12E+02 SK= 0.30E-01
    442 T=   509. E= -.23424612E+03 F= -.23035762E+03 E0= -.23035762E+03  EK= 0.83524E+01 SP= -.12E+02 SK= 0.16E-01
       N       E                     dE             d eps       ncg     rms          rms(c)
RMM:   1    -0.217600538151E+03    0.44692E+01   -0.13167E+03   129   0.508E+01
RMM:   2    -0.233638809150E+03   -0.16038E+02   -0.12282E+02   129   0.161E+01
RMM:   3    -0.235867810479E+03   -0.22290E+01   -0.19232E+01   129   0.608E+00
RMM:   4    -0.236283813647E+03   -0.41600E+00   -0.38239E+00   258   0.271E+00
RMM:   5    -0.236415324304E+03   -0.13151E+00   -0.12694E+00   266   0.131E+00    0.909E+00
RMM:   6    -0.222991378165E+03    0.13424E+02   -0.22153E+01   304   0.333E+00    0.366E+00
RMM:   7    -0.221893655163E+03    0.10977E+01   -0.23610E+00   258   0.153E+00    0.171E+00
RMM:   8    -0.221803349737E+03    0.90305E-01   -0.59302E-01   258   0.808E-01    0.917E-01
RMM:   9    -0.221792217167E+03    0.11133E-01   -0.19492E-01   264   0.475E-01    0.428E-01
RMM:  10    -0.221794853150E+03   -0.26360E-02   -0.46103E-02   260   0.262E-01    0.170E-01
RMM:  11    -0.221795391760E+03   -0.53861E-03   -0.10389E-02   234   0.127E-01
    443 T=   494. E= -.22586414E+03 F= -.22179539E+03 E0= -.22177585E+03  EK= 0.81159E+01 SP= -.12E+02 SK= 0.46E-02
    444 T=   486. E= -.23424075E+03 F= -.23005268E+03 E0= -.23005268E+03  EK= 0.79761E+01 SP= -.12E+02 SK= 0.17E-04
    445 T=   483. E= -.23424031E+03 F= -.22998229E+03 E0= -.22998229E+03  EK= 0.79227E+01 SP= -.12E+02 SK= 0.40E-02
    446 T=   485. E= -.23424000E+03 F= -.22997303E+03 E0= -.22997303E+03  EK= 0.79682E+01 SP= -.12E+02 SK= 0.17E-01
    447 T=   494. E= -.23424003E+03 F= -.23002803E+03 E0= -.23002803E+03  EK= 0.81158E+01 SP= -.12E+02 SK= 0.38E-01
    448 T=   509. E= -.23424047E+03 F= -.23014397E+03 E0= -.23014397E+03  EK= 0.83615E+01 SP= -.13E+02 SK= 0.63E-01
    449 T=   530. E= -.23424137E+03 F= -.23031022E+03 E0= -.23031022E+03  EK= 0.86930E+01 SP= -.13E+02 SK= 0.89E-01
    450 T=   554. E= -.23424251E+03 F= -.23050985E+03 E0= -.23050985E+03  EK= 0.90901E+01 SP= -.13E+02 SK= 0.11E+00
    451 T=   580. E= -.23424376E+03 F= -.23072294E+03 E0= -.23072294E+03  EK= 0.95273E+01 SP= -.13E+02 SK= 0.12E+00
    452 T=   608. E= -.23424500E+03 F= -.23093017E+03 E0= -.23093017E+03  EK= 0.99769E+01 SP= -.13E+02 SK= 0.13E+00
    453 T=   634. E= -.23424610E+03 F= -.23111523E+03 E0= -.23111523E+03  EK= 0.10412E+02 SP= -.14E+02 SK= 0.12E+00
    454 T=   658. E= -.23424713E+03 F= -.23126602E+03 E0= -.23126602E+03  EK= 0.10808E+02 SP= -.14E+02 SK= 0.98E-01
    455 T=   679. E= -.23424787E+03 F= -.23137460E+03 E0= -.23137460E+03  EK= 0.11143E+02 SP= -.14E+02 SK= 0.74E-01
    456 T=   695. E= -.23424837E+03 F= -.23143794E+03 E0= -.23143794E+03  EK= 0.11402E+02 SP= -.14E+02 SK= 0.48E-01
    457 T=   705. E= -.23424847E+03 F= -.23145681E+03 E0= -.23145681E+03  EK= 0.11576E+02 SP= -.14E+02 SK= 0.26E-01
    458 T=   710. E= -.23424816E+03 F= -.23143603E+03 E0= -.23143603E+03  EK= 0.11662E+02 SP= -.14E+02 SK= 0.93E-02
    459 T=   710. E= -.23424769E+03 F= -.23138353E+03 E0= -.23138353E+03  EK= 0.11662E+02 SP= -.15E+02 SK= 0.95E-03
    460 T=   706. E= -.23424708E+03 F= -.23130768E+03 E0= -.23130768E+03  EK= 0.11586E+02 SP= -.15E+02 SK= 0.11E-02
    461 T=   697. E= -.23424638E+03 F= -.23121677E+03 E0= -.23121677E+03  EK= 0.11444E+02 SP= -.14E+02 SK= 0.87E-02
    462 T=   685. E= -.23424560E+03 F= -.23111897E+03 E0= -.23111897E+03  EK= 0.11250E+02 SP= -.14E+02 SK= 0.22E-01
    463 T=   671. E= -.23424478E+03 F= -.23102258E+03 E0= -.23102258E+03  EK= 0.11019E+02 SP= -.14E+02 SK= 0.38E-01
    464 T=   656. E= -.23424394E+03 F= -.23093588E+03 E0= -.23093588E+03  EK= 0.10769E+02 SP= -.14E+02 SK= 0.54E-01
    465 T=   641. E= -.23424316E+03 F= -.23086723E+03 E0= -.23086723E+03  EK= 0.10515E+02 SP= -.14E+02 SK= 0.68E-01
    466 T=   626. E= -.23424258E+03 F= -.23082457E+03 E0= -.23082457E+03  EK= 0.10274E+02 SP= -.14E+02 SK= 0.79E-01
    467 T=   613. E= -.23424211E+03 F= -.23081429E+03 E0= -.23081429E+03  EK= 0.10058E+02 SP= -.14E+02 SK= 0.85E-01
    468 T=   602. E= -.23424179E+03 F= -.23084119E+03 E0= -.23084119E+03  EK= 0.98773E+01 SP= -.13E+02 SK= 0.88E-01
    469 T=   593. E= -.23424175E+03 F= -.23090777E+03 E0= -.23090777E+03  EK= 0.97381E+01 SP= -.13E+02 SK= 0.87E-01
    470 T=   587. E= -.23424192E+03 F= -.23101314E+03 E0= -.23101314E+03  EK= 0.96422E+01 SP= -.13E+02 SK= 0.84E-01
    471 T=   584. E= -.23424244E+03 F= -.23115259E+03 E0= -.23115259E+03  EK= 0.95861E+01 SP= -.13E+02 SK= 0.80E-01
    472 T=   582. E= -.23424318E+03 F= -.23131674E+03 E0= -.23131674E+03  EK= 0.95612E+01 SP= -.13E+02 SK= 0.75E-01
    473 T=   582. E= -.23424399E+03 F= -.23149237E+03 E0= -.23149237E+03  EK= 0.95543E+01 SP= -.12E+02 SK= 0.69E-01
    474 T=   582. E= -.23424475E+03 F= -.23166443E+03 E0= -.23166443E+03  EK= 0.95507E+01 SP= -.12E+02 SK= 0.64E-01
    475 T=   581. E= -.23424538E+03 F= -.23181839E+03 E0= -.23181839E+03  EK= 0.95360E+01 SP= -.12E+02 SK= 0.59E-01
    476 T=   579. E= -.23424581E+03 F= -.23194161E+03 E0= -.23194161E+03  EK= 0.94983E+01 SP= -.12E+02 SK= 0.54E-01
    477 T=   574. E= -.23424597E+03 F= -.23202466E+03 E0= -.23202466E+03  EK= 0.94295E+01 SP= -.12E+02 SK= 0.48E-01
    478 T=   568. E= -.23424577E+03 F= -.23206245E+03 E0= -.23206245E+03  EK= 0.93268E+01 SP= -.12E+02 SK= 0.41E-01
    479 T=   560. E= -.23424539E+03 F= -.23205514E+03 E0= -.23205514E+03  EK= 0.91928E+01 SP= -.11E+02 SK= 0.34E-01
    480 T=   550. E= -.23424476E+03 F= -.23200733E+03 E0= -.23200733E+03  EK= 0.90352E+01 SP= -.11E+02 SK= 0.25E-01
    481 T=   540. E= -.23424400E+03 F= -.23192803E+03 E0= -.23192803E+03  EK= 0.88663E+01 SP= -.11E+02 SK= 0.16E-01
    482 T=   530. E= -.23424314E+03 F= -.23182952E+03 E0= -.23182952E+03  EK= 0.87013E+01 SP= -.11E+02 SK= 0.80E-02
    483 T=   521. E= -.23424227E+03 F= -.23172637E+03 E0= -.23172637E+03  EK= 0.85573E+01 SP= -.11E+02 SK= 0.22E-02
    484 T=   515. E= -.23424151E+03 F= -.23163368E+03 E0= -.23163368E+03  EK= 0.84515E+01 SP= -.11E+02 SK= 0.44E-06
    485 T=   512. E= -.23424085E+03 F= -.23156501E+03 E0= -.23156501E+03  EK= 0.83989E+01 SP= -.11E+02 SK= 0.26E-02
    486 T=   512. E= -.23424042E+03 F= -.23153139E+03 E0= -.23153139E+03  EK= 0.84112E+01 SP= -.11E+02 SK= 0.10E-01
    487 T=   518. E= -.23424020E+03 F= -.23153962E+03 E0= -.23153962E+03  EK= 0.84955E+01 SP= -.11E+02 SK= 0.23E-01
    488 T=   527. E= -.23424024E+03 F= -.23159179E+03 E0= -.23159179E+03  EK= 0.86532E+01 SP= -.11E+02 SK= 0.39E-01
    489 T=   541. E= -.23424043E+03 F= -.23168548E+03 E0= -.23168548E+03  EK= 0.88805E+01 SP= -.11E+02 SK= 0.55E-01
    490 T=   559. E= -.23424084E+03 F= -.23181492E+03 E0= -.23181492E+03  EK= 0.91688E+01 SP= -.12E+02 SK= 0.70E-01
    491 T=   579. E= -.23424141E+03 F= -.23197136E+03 E0= -.23197136E+03  EK= 0.95049E+01 SP= -.12E+02 SK= 0.79E-01
    492 T=   601. E= -.23424218E+03 F= -.23214403E+03 E0= -.23214403E+03  EK= 0.98719E+01 SP= -.12E+02 SK= 0.82E-01
    493 T=   624. E= -.23424319E+03 F= -.23232061E+03 E0= -.23232061E+03  EK= 0.10249E+02 SP= -.12E+02 SK= 0.78E-01
    494 T=   647. E= -.23424430E+03 F= -.23248772E+03 E0= -.23248772E+03  EK= 0.10613E+02 SP= -.12E+02 SK= 0.66E-01
    495 T=   666. E= -.23424550E+03 F= -.23263201E+03 E0= -.23263201E+03  EK= 0.10940E+02 SP= -.13E+02 SK= 0.50E-01
    496 T=   683. E= -.23424663E+03 F= -.23274051E+03 E0= -.23274051E+03  EK= 0.11206E+02 SP= -.13E+02 SK= 0.32E-01
    497 T=   694. E= -.23424756E+03 F= -.23280193E+03 E0= -.23280193E+03  EK= 0.11389E+02 SP= -.13E+02 SK= 0.16E-01
    498 T=   699. E= -.23424825E+03 F= -.23280766E+03 E0= -.23280766E+03  EK= 0.11473E+02 SP= -.13E+02 SK= 0.48E-02
    499 T=   697. E= -.23424863E+03 F= -.23275140E+03 E0= -.23275140E+03  EK= 0.11449E+02 SP= -.13E+02 SK= 0.11E-03
    500 T=   689. E= -.23424860E+03 F= -.23262984E+03 E0= -.23262984E+03  EK= 0.11314E+02 SP= -.13E+02 SK= 0.20E-02
    501 T=   675. E= -.23424810E+03 F= -.23244387E+03 E0= -.23244387E+03  EK= 0.11073E+02 SP= -.13E+02 SK= 0.88E-02
    502 T=   654. E= -.23424704E+03 F= -.23219972E+03 E0= -.23219972E+03  EK= 0.10742E+02 SP= -.13E+02 SK= 0.18E-01
    503 T=   630. E= -.23424540E+03 F= -.23191107E+03 E0= -.23191107E+03  EK= 0.10346E+02 SP= -.13E+02 SK= 0.25E-01
    504 T=   604. E= -.23424344E+03 F= -.23160012E+03 E0= -.23160012E+03  EK= 0.99191E+01 SP= -.13E+02 SK= 0.29E-01
    505 T=   579. E= -.23424160E+03 F= -.23129484E+03 E0= -.23129484E+03  EK= 0.95008E+01 SP= -.12E+02 SK= 0.27E-01
       N       E                     dE             d eps       ncg     rms          rms(c)
RMM:   1    -0.219416470519E+03    0.23784E+01   -0.13290E+03   129   0.513E+01
RMM:   2    -0.234213610098E+03   -0.14797E+02   -0.12116E+02   129   0.162E+01
RMM:   3    -0.236394900408E+03   -0.21813E+01   -0.18839E+01   129   0.597E+00
RMM:   4    -0.236804573399E+03   -0.40967E+00   -0.37601E+00   260   0.265E+00
RMM:   5    -0.236942208356E+03   -0.13763E+00   -0.13292E+00   269   0.127E+00    0.885E+00
RMM:   6    -0.224288268196E+03    0.12654E+02   -0.18575E+01   303   0.300E+00    0.351E+00
RMM:   7    -0.223244552089E+03    0.10437E+01   -0.22048E+00   258   0.144E+00    0.160E+00
RMM:   8    -0.223162239399E+03    0.82313E-01   -0.52455E-01   258   0.779E-01    0.881E-01
RMM:   9    -0.223150624828E+03    0.11615E-01   -0.17027E-01   262   0.443E-01    0.422E-01
RMM:  10    -0.223150626635E+03   -0.18066E-05   -0.41895E-02   262   0.248E-01    0.193E-01
RMM:  11    -0.223151353087E+03   -0.72645E-03   -0.12235E-02   236   0.129E-01
    506 T=   556. E= -.22637584E+03 F= -.22315135E+03 E0= -.22314040E+03  EK= 0.91206E+01 SP= -.12E+02 SK= 0.21E-01
    507 T=   538. E= -.23425037E+03 F= -.23081919E+03 E0= -.23081919E+03  EK= 0.88310E+01 SP= -.12E+02 SK= 0.13E-01
    508 T=   527. E= -.23424974E+03 F= -.23068984E+03 E0= -.23068984E+03  EK= 0.86434E+01 SP= -.12E+02 SK= 0.57E-02
    509 T=   522. E= -.23424943E+03 F= -.23064659E+03 E0= -.23064659E+03  EK= 0.85679E+01 SP= -.12E+02 SK= 0.98E-03
    510 T=   525. E= -.23424943E+03 F= -.23069462E+03 E0= -.23069462E+03  EK= 0.86105E+01 SP= -.12E+02 SK= 0.18E-03
    511 T=   534. E= -.23424983E+03 F= -.23083258E+03 E0= -.23083258E+03  EK= 0.87690E+01 SP= -.12E+02 SK= 0.30E-02
    512 T=   550. E= -.23425065E+03 F= -.23105219E+03 E0= -.23105219E+03  EK= 0.90329E+01 SP= -.12E+02 SK= 0.78E-02
    513 T=   572. E= -.23425205E+03 F= -.23133770E+03 E0= -.23133770E+03  EK= 0.93820E+01 SP= -.12E+02 SK= 0.12E-01
    514 T=   596. E= -.23425408E+03 F= -.23166489E+03 E0= -.23166489E+03  EK= 0.97855E+01 SP= -.12E+02 SK= 0.14E-01
    515 T=   622. E= -.23425637E+03 F= -.23200231E+03 E0= -.23200231E+03  EK= 0.10204E+02 SP= -.12E+02 SK= 0.13E-01
    516 T=   645. E= -.23425857E+03 F= -.23231619E+03 E0= -.23231619E+03  EK= 0.10592E+02 SP= -.13E+02 SK= 0.88E-02
    517 T=   665. E= -.23426022E+03 F= -.23257569E+03 E0= -.23257569E+03  EK= 0.10909E+02 SP= -.13E+02 SK= 0.37E-02
    518 T=   677. E= -.23426104E+03 F= -.23275860E+03 E0= -.23275860E+03  EK= 0.11121E+02 SP= -.13E+02 SK= 0.31E-03
    519 T=   683. E= -.23426090E+03 F= -.23285435E+03 E0= -.23285435E+03  EK= 0.11212E+02 SP= -.13E+02 SK= 0.93E-03
    520 T=   681. E= -.23426001E+03 F= -.23286354E+03 E0= -.23286354E+03  EK= 0.11178E+02 SP= -.13E+02 SK= 0.63E-02
    521 T=   672. E= -.23425848E+03 F= -.23279662E+03 E0= -.23279662E+03  EK= 0.11032E+02 SP= -.13E+02 SK= 0.16E-01
    522 T=   658. E= -.23425676E+03 F= -.23267184E+03 E0= -.23267184E+03  EK= 0.10797E+02 SP= -.12E+02 SK= 0.27E-01
    523 T=   640. E= -.23425497E+03 F= -.23251069E+03 E0= -.23251069E+03  EK= 0.10502E+02 SP= -.12E+02 SK= 0.37E-01
    524 T=   620. E= -.23425341E+03 F= -.23233575E+03 E0= -.23233575E+03  EK= 0.10180E+02 SP= -.12E+02 SK= 0.45E-01
    525 T=   601. E= -.23425229E+03 F= -.23216771E+03 E0= -.23216771E+03  EK= 0.98606E+01 SP= -.12E+02 SK= 0.48E-01
    526 T=   583. E= -.23425166E+03 F= -.23202254E+03 E0= -.23202254E+03  EK= 0.95674E+01 SP= -.12E+02 SK= 0.46E-01
    527 T=   568. E= -.23425139E+03 F= -.23191032E+03 E0= -.23191032E+03  EK= 0.93171E+01 SP= -.12E+02 SK= 0.40E-01
    528 T=   556. E= -.23425150E+03 F= -.23183582E+03 E0= -.23183582E+03  EK= 0.91194E+01 SP= -.12E+02 SK= 0.32E-01
    529 T=   547. E= -.23425181E+03 F= -.23179895E+03 E0= -.23179895E+03  EK= 0.89775E+01 SP= -.11E+02 SK= 0.22E-01
    530 T=   542. E= -.23425223E+03 F= -.23179626E+03 E0= -.23179626E+03  EK= 0.88901E+01 SP= -.11E+02 SK= 0.14E-01
    531 T=   539. E= -.23425269E+03 F= -.23182231E+03 E0= -.23182231E+03  EK= 0.88529E+01 SP= -.11E+02 SK= 0.68E-02
    532 T=   540. E= -.23425321E+03 F= -.23187023E+03 E0= -.23187023E+03  EK= 0.88594E+01 SP= -.11E+02 SK= 0.23E-02
    533 T=   542. E= -.23425368E+03 F= -.23193185E+03 E0= -.23193185E+03  EK= 0.89011E+01 SP= -.11E+02 SK= 0.19E-03
    534 T=   546. E= -.23425412E+03 F= -.23199907E+03 E0= -.23199907E+03  EK= 0.89692E+01 SP= -.11E+02 SK= 0.33E-03
    535 T=   552. E= -.23425448E+03 F= -.23206444E+03 E0= -.23206444E+03  EK= 0.90551E+01 SP= -.11E+02 SK= 0.22E-02
    536 T=   557. E= -.23425474E+03 F= -.23212193E+03 E0= -.23212193E+03  EK= 0.91512E+01 SP= -.11E+02 SK= 0.54E-02
    537 T=   564. E= -.23425480E+03 F= -.23216714E+03 E0= -.23216714E+03  EK= 0.92513E+01 SP= -.11E+02 SK= 0.91E-02
    538 T=   570. E= -.23425478E+03 F= -.23219796E+03 E0= -.23219796E+03  EK= 0.93514E+01 SP= -.11E+02 SK= 0.13E-01
    539 T=   576. E= -.23425472E+03 F= -.23221415E+03 E0= -.23221415E+03  EK= 0.94490E+01 SP= -.12E+02 SK= 0.17E-01
    540 T=   581. E= -.23425462E+03 F= -.23221644E+03 E0= -.23221644E+03  EK= 0.95427E+01 SP= -.12E+02 SK= 0.20E-01
    541 T=   587. E= -.23425464E+03 F= -.23220597E+03 E0= -.23220597E+03  EK= 0.96315E+01 SP= -.12E+02 SK= 0.23E-01
    542 T=   592. E= -.23425459E+03 F= -.23218336E+03 E0= -.23218336E+03  EK= 0.97139E+01 SP= -.12E+02 SK= 0.24E-01
    543 T=   596. E= -.23425464E+03 F= -.23214957E+03 E0= -.23214957E+03  EK= 0.97889E+01 SP= -.12E+02 SK= 0.25E-01
    544 T=   600. E= -.23425467E+03 F= -.23210502E+03 E0= -.23210502E+03  EK= 0.98551E+01 SP= -.12E+02 SK= 0.25E-01
    545 T=   604. E= -.23425463E+03 F= -.23205068E+03 E0= -.23205068E+03  EK= 0.99117E+01 SP= -.12E+02 SK= 0.25E-01
    546 T=   607. E= -.23425448E+03 F= -.23198899E+03 E0= -.23198899E+03  EK= 0.99597E+01 SP= -.12E+02 SK= 0.24E-01
    547 T=   609. E= -.23425421E+03 F= -.23192416E+03 E0= -.23192416E+03  EK= 0.10002E+02 SP= -.12E+02 SK= 0.22E-01
    548 T=   612. E= -.23425393E+03 F= -.23186210E+03 E0= -.23186210E+03  EK= 0.10043E+02 SP= -.12E+02 SK= 0.20E-01
    549 T=   615. E= -.23425367E+03 F= -.23180933E+03 E0= -.23180933E+03  EK= 0.10089E+02 SP= -.13E+02 SK= 0.18E-01
    550 T=   618. E= -.23425339E+03 F= -.23177207E+03 E0= -.23177207E+03  EK= 0.10144E+02 SP= -.13E+02 SK= 0.15E-01
    551 T=   622. E= -.23425325E+03 F= -.23175591E+03 E0= -.23175591E+03  EK= 0.10213E+02 SP= -.13E+02 SK= 0.12E-01
    552 T=   627. E= -.23425326E+03 F= -.23176475E+03 E0= -.23176475E+03  EK= 0.10297E+02 SP= -.13E+02 SK= 0.93E-02
    553 T=   633. E= -.23425351E+03 F= -.23180002E+03 E0= -.23180002E+03  EK= 0.10396E+02 SP= -.13E+02 SK= 0.61E-02
    554 T=   640. E= -.23425405E+03 F= -.23185927E+03 E0= -.23185927E+03  EK= 0.10505E+02 SP= -.13E+02 SK= 0.32E-02
    555 T=   647. E= -.23425482E+03 F= -.23193605E+03 E0= -.23193605E+03  EK= 0.10613E+02 SP= -.13E+02 SK= 0.93E-03
    556 T=   652. E= -.23425558E+03 F= -.23202104E+03 E0= -.23202104E+03  EK= 0.10709E+02 SP= -.13E+02 SK= 0.10E-05
    557 T=   657. E= -.23425641E+03 F= -.23210349E+03 E0= -.23210349E+03  EK= 0.10779E+02 SP= -.13E+02 SK= 0.10E-02
    558 T=   658. E= -.23425707E+03 F= -.23217164E+03 E0= -.23217164E+03  EK= 0.10809E+02 SP= -.13E+02 SK= 0.44E-02
    559 T=   657. E= -.23425737E+03 F= -.23221541E+03 E0= -.23221541E+03  EK= 0.10789E+02 SP= -.13E+02 SK= 0.10E-01
    560 T=   653. E= -.23425752E+03 F= -.23222811E+03 E0= -.23222811E+03  EK= 0.10712E+02 SP= -.13E+02 SK= 0.18E-01
    561 T=   644. E= -.23425753E+03 F= -.23220542E+03 E0= -.23220542E+03  EK= 0.10577E+02 SP= -.13E+02 SK= 0.27E-01
    562 T=   633. E= -.23425727E+03 F= -.23214529E+03 E0= -.23214529E+03  EK= 0.10387E+02 SP= -.13E+02 SK= 0.35E-01
    563 T=   618. E= -.23425683E+03 F= -.23204885E+03 E0= -.23204885E+03  EK= 0.10150E+02 SP= -.12E+02 SK= 0.41E-01
    564 T=   602. E= -.23425620E+03 F= -.23192010E+03 E0= -.23192010E+03  EK= 0.98757E+01 SP= -.12E+02 SK= 0.44E-01
    565 T=   584. E= -.23425532E+03 F= -.23176698E+03 E0= -.23176698E+03  EK= 0.95805E+01 SP= -.12E+02 SK= 0.42E-01
    566 T=   566. E= -.23425436E+03 F= -.23160165E+03 E0= -.23160165E+03  EK= 0.92835E+01 SP= -.12E+02 SK= 0.37E-01
    567 T=   549. E= -.23425345E+03 F= -.23143843E+03 E0= -.23143843E+03  EK= 0.90053E+01 SP= -.12E+02 SK= 0.28E-01
    568 T=   534. E= -.23425270E+03 F= -.23129195E+03 E0= -.23129195E+03  EK= 0.87653E+01 SP= -.12E+02 SK= 0.18E-01
    569 T=   523. E= -.23425217E+03 F= -.23117521E+03 E0= -.23117521E+03  EK= 0.85802E+01 SP= -.12E+02 SK= 0.83E-02
    570 T=   516. E= -.23425186E+03 F= -.23109832E+03 E0= -.23109832E+03  EK= 0.84626E+01 SP= -.12E+02 SK= 0.20E-02
    571 T=   513. E= -.23425183E+03 F= -.23106732E+03 E0= -.23106732E+03  EK= 0.84200E+01 SP= -.12E+02 SK= 0.28E-04
    572 T=   515. E= -.23425211E+03 F= -.23108316E+03 E0= -.23108316E+03  EK= 0.84536E+01 SP= -.12E+02 SK= 0.30E-02
    573 T=   521. E= -.23425267E+03 F= -.23114136E+03 E0= -.23114136E+03  EK= 0.85588E+01 SP= -.12E+02 SK= 0.11E-01
    574 T=   531. E= -.23425346E+03 F= -.23123261E+03 E0= -.23123261E+03  EK= 0.87251E+01 SP= -.12E+02 SK= 0.21E-01
    575 T=   544. E= -.23425455E+03 F= -.23134348E+03 E0= -.23134348E+03  EK= 0.89368E+01 SP= -.12E+02 SK= 0.33E-01
    576 T=   559. E= -.23425573E+03 F= -.23145692E+03 E0= -.23145692E+03  EK= 0.91740E+01 SP= -.12E+02 SK= 0.43E-01
    577 T=   574. E= -.23425680E+03 F= -.23155510E+03 E0= -.23155510E+03  EK= 0.94147E+01 SP= -.12E+02 SK= 0.52E-01
    578 T=   587. E= -.23425770E+03 F= -.23162285E+03 E0= -.23162285E+03  EK= 0.96388E+01 SP= -.12E+02 SK= 0.57E-01
    579 T=   599. E= -.23425833E+03 F= -.23164908E+03 E0= -.23164908E+03  EK= 0.98298E+01 SP= -.12E+02 SK= 0.58E-01
    580 T=   608. E= -.23425856E+03 F= -.23162819E+03 E0= -.23162819E+03  EK= 0.99770E+01 SP= -.13E+02 SK= 0.57E-01
    581 T=   614. E= -.23425853E+03 F= -.23156064E+03 E0= -.23156064E+03  EK= 0.10076E+02 SP= -.13E+02 SK= 0.53E-01
    582 T=   617. E= -.23425819E+03 F= -.23145196E+03 E0= -.23145196E+03  EK= 0.10130E+02 SP= -.13E+02 SK= 0.49E-01
    583 T=   618. E= -.23425763E+03 F= -.23131239E+03 E0= -.23131239E+03  EK= 0.10146E+02 SP= -.13E+02 SK= 0.44E-01
    584 T=   617. E= -.23425703E+03 F= -.23115497E+03 E0= -.23115497E+03  EK= 0.10135E+02 SP= -.13E+02 SK= 0.39E-01
       N       E                     dE             d eps       ncg     rms          rms(c)
RMM:   1    -0.214508030321E+03    0.86426E+01   -0.14676E+03   129   0.535E+01
RMM:   2    -0.230628615507E+03   -0.16121E+02   -0.12978E+02   129   0.165E+01
RMM:   3    -0.232824219588E+03   -0.21956E+01   -0.18653E+01   129   0.594E+00
RMM:   4    -0.233233775965E+03   -0.40956E+00   -0.37513E+00   262   0.258E+00
RMM:   5    -0.233363562461E+03   -0.12979E+00   -0.12394E+00   272   0.120E+00    0.807E+00
RMM:   6    -0.223823335112E+03    0.95402E+01   -0.13774E+01   282   0.281E+00    0.339E+00
RMM:   7    -0.223099300802E+03    0.72403E+00   -0.24455E+00   258   0.155E+00    0.157E+00
RMM:   8    -0.223018425269E+03    0.80876E-01   -0.59179E-01   258   0.828E-01    0.809E-01
RMM:   9    -0.223010303647E+03    0.81216E-02   -0.15526E-01   259   0.453E-01    0.394E-01
RMM:  10    -0.223010928288E+03   -0.62464E-03   -0.43719E-02   267   0.244E-01    0.171E-01
RMM:  11    -0.223011321495E+03   -0.39321E-03   -0.97972E-03   227   0.124E-01
    585 T=   616. E= -.22627133E+03 F= -.22301132E+03 E0= -.22298270E+03  EK= 0.10116E+02 SP= -.13E+02 SK= 0.35E-01
    586 T=   615. E= -.23424489E+03 F= -.23084082E+03 E0= -.23084082E+03  EK= 0.10103E+02 SP= -.14E+02 SK= 0.32E-01
    587 T=   615. E= -.23424436E+03 F= -.23070880E+03 E0= -.23070880E+03  EK= 0.10095E+02 SP= -.14E+02 SK= 0.28E-01
    588 T=   616. E= -.23424390E+03 F= -.23060745E+03 E0= -.23060745E+03  EK= 0.10112E+02 SP= -.14E+02 SK= 0.25E-01
    589 T=   619. E= -.23424348E+03 F= -.23054604E+03 E0= -.23054604E+03  EK= 0.10161E+02 SP= -.14E+02 SK= 0.22E-01
    590 T=   624. E= -.23424339E+03 F= -.23053183E+03 E0= -.23053183E+03  EK= 0.10249E+02 SP= -.14E+02 SK= 0.18E-01
    591 T=   632. E= -.23424375E+03 F= -.23056742E+03 E0= -.23056742E+03  EK= 0.10376E+02 SP= -.14E+02 SK= 0.14E-01
    592 T=   642. E= -.23424465E+03 F= -.23064874E+03 E0= -.23064874E+03  EK= 0.10536E+02 SP= -.14E+02 SK= 0.91E-02
    593 T=   652. E= -.23424605E+03 F= -.23076390E+03 E0= -.23076390E+03  EK= 0.10711E+02 SP= -.14E+02 SK= 0.45E-02
    594 T=   663. E= -.23424771E+03 F= -.23089410E+03 E0= -.23089410E+03  EK= 0.10878E+02 SP= -.14E+02 SK= 0.11E-02
    595 T=   671. E= -.23424910E+03 F= -.23101720E+03 E0= -.23101720E+03  EK= 0.11010E+02 SP= -.14E+02 SK= 0.49E-04
    596 T=   675. E= -.23425007E+03 F= -.23111378E+03 E0= -.23111378E+03  EK= 0.11083E+02 SP= -.14E+02 SK= 0.26E-02
    597 T=   675. E= -.23425039E+03 F= -.23117005E+03 E0= -.23117005E+03  EK= 0.11081E+02 SP= -.14E+02 SK= 0.92E-02
    598 T=   670. E= -.23424994E+03 F= -.23118009E+03 E0= -.23118009E+03  EK= 0.11000E+02 SP= -.14E+02 SK= 0.19E-01
    599 T=   661. E= -.23424894E+03 F= -.23114708E+03 E0= -.23114708E+03  EK= 0.10844E+02 SP= -.14E+02 SK= 0.32E-01
    600 T=   648. E= -.23424762E+03 F= -.23108155E+03 E0= -.23108155E+03  EK= 0.10631E+02 SP= -.14E+02 SK= 0.45E-01
    601 T=   633. E= -.23424607E+03 F= -.23099899E+03 E0= -.23099899E+03  EK= 0.10384E+02 SP= -.14E+02 SK= 0.55E-01
    602 T=   617. E= -.23424464E+03 F= -.23091773E+03 E0= -.23091773E+03  EK= 0.10127E+02 SP= -.14E+02 SK= 0.63E-01
       N       E                     dE             d eps       ncg     rms          rms(c)
RMM:   1    -0.221482538897E+03    0.15284E+01   -0.54474E+02   129   0.343E+01
RMM:   2    -0.228171896100E+03   -0.66894E+01   -0.54810E+01   129   0.113E+01
RMM:   3    -0.229144202599E+03   -0.97231E+00   -0.90654E+00   129   0.452E+00
RMM:   4    -0.229323809122E+03   -0.17961E+00   -0.17080E+00   258   0.191E+00
RMM:   5    -0.229374742560E+03   -0.50933E-01   -0.50070E-01   258   0.916E-01    0.649E+00
RMM:   6    -0.223640814615E+03    0.57339E+01   -0.90033E+00   311   0.221E+00    0.296E+00
RMM:   7    -0.222863945510E+03    0.77687E+00   -0.12450E+00   258   0.105E+00    0.127E+00
RMM:   8    -0.222775054721E+03    0.88891E-01   -0.45760E-01   258   0.650E-01    0.595E-01
RMM:   9    -0.222766885842E+03    0.81689E-02   -0.81313E-02   259   0.341E-01    0.279E-01
RMM:  10    -0.222766618396E+03    0.26745E-03   -0.22533E-02   261   0.183E-01
    603 T=   601. E= -.22617477E+03 F= -.22276662E+03 E0= -.22274090E+03  EK= 0.98657E+01 SP= -.13E+02 SK= 0.66E-01
    604 T=   588. E= -.23427897E+03 F= -.23083224E+03 E0= -.23083224E+03  EK= 0.96506E+01 SP= -.13E+02 SK= 0.64E-01
    605 T=   579. E= -.23427870E+03 F= -.23085207E+03 E0= -.23085207E+03  EK= 0.95016E+01 SP= -.13E+02 SK= 0.60E-01
    606 T=   573. E= -.23427891E+03 F= -.23091834E+03 E0= -.23091834E+03  EK= 0.94084E+01 SP= -.13E+02 SK= 0.53E-01
    607 T=   571. E= -.23427956E+03 F= -.23102741E+03 E0= -.23102741E+03  EK= 0.93684E+01 SP= -.13E+02 SK= 0.46E-01
    608 T=   571. E= -.23428077E+03 F= -.23116794E+03 E0= -.23116794E+03  EK= 0.93704E+01 SP= -.13E+02 SK= 0.39E-01
    609 T=   572. E= -.23428228E+03 F= -.23132077E+03 E0= -.23132077E+03  EK= 0.93948E+01 SP= -.12E+02 SK= 0.33E-01
    610 T=   574. E= -.23428366E+03 F= -.23146204E+03 E0= -.23146204E+03  EK= 0.94177E+01 SP= -.12E+02 SK= 0.28E-01
    611 T=   574. E= -.23428457E+03 F= -.23156900E+03 E0= -.23156900E+03  EK= 0.94164E+01 SP= -.12E+02 SK= 0.24E-01
    612 T=   571. E= -.23428479E+03 F= -.23162548E+03 E0= -.23162548E+03  EK= 0.93752E+01 SP= -.12E+02 SK= 0.19E-01
    613 T=   566. E= -.23428435E+03 F= -.23162504E+03 E0= -.23162504E+03  EK= 0.92892E+01 SP= -.12E+02 SK= 0.15E-01
    614 T=   558. E= -.23428340E+03 F= -.23157126E+03 E0= -.23157126E+03  EK= 0.91638E+01 SP= -.12E+02 SK= 0.10E-01
    615 T=   549. E= -.23428212E+03 F= -.23147623E+03 E0= -.23147623E+03  EK= 0.90139E+01 SP= -.12E+02 SK= 0.55E-02
    616 T=   540. E= -.23428072E+03 F= -.23135819E+03 E0= -.23135819E+03  EK= 0.88604E+01 SP= -.12E+02 SK= 0.18E-02
    617 T=   532. E= -.23427945E+03 F= -.23123793E+03 E0= -.23123793E+03  EK= 0.87266E+01 SP= -.12E+02 SK= 0.29E-04
    618 T=   526. E= -.23427838E+03 F= -.23113535E+03 E0= -.23113535E+03  EK= 0.86344E+01 SP= -.12E+02 SK= 0.13E-02
    619 T=   524. E= -.23427760E+03 F= -.23106735E+03 E0= -.23106735E+03  EK= 0.86022E+01 SP= -.12E+02 SK= 0.63E-02
    620 T=   526. E= -.23427724E+03 F= -.23104597E+03 E0= -.23104597E+03  EK= 0.86427E+01 SP= -.12E+02 SK= 0.15E-01
    621 T=   534. E= -.23427723E+03 F= -.23107625E+03 E0= -.23107625E+03  EK= 0.87608E+01 SP= -.12E+02 SK= 0.27E-01
    622 T=   545. E= -.23427768E+03 F= -.23115630E+03 E0= -.23115630E+03  EK= 0.89536E+01 SP= -.12E+02 SK= 0.39E-01
    623 T=   561. E= -.23427839E+03 F= -.23127787E+03 E0= -.23127787E+03  EK= 0.92104E+01 SP= -.12E+02 SK= 0.50E-01
    624 T=   580. E= -.23427932E+03 F= -.23142835E+03 E0= -.23142835E+03  EK= 0.95146E+01 SP= -.12E+02 SK= 0.58E-01
    625 T=   600. E= -.23428034E+03 F= -.23159295E+03 E0= -.23159295E+03  EK= 0.98458E+01 SP= -.13E+02 SK= 0.61E-01
    626 T=   620. E= -.23428133E+03 F= -.23175665E+03 E0= -.23175665E+03  EK= 0.10182E+02 SP= -.13E+02 SK= 0.58E-01
    627 T=   640. E= -.23428235E+03 F= -.23190596E+03 E0= -.23190596E+03  EK= 0.10500E+02 SP= -.13E+02 SK= 0.49E-01
    628 T=   657. E= -.23428332E+03 F= -.23202916E+03 E0= -.23202916E+03  EK= 0.10778E+02 SP= -.13E+02 SK= 0.37E-01
    629 T=   670. E= -.23428413E+03 F= -.23211668E+03 E0= -.23211668E+03  EK= 0.11000E+02 SP= -.13E+02 SK= 0.24E-01
    630 T=   679. E= -.23428474E+03 F= -.23216157E+03 E0= -.23216157E+03  EK= 0.11148E+02 SP= -.13E+02 SK= 0.12E-01
    631 T=   683. E= -.23428496E+03 F= -.23215965E+03 E0= -.23215965E+03  EK= 0.11215E+02 SP= -.13E+02 SK= 0.38E-02
    632 T=   682. E= -.23428499E+03 F= -.23211013E+03 E0= -.23211013E+03  EK= 0.11195E+02 SP= -.13E+02 SK= 0.15E-03
    633 T=   676. E= -.23428451E+03 F= -.23201495E+03 E0= -.23201495E+03  EK= 0.11091E+02 SP= -.13E+02 SK= 0.12E-02
    634 T=   665. E= -.23428382E+03 F= -.23188029E+03 E0= -.23188029E+03  EK= 0.10914E+02 SP= -.13E+02 SK= 0.59E-02
    635 T=   650. E= -.23428278E+03 F= -.23171541E+03 E0= -.23171541E+03  EK= 0.10678E+02 SP= -.13E+02 SK= 0.12E-01
    636 T=   634. E= -.23428153E+03 F= -.23153343E+03 E0= -.23153343E+03  EK= 0.10404E+02 SP= -.13E+02 SK= 0.19E-01
    637 T=   616. E= -.23428025E+03 F= -.23135047E+03 E0= -.23135047E+03  EK= 0.10117E+02 SP= -.13E+02 SK= 0.23E-01
    638 T=   600. E= -.23427898E+03 F= -.23118404E+03 E0= -.23118404E+03  EK= 0.98426E+01 SP= -.13E+02 SK= 0.25E-01
    639 T=   585. E= -.23427791E+03 F= -.23105202E+03 E0= -.23105202E+03  EK= 0.96046E+01 SP= -.13E+02 SK= 0.23E-01
    640 T=   574. E= -.23427722E+03 F= -.23096988E+03 E0= -.23096988E+03  EK= 0.94238E+01 SP= -.13E+02 SK= 0.20E-01
    641 T=   567. E= -.23427699E+03 F= -.23094809E+03 E0= -.23094809E+03  EK= 0.93138E+01 SP= -.13E+02 SK= 0.16E-01
    642 T=   565. E= -.23427718E+03 F= -.23099044E+03 E0= -.23099044E+03  EK= 0.92802E+01 SP= -.13E+02 SK= 0.11E-01
    643 T=   568. E= -.23427774E+03 F= -.23109355E+03 E0= -.23109355E+03  EK= 0.93196E+01 SP= -.13E+02 SK= 0.74E-02
    644 T=   574. E= -.23427849E+03 F= -.23124834E+03 E0= -.23124834E+03  EK= 0.94219E+01 SP= -.12E+02 SK= 0.48E-02
    645 T=   583. E= -.23427937E+03 F= -.23144223E+03 E0= -.23144223E+03  EK= 0.95721E+01 SP= -.12E+02 SK= 0.33E-02
    646 T=   594. E= -.23428027E+03 F= -.23166058E+03 E0= -.23166058E+03  EK= 0.97523E+01 SP= -.12E+02 SK= 0.26E-02
    647 T=   606. E= -.23428109E+03 F= -.23188866E+03 E0= -.23188866E+03  EK= 0.99434E+01 SP= -.12E+02 SK= 0.27E-02
    648 T=   617. E= -.23428194E+03 F= -.23211250E+03 E0= -.23211250E+03  EK= 0.10127E+02 SP= -.12E+02 SK= 0.35E-02
    649 T=   626. E= -.23428278E+03 F= -.23231821E+03 E0= -.23231821E+03  EK= 0.10284E+02 SP= -.12E+02 SK= 0.53E-02
    650 T=   633. E= -.23428334E+03 F= -.23249276E+03 E0= -.23249276E+03  EK= 0.10397E+02 SP= -.12E+02 SK= 0.84E-02
    651 T=   637. E= -.23428366E+03 F= -.23262575E+03 E0= -.23262575E+03  EK= 0.10454E+02 SP= -.12E+02 SK= 0.13E-01
    652 T=   636. E= -.23428349E+03 F= -.23271057E+03 E0= -.23271057E+03  EK= 0.10447E+02 SP= -.12E+02 SK= 0.18E-01
    653 T=   632. E= -.23428292E+03 F= -.23274654E+03 E0= -.23274654E+03  EK= 0.10376E+02 SP= -.12E+02 SK= 0.24E-01
    654 T=   624. E= -.23428226E+03 F= -.23273802E+03 E0= -.23273802E+03  EK= 0.10247E+02 SP= -.12E+02 SK= 0.30E-01
    655 T=   614. E= -.23428144E+03 F= -.23269192E+03 E0= -.23269192E+03  EK= 0.10072E+02 SP= -.12E+02 SK= 0.35E-01
    656 T=   601. E= -.23428066E+03 F= -.23261720E+03 E0= -.23261720E+03  EK= 0.98649E+01 SP= -.12E+02 SK= 0.36E-01
    657 T=   587. E= -.23427988E+03 F= -.23252351E+03 E0= -.23252351E+03  EK= 0.96409E+01 SP= -.11E+02 SK= 0.35E-01
    658 T=   574. E= -.23427913E+03 F= -.23242127E+03 E0= -.23242127E+03  EK= 0.94160E+01 SP= -.11E+02 SK= 0.31E-01
    659 T=   561. E= -.23427841E+03 F= -.23232145E+03 E0= -.23232145E+03  EK= 0.92060E+01 SP= -.11E+02 SK= 0.25E-01
    660 T=   550. E= -.23427790E+03 F= -.23223470E+03 E0= -.23223470E+03  EK= 0.90255E+01 SP= -.11E+02 SK= 0.18E-01
    661 T=   541. E= -.23427749E+03 F= -.23216954E+03 E0= -.23216954E+03  EK= 0.88862E+01 SP= -.11E+02 SK= 0.10E-01
    662 T=   536. E= -.23427735E+03 F= -.23213195E+03 E0= -.23213195E+03  EK= 0.87961E+01 SP= -.11E+02 SK= 0.44E-02
    663 T=   534. E= -.23427751E+03 F= -.23212377E+03 E0= -.23212377E+03  EK= 0.87582E+01 SP= -.11E+02 SK= 0.82E-03
    664 T=   534. E= -.23427800E+03 F= -.23214197E+03 E0= -.23214197E+03  EK= 0.87700E+01 SP= -.11E+02 SK= 0.91E-04
    665 T=   537. E= -.23427868E+03 F= -.23217883E+03 E0= -.23217883E+03  EK= 0.88236E+01 SP= -.11E+02 SK= 0.22E-02
    666 T=   543. E= -.23427946E+03 F= -.23222335E+03 E0= -.23222335E+03  EK= 0.89074E+01 SP= -.11E+02 SK= 0.65E-02
    667 T=   549. E= -.23428029E+03 F= -.23226307E+03 E0= -.23226307E+03  EK= 0.90075E+01 SP= -.11E+02 SK= 0.13E-01
    668 T=   555. E= -.23428093E+03 F= -.23228599E+03 E0= -.23228599E+03  EK= 0.91104E+01 SP= -.11E+02 SK= 0.19E-01
    669 T=   561. E= -.23428133E+03 F= -.23228323E+03 E0= -.23228323E+03  EK= 0.92055E+01 SP= -.11E+02 SK= 0.27E-01
    670 T=   566. E= -.23428144E+03 F= -.23225023E+03 E0= -.23225023E+03  EK= 0.92861E+01 SP= -.11E+02 SK= 0.34E-01
    671 T=   570. E= -.23428116E+03 F= -.23218756E+03 E0= -.23218756E+03  EK= 0.93511E+01 SP= -.11E+02 SK= 0.41E-01
    672 T=   573. E= -.23428059E+03 F= -.23210184E+03 E0= -.23210184E+03  EK= 0.94055E+01 SP= -.12E+02 SK= 0.47E-01
    673 T=   576. E= -.23427975E+03 F= -.23200437E+03 E0= -.23200437E+03  EK= 0.94592E+01 SP= -.12E+02 SK= 0.54E-01
    674 T=   580. E= -.23427888E+03 F= -.23190980E+03 E0= -.23190980E+03  EK= 0.95256E+01 SP= -.12E+02 SK= 0.60E-01
    675 T=   586. E= -.23427804E+03 F= -.23183354E+03 E0= -.23183354E+03  EK= 0.96189E+01 SP= -.12E+02 SK= 0.64E-01
    676 T=   594. E= -.23427749E+03 F= -.23178969E+03 E0= -.23178969E+03  EK= 0.97514E+01 SP= -.12E+02 SK= 0.67E-01
    677 T=   605. E= -.23427732E+03 F= -.23178793E+03 E0= -.23178793E+03  EK= 0.99303E+01 SP= -.12E+02 SK= 0.67E-01
    678 T=   619. E= -.23427752E+03 F= -.23183252E+03 E0= -.23183252E+03  EK= 0.10156E+02 SP= -.13E+02 SK= 0.63E-01
    679 T=   635. E= -.23427834E+03 F= -.23192185E+03 E0= -.23192185E+03  EK= 0.10422E+02 SP= -.13E+02 SK= 0.55E-01
    680 T=   653. E= -.23427962E+03 F= -.23204680E+03 E0= -.23204680E+03  EK= 0.10713E+02 SP= -.13E+02 SK= 0.44E-01
    681 T=   670. E= -.23428119E+03 F= -.23219251E+03 E0= -.23219251E+03  EK= 0.11004E+02 SP= -.13E+02 SK= 0.30E-01
    682 T=   686. E= -.23428280E+03 F= -.23234061E+03 E0= -.23234061E+03  EK= 0.11268E+02 SP= -.13E+02 SK= 0.16E-01
    683 T=   699. E= -.23428418E+03 F= -.23247230E+03 E0= -.23247230E+03  EK= 0.11478E+02 SP= -.13E+02 SK= 0.50E-02
    684 T=   707. E= -.23428504E+03 F= -.23257168E+03 E0= -.23257168E+03  EK= 0.11610E+02 SP= -.13E+02 SK= 0.88E-04
    685 T=   710. E= -.23428526E+03 F= -.23262842E+03 E0= -.23262842E+03  EK= 0.11647E+02 SP= -.13E+02 SK= 0.30E-02
    686 T=   706. E= -.23428477E+03 F= -.23263899E+03 E0= -.23263899E+03  EK= 0.11586E+02 SP= -.13E+02 SK= 0.14E-01
    687 T=   696. E= -.23428384E+03 F= -.23260673E+03 E0= -.23260673E+03  EK= 0.11433E+02 SP= -.13E+02 SK= 0.32E-01
    688 T=   682. E= -.23428276E+03 F= -.23253923E+03 E0= -.23253923E+03  EK= 0.11201E+02 SP= -.13E+02 SK= 0.54E-01
    689 T=   664. E= -.23428178E+03 F= -.23244482E+03 E0= -.23244482E+03  EK= 0.10908E+02 SP= -.13E+02 SK= 0.76E-01
    690 T=   644. E= -.23428090E+03 F= -.23233088E+03 E0= -.23233088E+03  EK= 0.10572E+02 SP= -.13E+02 SK= 0.95E-01
       N       E                     dE             d eps       ncg     rms          rms(c)
RMM:   1    -0.218656080621E+03    0.41108E+01   -0.14169E+03   129   0.523E+01
RMM:   2    -0.234902378902E+03   -0.16246E+02   -0.13158E+02   129   0.165E+01
RMM:   3    -0.237309233191E+03   -0.24069E+01   -0.20357E+01   129   0.615E+00
RMM:   4    -0.237773094429E+03   -0.46386E+00   -0.41767E+00   260   0.274E+00
RMM:   5    -0.237931213838E+03   -0.15812E+00   -0.15082E+00   271   0.133E+00    0.900E+00
RMM:   6    -0.225681056236E+03    0.12250E+02   -0.22098E+01   306   0.343E+00    0.375E+00
RMM:   7    -0.224567168077E+03    0.11139E+01   -0.20958E+00   258   0.150E+00    0.192E+00
RMM:   8    -0.224359395573E+03    0.20777E+00   -0.71555E-01   258   0.822E-01    0.967E-01
RMM:   9    -0.224344449327E+03    0.14946E-01   -0.18692E-01   261   0.481E-01    0.428E-01
RMM:  10    -0.224343421990E+03    0.10273E-02   -0.45538E-02   261   0.253E-01    0.220E-01
RMM:  11    -0.224344167007E+03   -0.74502E-03   -0.12799E-02   250   0.136E-01
    691 T=   621. E= -.22643502E+03 F= -.22434417E+03 E0= -.22431681E+03  EK= 0.10196E+02 SP= -.12E+02 SK= 0.11E+00
    692 T=   598. E= -.23371462E+03 F= -.23148623E+03 E0= -.23148623E+03  EK= 0.98227E+01 SP= -.12E+02 SK= 0.11E+00
    693 T=   577. E= -.23371377E+03 F= -.23136573E+03 E0= -.23136573E+03  EK= 0.94760E+01 SP= -.12E+02 SK= 0.11E+00
    694 T=   558. E= -.23371302E+03 F= -.23126363E+03 E0= -.23126363E+03  EK= 0.91637E+01 SP= -.12E+02 SK= 0.96E-01
    695 T=   542. E= -.23371257E+03 F= -.23119097E+03 E0= -.23119097E+03  EK= 0.89021E+01 SP= -.12E+02 SK= 0.79E-01
    696 T=   530. E= -.23371245E+03 F= -.23115580E+03 E0= -.23115580E+03  EK= 0.87030E+01 SP= -.11E+02 SK= 0.60E-01
    697 T=   522. E= -.23371283E+03 F= -.23116115E+03 E0= -.23116115E+03  EK= 0.85713E+01 SP= -.11E+02 SK= 0.41E-01
    698 T=   518. E= -.23371360E+03 F= -.23120296E+03 E0= -.23120296E+03  EK= 0.85042E+01 SP= -.11E+02 SK= 0.24E-01
    699 T=   517. E= -.23371446E+03 F= -.23127069E+03 E0= -.23127069E+03  EK= 0.84916E+01 SP= -.11E+02 SK= 0.12E-01
    700 T=   519. E= -.23371531E+03 F= -.23135074E+03 E0= -.23135074E+03  EK= 0.85197E+01 SP= -.11E+02 SK= 0.37E-02
    701 T=   522. E= -.23371596E+03 F= -.23142924E+03 E0= -.23142924E+03  EK= 0.85744E+01 SP= -.11E+02 SK= 0.24E-03
    702 T=   526. E= -.23371642E+03 F= -.23149451E+03 E0= -.23149451E+03  EK= 0.86430E+01 SP= -.11E+02 SK= 0.78E-03
    703 T=   531. E= -.23371671E+03 F= -.23153812E+03 E0= -.23153812E+03  EK= 0.87160E+01 SP= -.11E+02 SK= 0.47E-02
    704 T=   535. E= -.23371683E+03 F= -.23155483E+03 E0= -.23155483E+03  EK= 0.87871E+01 SP= -.11E+02 SK= 0.11E-01
    705 T=   539. E= -.23371679E+03 F= -.23154268E+03 E0= -.23154268E+03  EK= 0.88530E+01 SP= -.11E+02 SK= 0.20E-01
    706 T=   543. E= -.23371652E+03 F= -.23150338E+03 E0= -.23150338E+03  EK= 0.89145E+01 SP= -.11E+02 SK= 0.31E-01
    707 T=   547. E= -.23371605E+03 F= -.23144233E+03 E0= -.23144233E+03  EK= 0.89756E+01 SP= -.11E+02 SK= 0.43E-01
    708 T=   551. E= -.23371554E+03 F= -.23136789E+03 E0= -.23136789E+03  EK= 0.90436E+01 SP= -.11E+02 SK= 0.56E-01
    709 T=   556. E= -.23371504E+03 F= -.23128944E+03 E0= -.23128944E+03  EK= 0.91267E+01 SP= -.12E+02 SK= 0.69E-01
    710 T=   562. E= -.23371467E+03 F= -.23121577E+03 E0= -.23121577E+03  EK= 0.92323E+01 SP= -.12E+02 SK= 0.82E-01
    711 T=   571. E= -.23371449E+03 F= -.23115371E+03 E0= -.23115371E+03  EK= 0.93655E+01 SP= -.12E+02 SK= 0.93E-01
    712 T=   580. E= -.23371447E+03 F= -.23110736E+03 E0= -.23110736E+03  EK= 0.95284E+01 SP= -.12E+02 SK= 0.10E+00
    713 T=   592. E= -.23371464E+03 F= -.23107818E+03 E0= -.23107818E+03  EK= 0.97194E+01 SP= -.12E+02 SK= 0.11E+00
    714 T=   605. E= -.23371499E+03 F= -.23106515E+03 E0= -.23106515E+03  EK= 0.99337E+01 SP= -.13E+02 SK= 0.11E+00
    715 T=   619. E= -.23371546E+03 F= -.23106541E+03 E0= -.23106541E+03  EK= 0.10164E+02 SP= -.13E+02 SK= 0.10E+00
    716 T=   634. E= -.23371606E+03 F= -.23107488E+03 E0= -.23107488E+03  EK= 0.10400E+02 SP= -.13E+02 SK= 0.92E-01
    717 T=   648. E= -.23371675E+03 F= -.23108843E+03 E0= -.23108843E+03  EK= 0.10630E+02 SP= -.13E+02 SK= 0.78E-01
    718 T=   660. E= -.23371753E+03 F= -.23109995E+03 E0= -.23109995E+03  EK= 0.10840E+02 SP= -.14E+02 SK= 0.61E-01
    719 T=   671. E= -.23371824E+03 F= -.23110270E+03 E0= -.23110270E+03  EK= 0.11018E+02 SP= -.14E+02 SK= 0.43E-01
    720 T=   679. E= -.23371896E+03 F= -.23109016E+03 E0= -.23109016E+03  EK= 0.11151E+02 SP= -.14E+02 SK= 0.26E-01
    721 T=   684. E= -.23371938E+03 F= -.23105602E+03 E0= -.23105602E+03  EK= 0.11226E+02 SP= -.14E+02 SK= 0.13E-01
    722 T=   684. E= -.23371974E+03 F= -.23099563E+03 E0= -.23099563E+03  EK= 0.11236E+02 SP= -.14E+02 SK= 0.40E-02
    723 T=   681. E= -.23371974E+03 F= -.23090527E+03 E0= -.23090527E+03  EK= 0.11176E+02 SP= -.14E+02 SK= 0.20E-03
    724 T=   673. E= -.23371952E+03 F= -.23078393E+03 E0= -.23078393E+03  EK= 0.11048E+02 SP= -.14E+02 SK= 0.10E-02
    725 T=   661. E= -.23371897E+03 F= -.23063344E+03 E0= -.23063344E+03  EK= 0.10858E+02 SP= -.14E+02 SK= 0.52E-02
    726 T=   647. E= -.23371813E+03 F= -.23045942E+03 E0= -.23045942E+03  EK= 0.10618E+02 SP= -.14E+02 SK= 0.11E-01
    727 T=   630. E= -.23371707E+03 F= -.23027169E+03 E0= -.23027169E+03  EK= 0.10345E+02 SP= -.14E+02 SK= 0.16E-01
    728 T=   613. E= -.23371579E+03 F= -.23008393E+03 E0= -.23008393E+03  EK= 0.10061E+02 SP= -.14E+02 SK= 0.20E-01
    729 T=   596. E= -.23371460E+03 F= -.22991293E+03 E0= -.22991293E+03  EK= 0.97909E+01 SP= -.14E+02 SK= 0.21E-01
    730 T=   582. E= -.23371352E+03 F= -.22977584E+03 E0= -.22977584E+03  EK= 0.95580E+01 SP= -.14E+02 SK= 0.19E-01
    731 T=   572. E= -.23371273E+03 F= -.22968866E+03 E0= -.22968866E+03  EK= 0.93833E+01 SP= -.13E+02 SK= 0.16E-01
    732 T=   565. E= -.23371231E+03 F= -.22966377E+03 E0= -.22966377E+03  EK= 0.92820E+01 SP= -.13E+02 SK= 0.11E-01
    733 T=   564. E= -.23371236E+03 F= -.22970782E+03 E0= -.22970782E+03  EK= 0.92624E+01 SP= -.13E+02 SK= 0.75E-02
    734 T=   568. E= -.23371286E+03 F= -.22982019E+03 E0= -.22982019E+03  EK= 0.93237E+01 SP= -.13E+02 SK= 0.45E-02
    735 T=   576. E= -.23371378E+03 F= -.22999291E+03 E0= -.22999291E+03  EK= 0.94561E+01 SP= -.13E+02 SK= 0.26E-02
    736 T=   587. E= -.23371503E+03 F= -.23021155E+03 E0= -.23021155E+03  EK= 0.96424E+01 SP= -.13E+02 SK= 0.17E-02
    737 T=   601. E= -.23371623E+03 F= -.23045760E+03 E0= -.23045760E+03  EK= 0.98599E+01 SP= -.13E+02 SK= 0.14E-02
    738 T=   614. E= -.23371738E+03 F= -.23071198E+03 E0= -.23071198E+03  EK= 0.10084E+02 SP= -.13E+02 SK= 0.19E-02
    739 T=   627. E= -.23371832E+03 F= -.23095650E+03 E0= -.23095650E+03  EK= 0.10292E+02 SP= -.13E+02 SK= 0.31E-02
    740 T=   637. E= -.23371906E+03 F= -.23117580E+03 E0= -.23117580E+03  EK= 0.10462E+02 SP= -.13E+02 SK= 0.57E-02
    741 T=   644. E= -.23371963E+03 F= -.23135729E+03 E0= -.23135729E+03  EK= 0.10577E+02 SP= -.13E+02 SK= 0.10E-01
    742 T=   647. E= -.23371996E+03 F= -.23149101E+03 E0= -.23149101E+03  EK= 0.10625E+02 SP= -.13E+02 SK= 0.16E-01
    743 T=   645. E= -.23371994E+03 F= -.23157013E+03 E0= -.23157013E+03  EK= 0.10596E+02 SP= -.13E+02 SK= 0.25E-01
    744 T=   639. E= -.23371956E+03 F= -.23159205E+03 E0= -.23159205E+03  EK= 0.10492E+02 SP= -.13E+02 SK= 0.33E-01
    745 T=   629. E= -.23371869E+03 F= -.23155956E+03 E0= -.23155956E+03  EK= 0.10318E+02 SP= -.13E+02 SK= 0.41E-01
    746 T=   615. E= -.23371752E+03 F= -.23148186E+03 E0= -.23148186E+03  EK= 0.10089E+02 SP= -.12E+02 SK= 0.47E-01
    747 T=   599. E= -.23371607E+03 F= -.23137376E+03 E0= -.23137376E+03  EK= 0.98275E+01 SP= -.12E+02 SK= 0.49E-01
    748 T=   582. E= -.23371473E+03 F= -.23125437E+03 E0= -.23125437E+03  EK= 0.95589E+01 SP= -.12E+02 SK= 0.47E-01
    749 T=   567. E= -.23371358E+03 F= -.23114351E+03 E0= -.23114351E+03  EK= 0.93092E+01 SP= -.12E+02 SK= 0.41E-01
    750 T=   554. E= -.23371274E+03 F= -.23105903E+03 E0= -.23105903E+03  EK= 0.91009E+01 SP= -.12E+02 SK= 0.32E-01
    751 T=   545. E= -.23371232E+03 F= -.23101447E+03 E0= -.23101447E+03  EK= 0.89511E+01 SP= -.12E+02 SK= 0.23E-01
    752 T=   540. E= -.23371231E+03 F= -.23101739E+03 E0= -.23101739E+03  EK= 0.88693E+01 SP= -.12E+02 SK= 0.14E-01
    753 T=   540. E= -.23371266E+03 F= -.23106850E+03 E0= -.23106850E+03  EK= 0.88570E+01 SP= -.12E+02 SK= 0.69E-02
    754 T=   543. E= -.23371325E+03 F= -.23116234E+03 E0= -.23116234E+03  EK= 0.89087E+01 SP= -.11E+02 SK= 0.24E-02
    755 T=   549. E= -.23371405E+03 F= -.23128879E+03 E0= -.23128879E+03  EK= 0.90131E+01 SP= -.11E+02 SK= 0.32E-03
    756 T=   558. E= -.23371488E+03 F= -.23143422E+03 E0= -.23143422E+03  EK= 0.91548E+01 SP= -.11E+02 SK= 0.77E-04
    757 T=   567. E= -.23371581E+03 F= -.23158325E+03 E0= -.23158325E+03  EK= 0.93156E+01 SP= -.11E+02 SK= 0.90E-03
    758 T=   577. E= -.23371664E+03 F= -.23172010E+03 E0= -.23172010E+03  EK= 0.94767E+01 SP= -.11E+02 SK= 0.21E-02
    759 T=   586. E= -.23371735E+03 F= -.23183078E+03 E0= -.23183078E+03  EK= 0.96207E+01 SP= -.12E+02 SK= 0.30E-02
    760 T=   593. E= -.23371788E+03 F= -.23190377E+03 E0= -.23190377E+03  EK= 0.97328E+01 SP= -.12E+02 SK= 0.36E-02
    761 T=   597. E= -.23371816E+03 F= -.23193091E+03 E0= -.23193091E+03  EK= 0.98022E+01 SP= -.12E+02 SK= 0.39E-02
    762 T=   598. E= -.23371822E+03 F= -.23190833E+03 E0= -.23190833E+03  EK= 0.98231E+01 SP= -.12E+02 SK= 0.39E-02
    763 T=   597. E= -.23371802E+03 F= -.23183645E+03 E0= -.23183645E+03  EK= 0.97952E+01 SP= -.12E+02 SK= 0.40E-02
    764 T=   592. E= -.23371763E+03 F= -.23171977E+03 E0= -.23171977E+03  EK= 0.97234E+01 SP= -.12E+02 SK= 0.43E-02
    765 T=   586. E= -.23371705E+03 F= -.23156623E+03 E0= -.23156623E+03  EK= 0.96172E+01 SP= -.12E+02 SK= 0.50E-02
    766 T=   578. E= -.23371639E+03 F= -.23138706E+03 E0= -.23138706E+03  EK= 0.94901E+01 SP= -.12E+02 SK= 0.65E-02
    767 T=   570. E= -.23371559E+03 F= -.23119545E+03 E0= -.23119545E+03  EK= 0.93580E+01 SP= -.12E+02 SK= 0.90E-02
    768 T=   563. E= -.23371489E+03 F= -.23100591E+03 E0= -.23100591E+03  EK= 0.92380E+01 SP= -.12E+02 SK= 0.13E-01
    769 T=   557. E= -.23371438E+03 F= -.23083186E+03 E0= -.23083186E+03  EK= 0.91462E+01 SP= -.12E+02 SK= 0.19E-01
    770 T=   554. E= -.23371401E+03 F= -.23068415E+03 E0= -.23068415E+03  EK= 0.90956E+01 SP= -.12E+02 SK= 0.26E-01
    771 T=   554. E= -.23371378E+03 F= -.23057083E+03 E0= -.23057083E+03  EK= 0.90956E+01 SP= -.12E+02 SK= 0.36E-01
    772 T=   557. E= -.23371389E+03 F= -.23049634E+03 E0= -.23049634E+03  EK= 0.91512E+01 SP= -.12E+02 SK= 0.46E-01
    773 T=   564. E= -.23371409E+03 F= -.23046052E+03 E0= -.23046052E+03  EK= 0.92621E+01 SP= -.13E+02 SK= 0.56E-01
    774 T=   574. E= -.23371461E+03 F= -.23045991E+03 E0= -.23045991E+03  EK= 0.94233E+01 SP= -.13E+02 SK= 0.65E-01
    775 T=   586. E= -.23371525E+03 F= -.23048726E+03 E0= -.23048726E+03  EK= 0.96253E+01 SP= -.13E+02 SK= 0.70E-01
    776 T=   600. E= -.23371603E+03 F= -.23053336E+03 E0= -.23053336E+03  EK= 0.98547E+01 SP= -.13E+02 SK= 0.72E-01
    777 T=   615. E= -.23371678E+03 F= -.23058800E+03 E0= -.23058800E+03  EK= 0.10097E+02 SP= -.13E+02 SK= 0.69E-01
    778 T=   630. E= -.23371750E+03 F= -.23064184E+03 E0= -.23064184E+03  EK= 0.10335E+02 SP= -.13E+02 SK= 0.62E-01
    779 T=   643. E= -.23371825E+03 F= -.23068682E+03 E0= -.23068682E+03  EK= 0.10556E+02 SP= -.14E+02 SK= 0.52E-01
    780 T=   655. E= -.23371886E+03 F= -.23071618E+03 E0= -.23071618E+03  EK= 0.10745E+02 SP= -.14E+02 SK= 0.39E-01
    781 T=   664. E= -.23371922E+03 F= -.23072537E+03 E0= -.23072537E+03  EK= 0.10893E+02 SP= -.14E+02 SK= 0.26E-01
    782 T=   669. E= -.23371938E+03 F= -.23071250E+03 E0= -.23071250E+03  EK= 0.10990E+02 SP= -.14E+02 SK= 0.15E-01
    783 T=   672. E= -.23371918E+03 F= -.23067862E+03 E0= -.23067862E+03  EK= 0.11036E+02 SP= -.14E+02 SK= 0.64E-02
    784 T=   672. E= -.23371863E+03 F= -.23062874E+03 E0= -.23062874E+03  EK= 0.11032E+02 SP= -.14E+02 SK= 0.14E-02
    785 T=   669. E= -.23371785E+03 F= -.23057196E+03 E0= -.23057196E+03  EK= 0.10988E+02 SP= -.14E+02 SK= 0.27E-04
    786 T=   665. E= -.23371702E+03 F= -.23051946E+03 E0= -.23051946E+03  EK= 0.10917E+02 SP= -.14E+02 SK= 0.20E-02
    787 T=   660. E= -.23371637E+03 F= -.23048168E+03 E0= -.23048168E+03  EK= 0.10831E+02 SP= -.14E+02 SK= 0.68E-02
    788 T=   654. E= -.23371607E+03 F= -.23046582E+03 E0= -.23046582E+03  EK= 0.10739E+02 SP= -.14E+02 SK= 0.14E-01
    789 T=   649. E= -.23371617E+03 F= -.23047411E+03 E0= -.23047411E+03  EK= 0.10648E+02 SP= -.14E+02 SK= 0.22E-01
    790 T=   643. E= -.23371654E+03 F= -.23050348E+03 E0= -.23050348E+03  EK= 0.10556E+02 SP= -.14E+02 SK= 0.30E-01
    791 T=   637. E= -.23371689E+03 F= -.23054684E+03 E0= -.23054684E+03  EK= 0.10460E+02 SP= -.14E+02 SK= 0.39E-01
    792 T=   631. E= -.23371717E+03 F= -.23059586E+03 E0= -.23059586E+03  EK= 0.10355E+02 SP= -.14E+02 SK= 0.48E-01
    793 T=   623. E= -.23371740E+03 F= -.23064298E+03 E0= -.23064298E+03  EK= 0.10235E+02 SP= -.13E+02 SK= 0.56E-01
    794 T=   615. E= -.23371735E+03 F= -.23068190E+03 E0= -.23068190E+03  EK= 0.10100E+02 SP= -.13E+02 SK= 0.61E-01
    795 T=   606. E= -.23371710E+03 F= -.23070923E+03 E0= -.23070923E+03  EK= 0.99485E+01 SP= -.13E+02 SK= 0.65E-01
    796 T=   596. E= -.23371665E+03 F= -.23072497E+03 E0= -.23072497E+03  EK= 0.97858E+01 SP= -.13E+02 SK= 0.66E-01
    797 T=   586. E= -.23371608E+03 F= -.23073215E+03 E0= -.23073215E+03  EK= 0.96187E+01 SP= -.13E+02 SK= 0.63E-01
    798 T=   576. E= -.23371545E+03 F= -.23073633E+03 E0= -.23073633E+03  EK= 0.94567E+01 SP= -.12E+02 SK= 0.58E-01
    799 T=   567. E= -.23371487E+03 F= -.23074475E+03 E0= -.23074475E+03  EK= 0.93104E+01 SP= -.12E+02 SK= 0.51E-01
    800 T=   560. E= -.23371439E+03 F= -.23076471E+03 E0= -.23076471E+03  EK= 0.91898E+01 SP= -.12E+02 SK= 0.42E-01
    801 T=   555. E= -.23371398E+03 F= -.23080249E+03 E0= -.23080249E+03  EK= 0.91033E+01 SP= -.12E+02 SK= 0.32E-01
    802 T=   552. E= -.23371385E+03 F= -.23086265E+03 E0= -.23086265E+03  EK= 0.90563E+01 SP= -.12E+02 SK= 0.24E-01
    803 T=   551. E= -.23371399E+03 F= -.23094633E+03 E0= -.23094633E+03  EK= 0.90504E+01 SP= -.12E+02 SK= 0.16E-01
    804 T=   553. E= -.23371421E+03 F= -.23105084E+03 E0= -.23105084E+03  EK= 0.90828E+01 SP= -.12E+02 SK= 0.96E-02
    805 T=   557. E= -.23371465E+03 F= -.23117094E+03 E0= -.23117094E+03  EK= 0.91473E+01 SP= -.12E+02 SK= 0.53E-02
    806 T=   563. E= -.23371516E+03 F= -.23129880E+03 E0= -.23129880E+03  EK= 0.92348E+01 SP= -.12E+02 SK= 0.25E-02
    807 T=   569. E= -.23371571E+03 F= -.23142530E+03 E0= -.23142530E+03  EK= 0.93344E+01 SP= -.12E+02 SK= 0.92E-03
    808 T=   575. E= -.23371612E+03 F= -.23154129E+03 E0= -.23154129E+03  EK= 0.94350E+01 SP= -.12E+02 SK= 0.21E-03
    809 T=   580. E= -.23371633E+03 F= -.23163988E+03 E0= -.23163988E+03  EK= 0.95277E+01 SP= -.12E+02 SK= 0.52E-05
    810 T=   585. E= -.23371628E+03 F= -.23171734E+03 E0= -.23171734E+03  EK= 0.96068E+01 SP= -.12E+02 SK= 0.49E-04
    811 T=   589. E= -.23371598E+03 F= -.23177379E+03 E0= -.23177379E+03  EK= 0.96706E+01 SP= -.12E+02 SK= 0.19E-03
    812 T=   592. E= -.23371554E+03 F= -.23181323E+03 E0= -.23181323E+03  EK= 0.97215E+01 SP= -.12E+02 SK= 0.34E-03
    813 T=   595. E= -.23371502E+03 F= -.23184212E+03 E0= -.23184212E+03  EK= 0.97648E+01 SP= -.12E+02 SK= 0.46E-03
    814 T=   597. E= -.23371452E+03 F= -.23186838E+03 E0= -.23186838E+03  EK= 0.98070E+01 SP= -.12E+02 SK= 0.54E-03
    815 T=   600. E= -.23371416E+03 F= -.23189978E+03 E0= -.23189978E+03  EK= 0.98550E+01 SP= -.12E+02 SK= 0.54E-03
    816 T=   604. E= -.23371401E+03 F= -.23194219E+03 E0= -.23194219E+03  EK= 0.99132E+01 SP= -.12E+02 SK= 0.46E-03
    817 T=   608. E= -.23371425E+03 F= -.23199780E+03 E0= -.23199780E+03  EK= 0.99823E+01 SP= -.12E+02 SK= 0.30E-03
    818 T=   613. E= -.23371473E+03 F= -.23206381E+03 E0= -.23206381E+03  EK= 0.10058E+02 SP= -.12E+02 SK= 0.12E-03
    819 T=   617. E= -.23371531E+03 F= -.23213348E+03 E0= -.23213348E+03  EK= 0.10131E+02 SP= -.12E+02 SK= 0.19E-05
    820 T=   621. E= -.23371591E+03 F= -.23219809E+03 E0= -.23219809E+03  EK= 0.10192E+02 SP= -.12E+02 SK= 0.11E-03
    821 T=   623. E= -.23371643E+03 F= -.23224863E+03 E0= -.23224863E+03  EK= 0.10230E+02 SP= -.12E+02 SK= 0.58E-03
    822 T=   623. E= -.23371677E+03 F= -.23227678E+03 E0= -.23227678E+03  EK= 0.10235E+02 SP= -.12E+02 SK= 0.15E-02
    823 T=   621. E= -.23371698E+03 F= -.23227616E+03 E0= -.23227616E+03  EK= 0.10201E+02 SP= -.12E+02 SK= 0.28E-02
    824 T=   617. E= -.23371702E+03 F= -.23224293E+03 E0= -.23224293E+03  EK= 0.10125E+02 SP= -.12E+02 SK= 0.42E-02
    825 T=   610. E= -.23371689E+03 F= -.23217562E+03 E0= -.23217562E+03  EK= 0.10009E+02 SP= -.12E+02 SK= 0.53E-02
    826 T=   600. E= -.23371668E+03 F= -.23207518E+03 E0= -.23207518E+03  EK= 0.98559E+01 SP= -.12E+02 SK= 0.59E-02
    827 T=   589. E= -.23371624E+03 F= -.23194497E+03 E0= -.23194497E+03  EK= 0.96736E+01 SP= -.11E+02 SK= 0.56E-02
    828 T=   577. E= -.23371561E+03 F= -.23179192E+03 E0= -.23179192E+03  EK= 0.94735E+01 SP= -.11E+02 SK= 0.43E-02
    829 T=   565. E= -.23371485E+03 F= -.23162644E+03 E0= -.23162644E+03  EK= 0.92705E+01 SP= -.11E+02 SK= 0.24E-02
    830 T=   553. E= -.23371402E+03 F= -.23146146E+03 E0= -.23146146E+03  EK= 0.90819E+01 SP= -.11E+02 SK= 0.68E-03
    831 T=   544. E= -.23371313E+03 F= -.23131156E+03 E0= -.23131156E+03  EK= 0.89257E+01 SP= -.11E+02 SK= 0.13E-04
    832 T=   537. E= -.23371239E+03 F= -.23119137E+03 E0= -.23119137E+03  EK= 0.88193E+01 SP= -.11E+02 SK= 0.14E-02
    833 T=   535. E= -.23371181E+03 F= -.23111316E+03 E0= -.23111316E+03  EK= 0.87768E+01 SP= -.11E+02 SK= 0.56E-02
    834 T=   537. E= -.23371146E+03 F= -.23108591E+03 E0= -.23108591E+03  EK= 0.88082E+01 SP= -.11E+02 SK= 0.13E-01
    835 T=   543. E= -.23371151E+03 F= -.23111370E+03 E0= -.23111370E+03  EK= 0.89174E+01 SP= -.12E+02 SK= 0.22E-01
    836 T=   554. E= -.23371187E+03 F= -.23119440E+03 E0= -.23119440E+03  EK= 0.91011E+01 SP= -.12E+02 SK= 0.31E-01
    837 T=   569. E= -.23371265E+03 F= -.23132019E+03 E0= -.23132019E+03  EK= 0.93488E+01 SP= -.12E+02 SK= 0.39E-01
    838 T=   587. E= -.23371371E+03 F= -.23147768E+03 E0= -.23147768E+03  EK= 0.96430E+01 SP= -.12E+02 SK= 0.44E-01
    839 T=   607. E= -.23371497E+03 F= -.23164970E+03 E0= -.23164970E+03  EK= 0.99606E+01 SP= -.12E+02 SK= 0.45E-01
    840 T=   626. E= -.23371623E+03 F= -.23181776E+03 E0= -.23181776E+03  EK= 0.10276E+02 SP= -.12E+02 SK= 0.41E-01
    841 T=   643. E= -.23371743E+03 F= -.23196447E+03 E0= -.23196447E+03  EK= 0.10563E+02 SP= -.12E+02 SK= 0.33E-01
    842 T=   658. E= -.23371845E+03 F= -.23207453E+03 E0= -.23207453E+03  EK= 0.10797E+02 SP= -.12E+02 SK= 0.23E-01
    843 T=   668. E= -.23371913E+03 F= -.23213606E+03 E0= -.23213606E+03  EK= 0.10959E+02 SP= -.13E+02 SK= 0.13E-01
    844 T=   672. E= -.23371942E+03 F= -.23214169E+03 E0= -.23214169E+03  EK= 0.11036E+02 SP= -.13E+02 SK= 0.50E-02
    845 T=   671. E= -.23371926E+03 F= -.23208883E+03 E0= -.23208883E+03  EK= 0.11021E+02 SP= -.13E+02 SK= 0.75E-03
    846 T=   665. E= -.23371867E+03 F= -.23198044E+03 E0= -.23198044E+03  EK= 0.10919E+02 SP= -.13E+02 SK= 0.18E-03
    847 T=   654. E= -.23371779E+03 F= -.23182442E+03 E0= -.23182442E+03  EK= 0.10740E+02 SP= -.13E+02 SK= 0.24E-02
    848 T=   640. E= -.23371677E+03 F= -.23163226E+03 E0= -.23163226E+03  EK= 0.10501E+02 SP= -.13E+02 SK= 0.60E-02
    849 T=   623. E= -.23371562E+03 F= -.23141809E+03 E0= -.23141809E+03  EK= 0.10224E+02 SP= -.13E+02 SK= 0.93E-02
    850 T=   605. E= -.23371453E+03 F= -.23119754E+03 E0= -.23119754E+03  EK= 0.99320E+01 SP= -.12E+02 SK= 0.11E-01
    851 T=   588. E= -.23371369E+03 F= -.23098595E+03 E0= -.23098595E+03  EK= 0.96487E+01 SP= -.12E+02 SK= 0.11E-01
    852 T=   572. E= -.23371315E+03 F= -.23079616E+03 E0= -.23079616E+03  EK= 0.93933E+01 SP= -.12E+02 SK= 0.86E-02
    853 T=   559. E= -.23371284E+03 F= -.23063754E+03 E0= -.23063754E+03  EK= 0.91806E+01 SP= -.12E+02 SK= 0.53E-02
    854 T=   550. E= -.23371259E+03 F= -.23051663E+03 E0= -.23051663E+03  EK= 0.90215E+01 SP= -.12E+02 SK= 0.22E-02
    855 T=   544. E= -.23371243E+03 F= -.23043834E+03 E0= -.23043834E+03  EK= 0.89235E+01 SP= -.12E+02 SK= 0.25E-03
    856 T=   542. E= -.23371226E+03 F= -.23040612E+03 E0= -.23040612E+03  EK= 0.88921E+01 SP= -.12E+02 SK= 0.31E-03
    857 T=   544. E= -.23371226E+03 F= -.23042220E+03 E0= -.23042220E+03  EK= 0.89297E+01 SP= -.12E+02 SK= 0.26E-02
    858 T=   550. E= -.23371243E+03 F= -.23048610E+03 E0= -.23048610E+03  EK= 0.90353E+01 SP= -.12E+02 SK= 0.66E-02
    859 T=   561. E= -.23371293E+03 F= -.23059388E+03 E0= -.23059388E+03  EK= 0.92033E+01 SP= -.12E+02 SK= 0.11E-01
    860 T=   574. E= -.23371358E+03 F= -.23073719E+03 E0= -.23073719E+03  EK= 0.94226E+01 SP= -.12E+02 SK= 0.16E-01
    861 T=   590. E= -.23371448E+03 F= -.23090516E+03 E0= -.23090516E+03  EK= 0.96781E+01 SP= -.13E+02 SK= 0.18E-01
    862 T=   606. E= -.23371542E+03 F= -.23108488E+03 E0= -.23108488E+03  EK= 0.99515E+01 SP= -.13E+02 SK= 0.19E-01
    863 T=   623. E= -.23371646E+03 F= -.23126282E+03 E0= -.23126282E+03  EK= 0.10223E+02 SP= -.13E+02 SK= 0.16E-01
    864 T=   638. E= -.23371746E+03 F= -.23142557E+03 E0= -.23142557E+03  EK= 0.10471E+02 SP= -.13E+02 SK= 0.12E-01
    865 T=   650. E= -.23371832E+03 F= -.23156094E+03 E0= -.23156094E+03  EK= 0.10677E+02 SP= -.13E+02 SK= 0.67E-02
    866 T=   659. E= -.23371894E+03 F= -.23165932E+03 E0= -.23165932E+03  EK= 0.10825E+02 SP= -.13E+02 SK= 0.24E-02
    867 T=   664. E= -.23371902E+03 F= -.23171462E+03 E0= -.23171462E+03  EK= 0.10903E+02 SP= -.13E+02 SK= 0.14E-03
    868 T=   665. E= -.23371865E+03 F= -.23172642E+03 E0= -.23172642E+03  EK= 0.10910E+02 SP= -.13E+02 SK= 0.72E-03
    869 T=   661. E= -.23371801E+03 F= -.23169955E+03 E0= -.23169955E+03  EK= 0.10848E+02 SP= -.13E+02 SK= 0.41E-02
    870 T=   654. E= -.23371704E+03 F= -.23164251E+03 E0= -.23164251E+03  EK= 0.10730E+02 SP= -.13E+02 SK= 0.97E-02
    871 T=   644. E= -.23371607E+03 F= -.23156698E+03 E0= -.23156698E+03  EK= 0.10570E+02 SP= -.13E+02 SK= 0.16E-01
    872 T=   633. E= -.23371515E+03 F= -.23148527E+03 E0= -.23148527E+03  EK= 0.10385E+02 SP= -.13E+02 SK= 0.23E-01
    873 T=   621. E= -.23371442E+03 F= -.23140877E+03 E0= -.23140877E+03  EK= 0.10193E+02 SP= -.13E+02 SK= 0.28E-01
    874 T=   610. E= -.23371389E+03 F= -.23134692E+03 E0= -.23134692E+03  EK= 0.10009E+02 SP= -.12E+02 SK= 0.31E-01
    875 T=   600. E= -.23371367E+03 F= -.23130649E+03 E0= -.23130649E+03  EK= 0.98433E+01 SP= -.12E+02 SK= 0.32E-01
    876 T=   591. E= -.23371347E+03 F= -.23129113E+03 E0= -.23129113E+03  EK= 0.97043E+01 SP= -.12E+02 SK= 0.32E-01
    877 T=   585. E= -.23371343E+03 F= -.23130301E+03 E0= -.23130301E+03  EK= 0.95971E+01 SP= -.12E+02 SK= 0.29E-01
    878 T=   580. E= -.23371348E+03 F= -.23134269E+03 E0= -.23134269E+03  EK= 0.95242E+01 SP= -.12E+02 SK= 0.26E-01
    879 T=   578. E= -.23371363E+03 F= -.23140932E+03 E0= -.23140932E+03  EK= 0.94861E+01 SP= -.12E+02 SK= 0.22E-01
    880 T=   578. E= -.23371399E+03 F= -.23150021E+03 E0= -.23150021E+03  EK= 0.94804E+01 SP= -.12E+02 SK= 0.19E-01
    881 T=   579. E= -.23371455E+03 F= -.23160967E+03 E0= -.23160967E+03  EK= 0.95014E+01 SP= -.12E+02 SK= 0.16E-01
    882 T=   581. E= -.23371530E+03 F= -.23172887E+03 E0= -.23172887E+03  EK= 0.95395E+01 SP= -.12E+02 SK= 0.13E-01
    883 T=   584. E= -.23371605E+03 F= -.23184639E+03 E0= -.23184639E+03  EK= 0.95825E+01 SP= -.11E+02 SK= 0.11E-01
    884 T=   586. E= -.23371664E+03 F= -.23195099E+03 E0= -.23195099E+03  EK= 0.96185E+01 SP= -.11E+02 SK= 0.92E-02
    885 T=   587. E= -.23371690E+03 F= -.23203374E+03 E0= -.23203374E+03  EK= 0.96379E+01 SP= -.11E+02 SK= 0.79E-02
    886 T=   587. E= -.23371689E+03 F= -.23208987E+03 E0= -.23208987E+03  EK= 0.96356E+01 SP= -.11E+02 SK= 0.67E-02
    887 T=   585. E= -.23371679E+03 F= -.23211829E+03 E0= -.23211829E+03  EK= 0.96105E+01 SP= -.11E+02 SK= 0.56E-02
    888 T=   583. E= -.23371654E+03 F= -.23212011E+03 E0= -.23212011E+03  EK= 0.95645E+01 SP= -.11E+02 SK= 0.44E-02
    889 T=   579. E= -.23371601E+03 F= -.23209915E+03 E0= -.23209915E+03  EK= 0.95027E+01 SP= -.11E+02 SK= 0.31E-02
    890 T=   575. E= -.23371526E+03 F= -.23206343E+03 E0= -.23206343E+03  EK= 0.94344E+01 SP= -.11E+02 SK= 0.19E-02
    891 T=   571. E= -.23371456E+03 F= -.23202399E+03 E0= -.23202399E+03  EK= 0.93720E+01 SP= -.11E+02 SK= 0.78E-03
    892 T=   568. E= -.23371417E+03 F= -.23199139E+03 E0= -.23199139E+03  EK= 0.93270E+01 SP= -.11E+02 SK= 0.11E-03
    893 T=   567. E= -.23371423E+03 F= -.23197228E+03 E0= -.23197228E+03  EK= 0.93069E+01 SP= -.11E+02 SK= 0.59E-04
    894 T=   567. E= -.23371461E+03 F= -.23196721E+03 E0= -.23196721E+03  EK= 0.93126E+01 SP= -.11E+02 SK= 0.69E-03
    895 T=   569. E= -.23371504E+03 F= -.23197204E+03 E0= -.23197204E+03  EK= 0.93404E+01 SP= -.11E+02 SK= 0.20E-02
    896 T=   572. E= -.23371534E+03 F= -.23198152E+03 E0= -.23198152E+03  EK= 0.93845E+01 SP= -.11E+02 SK= 0.37E-02
    897 T=   575. E= -.23371553E+03 F= -.23199177E+03 E0= -.23199177E+03  EK= 0.94402E+01 SP= -.11E+02 SK= 0.57E-02
    898 T=   579. E= -.23371575E+03 F= -.23199985E+03 E0= -.23199985E+03  EK= 0.95032E+01 SP= -.11E+02 SK= 0.78E-02
    899 T=   583. E= -.23371605E+03 F= -.23200292E+03 E0= -.23200292E+03  EK= 0.95694E+01 SP= -.11E+02 SK= 0.98E-02
    900 T=   587. E= -.23371635E+03 F= -.23199778E+03 E0= -.23199778E+03  EK= 0.96340E+01 SP= -.11E+02 SK= 0.11E-01
    901 T=   590. E= -.23371664E+03 F= -.23198147E+03 E0= -.23198147E+03  EK= 0.96927E+01 SP= -.11E+02 SK= 0.13E-01
    902 T=   594. E= -.23371660E+03 F= -.23195262E+03 E0= -.23195262E+03  EK= 0.97430E+01 SP= -.12E+02 SK= 0.14E-01
    903 T=   596. E= -.23371644E+03 F= -.23191331E+03 E0= -.23191331E+03  EK= 0.97855E+01 SP= -.12E+02 SK= 0.14E-01
    904 T=   598. E= -.23371616E+03 F= -.23186773E+03 E0= -.23186773E+03  EK= 0.98231E+01 SP= -.12E+02 SK= 0.14E-01
    905 T=   601. E= -.23371589E+03 F= -.23182142E+03 E0= -.23182142E+03  EK= 0.98605E+01 SP= -.12E+02 SK= 0.14E-01
    906 T=   603. E= -.23371568E+03 F= -.23177976E+03 E0= -.23177976E+03  EK= 0.99020E+01 SP= -.12E+02 SK= 0.14E-01
    907 T=   606. E= -.23371567E+03 F= -.23174655E+03 E0= -.23174655E+03  EK= 0.99503E+01 SP= -.12E+02 SK= 0.13E-01
    908 T=   610. E= -.23371564E+03 F= -.23172343E+03 E0= -.23172343E+03  EK= 0.10006E+02 SP= -.12E+02 SK= 0.12E-01
    909 T=   613. E= -.23371558E+03 F= -.23171173E+03 E0= -.23171173E+03  EK= 0.10069E+02 SP= -.12E+02 SK= 0.10E-01
    910 T=   618. E= -.23371567E+03 F= -.23171249E+03 E0= -.23171249E+03  EK= 0.10139E+02 SP= -.12E+02 SK= 0.84E-02
    911 T=   622. E= -.23371611E+03 F= -.23172413E+03 E0= -.23172413E+03  EK= 0.10212E+02 SP= -.12E+02 SK= 0.63E-02
    912 T=   626. E= -.23371675E+03 F= -.23174072E+03 E0= -.23174072E+03  EK= 0.10280E+02 SP= -.12E+02 SK= 0.42E-02
       N       E                     dE             d eps       ncg     rms          rms(c)
RMM:   1    -0.216933080458E+03    0.74103E+01   -0.15960E+03   129   0.550E+01
RMM:   2    -0.235014410854E+03   -0.18081E+02   -0.14389E+02   129   0.170E+01
RMM:   3    -0.237404415890E+03   -0.23900E+01   -0.20101E+01   129   0.614E+00
RMM:   4    -0.237847293811E+03   -0.44288E+00   -0.40470E+00   262   0.267E+00
RMM:   5    -0.237999006680E+03   -0.15171E+00   -0.14424E+00   271   0.128E+00    0.904E+00
RMM:   6    -0.225618847833E+03    0.12380E+02   -0.22703E+01   301   0.343E+00    0.378E+00
RMM:   7    -0.224542192233E+03    0.10767E+01   -0.23478E+00   258   0.159E+00    0.176E+00
RMM:   8    -0.224447787885E+03    0.94404E-01   -0.70861E-01   258   0.855E-01    0.866E-01
RMM:   9    -0.224441561203E+03    0.62267E-02   -0.13264E-01   260   0.450E-01    0.410E-01
RMM:  10    -0.224442423805E+03   -0.86260E-03   -0.36794E-02   263   0.237E-01    0.158E-01
RMM:  11    -0.224442885438E+03   -0.46163E-03   -0.89174E-03   232   0.117E-01
    913 T=   630. E= -.22640274E+03 F= -.22444289E+03 E0= -.22442780E+03  EK= 0.10337E+02 SP= -.12E+02 SK= 0.22E-02
    914 T=   633. E= -.23370459E+03 F= -.23176693E+03 E0= -.23176693E+03  EK= 0.10387E+02 SP= -.12E+02 SK= 0.79E-03
    915 T=   633. E= -.23370486E+03 F= -.23175536E+03 E0= -.23175536E+03  EK= 0.10389E+02 SP= -.12E+02 SK= 0.64E-04
    916 T=   630. E= -.23370453E+03 F= -.23171497E+03 E0= -.23171497E+03  EK= 0.10347E+02 SP= -.12E+02 SK= 0.13E-03
    917 T=   626. E= -.23370385E+03 F= -.23165011E+03 E0= -.23165011E+03  EK= 0.10269E+02 SP= -.12E+02 SK= 0.82E-03
    918 T=   619. E= -.23370298E+03 F= -.23157064E+03 E0= -.23157064E+03  EK= 0.10164E+02 SP= -.12E+02 SK= 0.18E-02
    919 T=   612. E= -.23370223E+03 F= -.23148871E+03 E0= -.23148871E+03  EK= 0.10049E+02 SP= -.12E+02 SK= 0.27E-02
    920 T=   605. E= -.23370192E+03 F= -.23141460E+03 E0= -.23141460E+03  EK= 0.99360E+01 SP= -.12E+02 SK= 0.34E-02
    921 T=   599. E= -.23370188E+03 F= -.23135373E+03 E0= -.23135373E+03  EK= 0.98337E+01 SP= -.12E+02 SK= 0.36E-02
    922 T=   594. E= -.23370204E+03 F= -.23130719E+03 E0= -.23130719E+03  EK= 0.97458E+01 SP= -.12E+02 SK= 0.34E-02
       N       E                     dE             d eps       ncg     rms          rms(c)
RMM:   1    -0.223884561090E+03    0.55786E+00   -0.21866E+02   129   0.220E+01
RMM:   2    -0.226594515690E+03   -0.27100E+01   -0.23010E+01   129   0.735E+00
RMM:   3    -0.226987614802E+03   -0.39310E+00   -0.37074E+00   129   0.295E+00
RMM:   4    -0.227058546481E+03   -0.70932E-01   -0.68304E-01   258   0.121E+00
RMM:   5    -0.227078307393E+03   -0.19761E-01   -0.19479E-01   258   0.583E-01    0.452E+00
RMM:   6    -0.224543043897E+03    0.25353E+01   -0.38724E+00   313   0.144E+00    0.189E+00
RMM:   7    -0.224205903320E+03    0.33714E+00   -0.56006E-01   258   0.697E-01    0.803E-01
RMM:   8    -0.224169304216E+03    0.36599E-01   -0.18456E-01   258   0.425E-01    0.327E-01
RMM:   9    -0.224167463689E+03    0.18405E-02   -0.31872E-02   258   0.217E-01    0.142E-01
RMM:  10    -0.224167778433E+03   -0.31474E-03   -0.83563E-03   240   0.113E-01
    923 T=   590. E= -.22657821E+03 F= -.22416778E+03 E0= -.22414644E+03  EK= 0.96913E+01 SP= -.12E+02 SK= 0.30E-02
    924 T=   588. E= -.23366174E+03 F= -.23125118E+03 E0= -.23125118E+03  EK= 0.96557E+01 SP= -.12E+02 SK= 0.24E-02
    925 T=   586. E= -.23366170E+03 F= -.23123885E+03 E0= -.23123885E+03  EK= 0.96122E+01 SP= -.12E+02 SK= 0.18E-02
    926 T=   584. E= -.23366168E+03 F= -.23123624E+03 E0= -.23123624E+03  EK= 0.95837E+01 SP= -.12E+02 SK= 0.12E-02
    927 T=   583. E= -.23366163E+03 F= -.23124339E+03 E0= -.23124339E+03  EK= 0.95709E+01 SP= -.12E+02 SK= 0.62E-03
    928 T=   583. E= -.23366158E+03 F= -.23126100E+03 E0= -.23126100E+03  EK= 0.95748E+01 SP= -.12E+02 SK= 0.25E-03
    929 T=   585. E= -.23366164E+03 F= -.23128937E+03 E0= -.23128937E+03  EK= 0.95954E+01 SP= -.12E+02 SK= 0.49E-04
    930 T=   587. E= -.23366168E+03 F= -.23132760E+03 E0= -.23132760E+03  EK= 0.96314E+01 SP= -.12E+02 SK= 0.51E-06
    931 T=   590. E= -.23366187E+03 F= -.23137395E+03 E0= -.23137395E+03  EK= 0.96802E+01 SP= -.12E+02 SK= 0.48E-04
    932 T=   593. E= -.23366212E+03 F= -.23142471E+03 E0= -.23142471E+03  EK= 0.97369E+01 SP= -.12E+02 SK= 0.13E-03
    933 T=   597. E= -.23366236E+03 F= -.23147502E+03 E0= -.23147502E+03  EK= 0.97955E+01 SP= -.12E+02 SK= 0.18E-03
    934 T=   600. E= -.23366269E+03 F= -.23151966E+03 E0= -.23151966E+03  EK= 0.98493E+01 SP= -.12E+02 SK= 0.19E-03
    935 T=   603. E= -.23366294E+03 F= -.23155326E+03 E0= -.23155326E+03  EK= 0.98916E+01 SP= -.12E+02 SK= 0.15E-03
    936 T=   604. E= -.23366307E+03 F= -.23157160E+03 E0= -.23157160E+03  EK= 0.99174E+01 SP= -.12E+02 SK= 0.86E-04
    937 T=   605. E= -.23366300E+03 F= -.23157276E+03 E0= -.23157276E+03  EK= 0.99239E+01 SP= -.12E+02 SK= 0.35E-04
    938 T=   604. E= -.23366286E+03 F= -.23155728E+03 E0= -.23155728E+03  EK= 0.99116E+01 SP= -.12E+02 SK= 0.72E-05
    939 T=   602. E= -.23366264E+03 F= -.23152729E+03 E0= -.23152729E+03  EK= 0.98829E+01 SP= -.12E+02 SK= 0.37E-07
    940 T=   600. E= -.23366243E+03 F= -.23148606E+03 E0= -.23148606E+03  EK= 0.98416E+01 SP= -.12E+02 SK= 0.11E-05
    941 T=   596. E= -.23366228E+03 F= -.23143710E+03 E0= -.23143710E+03  EK= 0.97922E+01 SP= -.12E+02 SK= 0.39E-06
    942 T=   593. E= -.23366209E+03 F= -.23138364E+03 E0= -.23138364E+03  EK= 0.97393E+01 SP= -.12E+02 SK= 0.27E-05
    943 T=   590. E= -.23366199E+03 F= -.23132896E+03 E0= -.23132896E+03  EK= 0.96872E+01 SP= -.12E+02 SK= 0.33E-04
    944 T=   587. E= -.23366177E+03 F= -.23127596E+03 E0= -.23127596E+03  EK= 0.96404E+01 SP= -.12E+02 SK= 0.14E-03
    945 T=   585. E= -.23366156E+03 F= -.23122814E+03 E0= -.23122814E+03  EK= 0.96033E+01 SP= -.12E+02 SK= 0.37E-03
    946 T=   584. E= -.23366123E+03 F= -.23118934E+03 E0= -.23118934E+03  EK= 0.95807E+01 SP= -.12E+02 SK= 0.76E-03
    947 T=   583. E= -.23366090E+03 F= -.23116410E+03 E0= -.23116410E+03  EK= 0.95777E+01 SP= -.12E+02 SK= 0.13E-02
    948 T=   585. E= -.23366071E+03 F= -.23115633E+03 E0= -.23115633E+03  EK= 0.95980E+01 SP= -.12E+02 SK= 0.21E-02
    949 T=   587. E= -.23366065E+03 F= -.23116804E+03 E0= -.23116804E+03  EK= 0.96433E+01 SP= -.12E+02 SK= 0.28E-02
    950 T=   592. E= -.23366094E+03 F= -.23119887E+03 E0= -.23119887E+03  EK= 0.97121E+01 SP= -.12E+02 SK= 0.34E-02
    951 T=   597. E= -.23366126E+03 F= -.23124487E+03 E0= -.23124487E+03  EK= 0.97992E+01 SP= -.12E+02 SK= 0.38E-02
    952 T=   603. E= -.23366178E+03 F= -.23129993E+03 E0= -.23129993E+03  EK= 0.98963E+01 SP= -.12E+02 SK= 0.37E-02
    953 T=   609. E= -.23366236E+03 F= -.23135610E+03 E0= -.23135610E+03  EK= 0.99933E+01 SP= -.12E+02 SK= 0.32E-02
    954 T=   614. E= -.23366291E+03 F= -.23140489E+03 E0= -.23140489E+03  EK= 0.10079E+02 SP= -.12E+02 SK= 0.24E-02
    955 T=   618. E= -.23366331E+03 F= -.23143839E+03 E0= -.23143839E+03  EK= 0.10144E+02 SP= -.12E+02 SK= 0.15E-02
    956 T=   620. E= -.23366353E+03 F= -.23145068E+03 E0= -.23145068E+03  EK= 0.10180E+02 SP= -.12E+02 SK= 0.73E-03
    957 T=   620. E= -.23366362E+03 F= -.23143864E+03 E0= -.23143864E+03  EK= 0.10183E+02 SP= -.12E+02 SK= 0.21E-03
    958 T=   618. E= -.23366350E+03 F= -.23140167E+03 E0= -.23140167E+03  EK= 0.10152E+02 SP= -.12E+02 SK= 0.51E-05
    959 T=   615. E= -.23366327E+03 F= -.23134189E+03 E0= -.23134189E+03  EK= 0.10090E+02 SP= -.12E+02 SK= 0.68E-04
    960 T=   609. E= -.23366285E+03 F= -.23126376E+03 E0= -.23126376E+03  EK= 0.10004E+02 SP= -.12E+02 SK= 0.26E-03
    961 T=   603. E= -.23366232E+03 F= -.23117407E+03 E0= -.23117407E+03  EK= 0.99017E+01 SP= -.12E+02 SK= 0.42E-03
    962 T=   597. E= -.23366174E+03 F= -.23108157E+03 E0= -.23108157E+03  EK= 0.97952E+01 SP= -.12E+02 SK= 0.45E-03
    963 T=   591. E= -.23366099E+03 F= -.23099662E+03 E0= -.23099662E+03  EK= 0.96975E+01 SP= -.12E+02 SK= 0.33E-03
    964 T=   586. E= -.23366030E+03 F= -.23093119E+03 E0= -.23093119E+03  EK= 0.96224E+01 SP= -.12E+02 SK= 0.14E-03
    965 T=   584. E= -.23365985E+03 F= -.23089599E+03 E0= -.23089599E+03  EK= 0.95824E+01 SP= -.12E+02 SK= 0.13E-04
    966 T=   584. E= -.23365964E+03 F= -.23089819E+03 E0= -.23089819E+03  EK= 0.95855E+01 SP= -.12E+02 SK= 0.29E-04
    967 T=   587. E= -.23365974E+03 F= -.23094101E+03 E0= -.23094101E+03  EK= 0.96346E+01 SP= -.12E+02 SK= 0.18E-03
    968 T=   593. E= -.23366016E+03 F= -.23102269E+03 E0= -.23102269E+03  EK= 0.97270E+01 SP= -.12E+02 SK= 0.36E-03
    969 T=   600. E= -.23366087E+03 F= -.23113646E+03 E0= -.23113646E+03  EK= 0.98539E+01 SP= -.12E+02 SK= 0.43E-03
    970 T=   609. E= -.23366182E+03 F= -.23127138E+03 E0= -.23127138E+03  EK= 0.10001E+02 SP= -.12E+02 SK= 0.30E-03
    971 T=   618. E= -.23366290E+03 F= -.23141326E+03 E0= -.23141326E+03  EK= 0.10151E+02 SP= -.12E+02 SK= 0.72E-04
    972 T=   626. E= -.23366391E+03 F= -.23154651E+03 E0= -.23154651E+03  EK= 0.10284E+02 SP= -.12E+02 SK= 0.30E-04
    973 T=   633. E= -.23366466E+03 F= -.23165675E+03 E0= -.23165675E+03  EK= 0.10383E+02 SP= -.12E+02 SK= 0.56E-03
    974 T=   636. E= -.23366486E+03 F= -.23173324E+03 E0= -.23173324E+03  EK= 0.10434E+02 SP= -.12E+02 SK= 0.20E-02
    975 T=   635. E= -.23366467E+03 F= -.23177137E+03 E0= -.23177137E+03  EK= 0.10432E+02 SP= -.12E+02 SK= 0.44E-02
    976 T=   632. E= -.23366408E+03 F= -.23177228E+03 E0= -.23177228E+03  EK= 0.10376E+02 SP= -.12E+02 SK= 0.76E-02
    977 T=   626. E= -.23366332E+03 F= -.23174199E+03 E0= -.23174199E+03  EK= 0.10277E+02 SP= -.12E+02 SK= 0.11E-01
    978 T=   618. E= -.23366257E+03 F= -.23168932E+03 E0= -.23168932E+03  EK= 0.10144E+02 SP= -.12E+02 SK= 0.14E-01
    979 T=   609. E= -.23366189E+03 F= -.23162352E+03 E0= -.23162352E+03  EK= 0.99909E+01 SP= -.12E+02 SK= 0.16E-01
    980 T=   599. E= -.23366131E+03 F= -.23155329E+03 E0= -.23155329E+03  EK= 0.98310E+01 SP= -.12E+02 SK= 0.17E-01
    981 T=   589. E= -.23366099E+03 F= -.23148593E+03 E0= -.23148593E+03  EK= 0.96751E+01 SP= -.12E+02 SK= 0.16E-01
    982 T=   581. E= -.23366091E+03 F= -.23142588E+03 E0= -.23142588E+03  EK= 0.95313E+01 SP= -.12E+02 SK= 0.14E-01
    983 T=   573. E= -.23366111E+03 F= -.23137446E+03 E0= -.23137446E+03  EK= 0.94042E+01 SP= -.12E+02 SK= 0.11E-01
    984 T=   566. E= -.23366150E+03 F= -.23132944E+03 E0= -.23132944E+03  EK= 0.92942E+01 SP= -.12E+02 SK= 0.79E-02
    985 T=   560. E= -.23366191E+03 F= -.23128578E+03 E0= -.23128578E+03  EK= 0.91987E+01 SP= -.12E+02 SK= 0.46E-02
    986 T=   555. E= -.23366220E+03 F= -.23123785E+03 E0= -.23123785E+03  EK= 0.91141E+01 SP= -.12E+02 SK= 0.19E-02
    987 T=   551. E= -.23366217E+03 F= -.23118224E+03 E0= -.23118224E+03  EK= 0.90387E+01 SP= -.12E+02 SK= 0.30E-03
    988 T=   547. E= -.23366187E+03 F= -.23111983E+03 E0= -.23111983E+03  EK= 0.89749E+01 SP= -.12E+02 SK= 0.14E-03
    989 T=   544. E= -.23366132E+03 F= -.23105584E+03 E0= -.23105584E+03  EK= 0.89289E+01 SP= -.12E+02 SK= 0.19E-02
    990 T=   543. E= -.23366075E+03 F= -.23099878E+03 E0= -.23099878E+03  EK= 0.89099E+01 SP= -.12E+02 SK= 0.57E-02
    991 T=   544. E= -.23366034E+03 F= -.23095768E+03 E0= -.23095768E+03  EK= 0.89273E+01 SP= -.12E+02 SK= 0.12E-01
    992 T=   548. E= -.23366014E+03 F= -.23093950E+03 E0= -.23093950E+03  EK= 0.89879E+01 SP= -.12E+02 SK= 0.19E-01
    993 T=   554. E= -.23366011E+03 F= -.23094811E+03 E0= -.23094811E+03  EK= 0.90949E+01 SP= -.12E+02 SK= 0.28E-01
    994 T=   563. E= -.23366021E+03 F= -.23098450E+03 E0= -.23098450E+03  EK= 0.92478E+01 SP= -.12E+02 SK= 0.37E-01
    995 T=   575. E= -.23366040E+03 F= -.23104762E+03 E0= -.23104762E+03  EK= 0.94432E+01 SP= -.12E+02 SK= 0.44E-01
    996 T=   589. E= -.23366074E+03 F= -.23113474E+03 E0= -.23113474E+03  EK= 0.96747E+01 SP= -.12E+02 SK= 0.48E-01
    997 T=   605. E= -.23366134E+03 F= -.23124111E+03 E0= -.23124111E+03  EK= 0.99326E+01 SP= -.12E+02 SK= 0.48E-01
    998 T=   622. E= -.23366232E+03 F= -.23135863E+03 E0= -.23135863E+03  EK= 0.10203E+02 SP= -.13E+02 SK= 0.45E-01
    999 T=   638. E= -.23366351E+03 F= -.23147512E+03 E0= -.23147512E+03  EK= 0.10466E+02 SP= -.13E+02 SK= 0.37E-01
   1000 T=   652. E= -.23366450E+03 F= -.23157672E+03 E0= -.23157672E+03  EK= 0.10702E+02 SP= -.13E+02 SK= 0.28E-01
   1001 T=   663. E= -.23366507E+03 F= -.23165245E+03 E0= -.23165245E+03  EK= 0.10891E+02 SP= -.13E+02 SK= 0.17E-01
   1002 T=   671. E= -.23366527E+03 F= -.23169664E+03 E0= -.23169664E+03  EK= 0.11021E+02 SP= -.13E+02 SK= 0.82E-02
   1003 T=   675. E= -.23366514E+03 F= -.23170823E+03 E0= -.23170823E+03  EK= 0.11087E+02 SP= -.13E+02 SK= 0.22E-02
   1004 T=   675. E= -.23366493E+03 F= -.23168936E+03 E0= -.23168936E+03  EK= 0.11087E+02 SP= -.13E+02 SK= 0.36E-05
   1005 T=   672. E= -.23366455E+03 F= -.23164322E+03 E0= -.23164322E+03  EK= 0.11026E+02 SP= -.13E+02 SK= 0.18E-02
   1006 T=   664. E= -.23366424E+03 F= -.23157385E+03 E0= -.23157385E+03  EK= 0.10908E+02 SP= -.13E+02 SK= 0.68E-02
   1007 T=   654. E= -.23366372E+03 F= -.23148474E+03 E0= -.23148474E+03  EK= 0.10742E+02 SP= -.13E+02 SK= 0.14E-01
   1008 T=   642. E= -.23366314E+03 F= -.23138042E+03 E0= -.23138042E+03  EK= 0.10538E+02 SP= -.13E+02 SK= 0.22E-01
   1009 T=   628. E= -.23366258E+03 F= -.23126596E+03 E0= -.23126596E+03  EK= 0.10308E+02 SP= -.13E+02 SK= 0.28E-01
   1010 T=   613. E= -.23366207E+03 F= -.23114642E+03 E0= -.23114642E+03  EK= 0.10062E+02 SP= -.13E+02 SK= 0.33E-01
   1011 T=   598. E= -.23366158E+03 F= -.23102705E+03 E0= -.23102705E+03  EK= 0.98144E+01 SP= -.12E+02 SK= 0.34E-01
   1012 T=   583. E= -.23366121E+03 F= -.23091322E+03 E0= -.23091322E+03  EK= 0.95754E+01 SP= -.12E+02 SK= 0.32E-01
   1013 T=   570. E= -.23366095E+03 F= -.23080982E+03 E0= -.23080982E+03  EK= 0.93558E+01 SP= -.12E+02 SK= 0.28E-01
   1014 T=   558. E= -.23366087E+03 F= -.23072061E+03 E0= -.23072061E+03  EK= 0.91637E+01 SP= -.12E+02 SK= 0.21E-01
   1015 T=   549. E= -.23366088E+03 F= -.23064750E+03 E0= -.23064750E+03  EK= 0.90048E+01 SP= -.12E+02 SK= 0.14E-01
   1016 T=   541. E= -.23366086E+03 F= -.23059106E+03 E0= -.23059106E+03  EK= 0.88823E+01 SP= -.12E+02 SK= 0.78E-02
   1017 T=   536. E= -.23366091E+03 F= -.23055175E+03 E0= -.23055175E+03  EK= 0.87987E+01 SP= -.12E+02 SK= 0.28E-02
   1018 T=   533. E= -.23366090E+03 F= -.23052960E+03 E0= -.23052960E+03  EK= 0.87553E+01 SP= -.12E+02 SK= 0.24E-03
   1019 T=   533. E= -.23366081E+03 F= -.23052469E+03 E0= -.23052469E+03  EK= 0.87529E+01 SP= -.12E+02 SK= 0.53E-03
   1020 T=   536. E= -.23366079E+03 F= -.23053741E+03 E0= -.23053741E+03  EK= 0.87917E+01 SP= -.12E+02 SK= 0.37E-02
   1021 T=   540. E= -.23366073E+03 F= -.23056759E+03 E0= -.23056759E+03  EK= 0.88711E+01 SP= -.12E+02 SK= 0.93E-02
   1022 T=   548. E= -.23366076E+03 F= -.23061474E+03 E0= -.23061474E+03  EK= 0.89894E+01 SP= -.12E+02 SK= 0.17E-01
   1023 T=   557. E= -.23366087E+03 F= -.23067749E+03 E0= -.23067749E+03  EK= 0.91435E+01 SP= -.12E+02 SK= 0.24E-01
   1024 T=   568. E= -.23366113E+03 F= -.23075284E+03 E0= -.23075284E+03  EK= 0.93276E+01 SP= -.12E+02 SK= 0.31E-01
   1025 T=   581. E= -.23366163E+03 F= -.23083608E+03 E0= -.23083608E+03  EK= 0.95336E+01 SP= -.12E+02 SK= 0.37E-01
   1026 T=   594. E= -.23366242E+03 F= -.23092015E+03 E0= -.23092015E+03  EK= 0.97501E+01 SP= -.13E+02 SK= 0.39E-01
   1027 T=   607. E= -.23366345E+03 F= -.23099507E+03 E0= -.23099507E+03  EK= 0.99621E+01 SP= -.13E+02 SK= 0.39E-01
   1028 T=   618. E= -.23366451E+03 F= -.23104868E+03 E0= -.23104868E+03  EK= 0.10152E+02 SP= -.13E+02 SK= 0.36E-01
   1029 T=   628. E= -.23366542E+03 F= -.23106926E+03 E0= -.23106926E+03  EK= 0.10304E+02 SP= -.13E+02 SK= 0.30E-01
   1030 T=   634. E= -.23366579E+03 F= -.23104857E+03 E0= -.23104857E+03  EK= 0.10404E+02 SP= -.13E+02 SK= 0.24E-01
   1031 T=   636. E= -.23366568E+03 F= -.23098481E+03 E0= -.23098481E+03  EK= 0.10447E+02 SP= -.13E+02 SK= 0.18E-01
   1032 T=   636. E= -.23366508E+03 F= -.23088278E+03 E0= -.23088278E+03  EK= 0.10437E+02 SP= -.13E+02 SK= 0.12E-01
   1033 T=   632. E= -.23366434E+03 F= -.23075278E+03 E0= -.23075278E+03  EK= 0.10383E+02 SP= -.13E+02 SK= 0.83E-02
   1034 T=   627. E= -.23366355E+03 F= -.23060730E+03 E0= -.23060730E+03  EK= 0.10298E+02 SP= -.13E+02 SK= 0.53E-02
   1035 T=   621. E= -.23366281E+03 F= -.23045926E+03 E0= -.23045926E+03  EK= 0.10198E+02 SP= -.13E+02 SK= 0.33E-02
   1036 T=   615. E= -.23366218E+03 F= -.23032085E+03 E0= -.23032085E+03  EK= 0.10098E+02 SP= -.13E+02 SK= 0.22E-02
   1037 T=   610. E= -.23366174E+03 F= -.23020274E+03 E0= -.23020274E+03  EK= 0.10010E+02 SP= -.13E+02 SK= 0.15E-02
   1038 T=   606. E= -.23366161E+03 F= -.23011230E+03 E0= -.23011230E+03  EK= 0.99453E+01 SP= -.13E+02 SK= 0.11E-02
   1039 T=   604. E= -.23366181E+03 F= -.23005204E+03 E0= -.23005204E+03  EK= 0.99072E+01 SP= -.14E+02 SK= 0.91E-03
   1040 T=   603. E= -.23366233E+03 F= -.23001939E+03 E0= -.23001939E+03  EK= 0.98943E+01 SP= -.14E+02 SK= 0.77E-03
   1041 T=   603. E= -.23366291E+03 F= -.23000759E+03 E0= -.23000759E+03  EK= 0.99006E+01 SP= -.14E+02 SK= 0.64E-03
   1042 T=   604. E= -.23366347E+03 F= -.23000790E+03 E0= -.23000790E+03  EK= 0.99171E+01 SP= -.14E+02 SK= 0.51E-03
   1043 T=   605. E= -.23366401E+03 F= -.23001103E+03 E0= -.23001103E+03  EK= 0.99343E+01 SP= -.14E+02 SK= 0.36E-03
   1044 T=   606. E= -.23366445E+03 F= -.23000816E+03 E0= -.23000816E+03  EK= 0.99430E+01 SP= -.14E+02 SK= 0.23E-03
   1045 T=   605. E= -.23366477E+03 F= -.22999177E+03 E0= -.22999177E+03  EK= 0.99355E+01 SP= -.14E+02 SK= 0.12E-03
   1046 T=   603. E= -.23366482E+03 F= -.22995690E+03 E0= -.22995690E+03  EK= 0.99071E+01 SP= -.14E+02 SK= 0.56E-04
   1047 T=   600. E= -.23366457E+03 F= -.22990243E+03 E0= -.22990243E+03  EK= 0.98574E+01 SP= -.14E+02 SK= 0.30E-04
   1048 T=   596. E= -.23366404E+03 F= -.22983182E+03 E0= -.22983182E+03  EK= 0.97912E+01 SP= -.14E+02 SK= 0.31E-04
   1049 T=   592. E= -.23366329E+03 F= -.22975301E+03 E0= -.22975301E+03  EK= 0.97178E+01 SP= -.14E+02 SK= 0.67E-04
   1050 T=   588. E= -.23366253E+03 F= -.22967742E+03 E0= -.22967742E+03  EK= 0.96504E+01 SP= -.14E+02 SK= 0.18E-03
   1051 T=   585. E= -.23366179E+03 F= -.22961757E+03 E0= -.22961757E+03  EK= 0.96029E+01 SP= -.14E+02 SK= 0.43E-03
   1052 T=   584. E= -.23366129E+03 F= -.22958500E+03 E0= -.22958500E+03  EK= 0.95878E+01 SP= -.14E+02 SK= 0.85E-03
   1053 T=   586. E= -.23366127E+03 F= -.22958758E+03 E0= -.22958758E+03  EK= 0.96132E+01 SP= -.14E+02 SK= 0.14E-02
   1054 T=   590. E= -.23366165E+03 F= -.22962690E+03 E0= -.22962690E+03  EK= 0.96801E+01 SP= -.14E+02 SK= 0.20E-02
   1055 T=   596. E= -.23366223E+03 F= -.22969866E+03 E0= -.22969866E+03  EK= 0.97831E+01 SP= -.14E+02 SK= 0.23E-02
   1056 T=   604. E= -.23366288E+03 F= -.22979503E+03 E0= -.22979503E+03  EK= 0.99121E+01 SP= -.14E+02 SK= 0.22E-02
   1057 T=   613. E= -.23366333E+03 F= -.22990760E+03 E0= -.22990760E+03  EK= 0.10056E+02 SP= -.14E+02 SK= 0.18E-02
   1058 T=   622. E= -.23366349E+03 F= -.23003020E+03 E0= -.23003020E+03  EK= 0.10205E+02 SP= -.14E+02 SK= 0.97E-03
   1059 T=   631. E= -.23366344E+03 F= -.23016031E+03 E0= -.23016031E+03  EK= 0.10352E+02 SP= -.14E+02 SK= 0.23E-03
   1060 T=   639. E= -.23366334E+03 F= -.23029828E+03 E0= -.23029828E+03  EK= 0.10493E+02 SP= -.14E+02 SK= 0.35E-04
   1061 T=   647. E= -.23366329E+03 F= -.23044527E+03 E0= -.23044527E+03  EK= 0.10626E+02 SP= -.14E+02 SK= 0.10E-02
   1062 T=   655. E= -.23366340E+03 F= -.23060136E+03 E0= -.23060136E+03  EK= 0.10746E+02 SP= -.14E+02 SK= 0.39E-02
   1063 T=   661. E= -.23366357E+03 F= -.23076441E+03 E0= -.23076441E+03  EK= 0.10848E+02 SP= -.14E+02 SK= 0.94E-02
   1064 T=   665. E= -.23366402E+03 F= -.23092978E+03 E0= -.23092978E+03  EK= 0.10923E+02 SP= -.14E+02 SK= 0.18E-01
   1065 T=   668. E= -.23366457E+03 F= -.23108941E+03 E0= -.23108941E+03  EK= 0.10963E+02 SP= -.14E+02 SK= 0.30E-01
   1066 T=   667. E= -.23366502E+03 F= -.23123297E+03 E0= -.23123297E+03  EK= 0.10954E+02 SP= -.13E+02 SK= 0.46E-01
   1067 T=   663. E= -.23366539E+03 F= -.23134969E+03 E0= -.23134969E+03  EK= 0.10889E+02 SP= -.13E+02 SK= 0.64E-01
   1068 T=   655. E= -.23366554E+03 F= -.23142938E+03 E0= -.23142938E+03  EK= 0.10760E+02 SP= -.13E+02 SK= 0.84E-01
   1069 T=   644. E= -.23366534E+03 F= -.23146414E+03 E0= -.23146414E+03  EK= 0.10564E+02 SP= -.13E+02 SK= 0.10E+00
   1070 T=   628. E= -.23366463E+03 F= -.23145106E+03 E0= -.23145106E+03  EK= 0.10307E+02 SP= -.13E+02 SK= 0.12E+00
   1071 T=   609. E= -.23366343E+03 F= -.23139489E+03 E0= -.23139489E+03  EK= 0.10001E+02 SP= -.12E+02 SK= 0.12E+00
   1072 T=   589. E= -.23366188E+03 F= -.23130853E+03 E0= -.23130853E+03  EK= 0.96700E+01 SP= -.12E+02 SK= 0.13E+00
   1073 T=   569. E= -.23366038E+03 F= -.23121117E+03 E0= -.23121117E+03  EK= 0.93398E+01 SP= -.12E+02 SK= 0.12E+00
   1074 T=   551. E= -.23365925E+03 F= -.23112368E+03 E0= -.23112368E+03  EK= 0.90382E+01 SP= -.12E+02 SK= 0.10E+00
   1075 T=   535. E= -.23365849E+03 F= -.23106388E+03 E0= -.23106388E+03  EK= 0.87882E+01 SP= -.11E+02 SK= 0.82E-01
   1076 T=   524. E= -.23365834E+03 F= -.23104431E+03 E0= -.23104431E+03  EK= 0.86051E+01 SP= -.11E+02 SK= 0.60E-01
   1077 T=   517. E= -.23365869E+03 F= -.23106940E+03 E0= -.23106940E+03  EK= 0.84951E+01 SP= -.11E+02 SK= 0.40E-01
   1078 T=   515. E= -.23365933E+03 F= -.23113574E+03 E0= -.23113574E+03  EK= 0.84556E+01 SP= -.11E+02 SK= 0.23E-01
   1079 T=   516. E= -.23366019E+03 F= -.23123392E+03 E0= -.23123392E+03  EK= 0.84769E+01 SP= -.11E+02 SK= 0.10E-01
   1080 T=   521. E= -.23366110E+03 F= -.23135025E+03 E0= -.23135025E+03  EK= 0.85447E+01 SP= -.11E+02 SK= 0.31E-02
   1081 T=   526. E= -.23366184E+03 F= -.23146961E+03 E0= -.23146961E+03  EK= 0.86430E+01 SP= -.11E+02 SK= 0.13E-03
   1082 T=   533. E= -.23366247E+03 F= -.23157827E+03 E0= -.23157827E+03  EK= 0.87564E+01 SP= -.11E+02 SK= 0.82E-03
   1083 T=   540. E= -.23366282E+03 F= -.23166497E+03 E0= -.23166497E+03  EK= 0.88719E+01 SP= -.11E+02 SK= 0.42E-02
   1084 T=   547. E= -.23366293E+03 F= -.23172247E+03 E0= -.23172247E+03  EK= 0.89804E+01 SP= -.11E+02 SK= 0.94E-02
   1085 T=   553. E= -.23366274E+03 F= -.23174785E+03 E0= -.23174785E+03  EK= 0.90770E+01 SP= -.11E+02 SK= 0.16E-01
   1086 T=   558. E= -.23366240E+03 F= -.23174256E+03 E0= -.23174256E+03  EK= 0.91611E+01 SP= -.11E+02 SK= 0.23E-01
   1087 T=   563. E= -.23366197E+03 F= -.23171122E+03 E0= -.23171122E+03  EK= 0.92355E+01 SP= -.11E+02 SK= 0.30E-01
   1088 T=   567. E= -.23366150E+03 F= -.23166066E+03 E0= -.23166066E+03  EK= 0.93054E+01 SP= -.11E+02 SK= 0.37E-01
   1089 T=   571. E= -.23366106E+03 F= -.23159896E+03 E0= -.23159896E+03  EK= 0.93774E+01 SP= -.11E+02 SK= 0.44E-01
   1090 T=   576. E= -.23366070E+03 F= -.23153408E+03 E0= -.23153408E+03  EK= 0.94580E+01 SP= -.12E+02 SK= 0.50E-01
   1091 T=   582. E= -.23366036E+03 F= -.23147303E+03 E0= -.23147303E+03  EK= 0.95526E+01 SP= -.12E+02 SK= 0.56E-01
   1092 T=   589. E= -.23366003E+03 F= -.23142232E+03 E0= -.23142232E+03  EK= 0.96659E+01 SP= -.12E+02 SK= 0.60E-01
   1093 T=   597. E= -.23365977E+03 F= -.23138798E+03 E0= -.23138798E+03  EK= 0.98016E+01 SP= -.12E+02 SK= 0.61E-01
   1094 T=   607. E= -.23365967E+03 F= -.23137489E+03 E0= -.23137489E+03  EK= 0.99618E+01 SP= -.12E+02 SK= 0.61E-01
   1095 T=   618. E= -.23365974E+03 F= -.23138598E+03 E0= -.23138598E+03  EK= 0.10146E+02 SP= -.12E+02 SK= 0.57E-01
   1096 T=   630. E= -.23366000E+03 F= -.23142179E+03 E0= -.23142179E+03  EK= 0.10349E+02 SP= -.13E+02 SK= 0.50E-01
   1097 T=   644. E= -.23366050E+03 F= -.23147996E+03 E0= -.23147996E+03  EK= 0.10565E+02 SP= -.13E+02 SK= 0.41E-01
   1098 T=   657. E= -.23366122E+03 F= -.23155484E+03 E0= -.23155484E+03  EK= 0.10780E+02 SP= -.13E+02 SK= 0.30E-01
   1099 T=   669. E= -.23366202E+03 F= -.23163819E+03 E0= -.23163819E+03  EK= 0.10981E+02 SP= -.13E+02 SK= 0.18E-01
   1100 T=   679. E= -.23366286E+03 F= -.23172037E+03 E0= -.23172037E+03  EK= 0.11151E+02 SP= -.13E+02 SK= 0.82E-02
   1101 T=   687. E= -.23366351E+03 F= -.23179124E+03 E0= -.23179124E+03  EK= 0.11274E+02 SP= -.13E+02 SK= 0.17E-02
   1102 T=   691. E= -.23366390E+03 F= -.23184248E+03 E0= -.23184248E+03  EK= 0.11337E+02 SP= -.13E+02 SK= 0.13E-03
   1103 T=   690. E= -.23366400E+03 F= -.23186821E+03 E0= -.23186821E+03  EK= 0.11332E+02 SP= -.13E+02 SK= 0.42E-02
   1104 T=   686. E= -.23366377E+03 F= -.23186531E+03 E0= -.23186531E+03  EK= 0.11256E+02 SP= -.13E+02 SK= 0.14E-01
   1105 T=   677. E= -.23366321E+03 F= -.23183422E+03 E0= -.23183422E+03  EK= 0.11113E+02 SP= -.13E+02 SK= 0.27E-01
   1106 T=   665. E= -.23366248E+03 F= -.23177882E+03 E0= -.23177882E+03  EK= 0.10912E+02 SP= -.13E+02 SK= 0.43E-01
   1107 T=   650. E= -.23366163E+03 F= -.23170511E+03 E0= -.23170511E+03  EK= 0.10667E+02 SP= -.13E+02 SK= 0.59E-01
   1108 T=   633. E= -.23366084E+03 F= -.23162060E+03 E0= -.23162060E+03  EK= 0.10393E+02 SP= -.13E+02 SK= 0.71E-01
   1109 T=   616. E= -.23366014E+03 F= -.23153307E+03 E0= -.23153307E+03  EK= 0.10107E+02 SP= -.12E+02 SK= 0.79E-01
   1110 T=   598. E= -.23365973E+03 F= -.23144939E+03 E0= -.23144939E+03  EK= 0.98232E+01 SP= -.12E+02 SK= 0.82E-01
   1111 T=   582. E= -.23365943E+03 F= -.23137455E+03 E0= -.23137455E+03  EK= 0.95538E+01 SP= -.12E+02 SK= 0.79E-01
   1112 T=   567. E= -.23365930E+03 F= -.23131241E+03 E0= -.23131241E+03  EK= 0.93087E+01 SP= -.12E+02 SK= 0.71E-01
   1113 T=   554. E= -.23365914E+03 F= -.23126558E+03 E0= -.23126558E+03  EK= 0.90955E+01 SP= -.12E+02 SK= 0.60E-01
   1114 T=   543. E= -.23365899E+03 F= -.23123656E+03 E0= -.23123656E+03  EK= 0.89203E+01 SP= -.11E+02 SK= 0.46E-01
   1115 T=   535. E= -.23365900E+03 F= -.23122756E+03 E0= -.23122756E+03  EK= 0.87877E+01 SP= -.11E+02 SK= 0.32E-01
   1116 T=   530. E= -.23365918E+03 F= -.23123883E+03 E0= -.23123883E+03  EK= 0.86997E+01 SP= -.11E+02 SK= 0.20E-01
   1117 T=   527. E= -.23365952E+03 F= -.23126785E+03 E0= -.23126785E+03  EK= 0.86546E+01 SP= -.11E+02 SK= 0.99E-02
   1118 T=   527. E= -.23365994E+03 F= -.23130975E+03 E0= -.23130975E+03  EK= 0.86482E+01 SP= -.11E+02 SK= 0.33E-02
   1119 T=   528. E= -.23366053E+03 F= -.23135753E+03 E0= -.23135753E+03  EK= 0.86731E+01 SP= -.11E+02 SK= 0.24E-03
   1120 T=   531. E= -.23366119E+03 F= -.23140214E+03 E0= -.23140214E+03  EK= 0.87200E+01 SP= -.11E+02 SK= 0.62E-03
   1121 T=   535. E= -.23366180E+03 F= -.23143368E+03 E0= -.23143368E+03  EK= 0.87783E+01 SP= -.11E+02 SK= 0.40E-02
   1122 T=   538. E= -.23366235E+03 F= -.23144289E+03 E0= -.23144289E+03  EK= 0.88380E+01 SP= -.11E+02 SK= 0.10E-01
   1123 T=   542. E= -.23366271E+03 F= -.23142243E+03 E0= -.23142243E+03  EK= 0.88907E+01 SP= -.11E+02 SK= 0.18E-01
   1124 T=   544. E= -.23366283E+03 F= -.23136823E+03 E0= -.23136823E+03  EK= 0.89314E+01 SP= -.11E+02 SK= 0.28E-01
   1125 T=   546. E= -.23366264E+03 F= -.23128040E+03 E0= -.23128040E+03  EK= 0.89594E+01 SP= -.11E+02 SK= 0.39E-01
   1126 T=   547. E= -.23366211E+03 F= -.23116410E+03 E0= -.23116410E+03  EK= 0.89793E+01 SP= -.12E+02 SK= 0.52E-01
   1127 T=   548. E= -.23366136E+03 F= -.23102930E+03 E0= -.23102930E+03  EK= 0.90005E+01 SP= -.12E+02 SK= 0.67E-01
   1128 T=   550. E= -.23366047E+03 F= -.23088943E+03 E0= -.23088943E+03  EK= 0.90360E+01 SP= -.12E+02 SK= 0.83E-01
   1129 T=   554. E= -.23365955E+03 F= -.23075964E+03 E0= -.23075964E+03  EK= 0.91007E+01 SP= -.12E+02 SK= 0.99E-01
   1130 T=   561. E= -.23365880E+03 F= -.23065469E+03 E0= -.23065469E+03  EK= 0.92085E+01 SP= -.12E+02 SK= 0.12E+00
   1131 T=   571. E= -.23365830E+03 F= -.23058630E+03 E0= -.23058630E+03  EK= 0.93703E+01 SP= -.13E+02 SK= 0.13E+00
   1132 T=   584. E= -.23365826E+03 F= -.23056138E+03 E0= -.23056138E+03  EK= 0.95906E+01 SP= -.13E+02 SK= 0.14E+00
   1133 T=   601. E= -.23365862E+03 F= -.23058029E+03 E0= -.23058029E+03  EK= 0.98667E+01 SP= -.13E+02 SK= 0.14E+00
   1134 T=   621. E= -.23365951E+03 F= -.23063722E+03 E0= -.23063722E+03  EK= 0.10187E+02 SP= -.13E+02 SK= 0.14E+00
   1135 T=   642. E= -.23366082E+03 F= -.23072048E+03 E0= -.23072048E+03  EK= 0.10533E+02 SP= -.14E+02 SK= 0.12E+00
   1136 T=   663. E= -.23366240E+03 F= -.23081396E+03 E0= -.23081396E+03  EK= 0.10880E+02 SP= -.14E+02 SK= 0.10E+00
   1137 T=   682. E= -.23366409E+03 F= -.23089933E+03 E0= -.23089933E+03  EK= 0.11196E+02 SP= -.14E+02 SK= 0.76E-01
   1138 T=   698. E= -.23366553E+03 F= -.23095860E+03 E0= -.23095860E+03  EK= 0.11455E+02 SP= -.14E+02 SK= 0.50E-01
   1139 T=   708. E= -.23366662E+03 F= -.23097751E+03 E0= -.23097751E+03  EK= 0.11630E+02 SP= -.14E+02 SK= 0.26E-01
   1140 T=   713. E= -.23366712E+03 F= -.23094681E+03 E0= -.23094681E+03  EK= 0.11705E+02 SP= -.14E+02 SK= 0.91E-02
   1141 T=   711. E= -.23366688E+03 F= -.23086382E+03 E0= -.23086382E+03  EK= 0.11674E+02 SP= -.14E+02 SK= 0.84E-03
   1142 T=   703. E= -.23366594E+03 F= -.23073363E+03 E0= -.23073363E+03  EK= 0.11543E+02 SP= -.14E+02 SK= 0.12E-02
   1143 T=   690. E= -.23366453E+03 F= -.23056877E+03 E0= -.23056877E+03  EK= 0.11328E+02 SP= -.14E+02 SK= 0.85E-02
   1144 T=   673. E= -.23366290E+03 F= -.23038689E+03 E0= -.23038689E+03  EK= 0.11055E+02 SP= -.14E+02 SK= 0.20E-01
   1145 T=   655. E= -.23366129E+03 F= -.23020818E+03 E0= -.23020818E+03  EK= 0.10754E+02 SP= -.14E+02 SK= 0.32E-01
   1146 T=   637. E= -.23365996E+03 F= -.23005266E+03 E0= -.23005266E+03  EK= 0.10455E+02 SP= -.14E+02 SK= 0.42E-01
   1147 T=   620. E= -.23365902E+03 F= -.22993728E+03 E0= -.22993728E+03  EK= 0.10184E+02 SP= -.14E+02 SK= 0.50E-01
   1148 T=   607. E= -.23365855E+03 F= -.22987432E+03 E0= -.22987432E+03  EK= 0.99593E+01 SP= -.14E+02 SK= 0.54E-01
   1149 T=   597. E= -.23365849E+03 F= -.22987041E+03 E0= -.22987041E+03  EK= 0.97933E+01 SP= -.14E+02 SK= 0.54E-01
   1150 T=   590. E= -.23365890E+03 F= -.22992561E+03 E0= -.22992561E+03  EK= 0.96889E+01 SP= -.13E+02 SK= 0.52E-01
   1151 T=   587. E= -.23365964E+03 F= -.23003336E+03 E0= -.23003336E+03  EK= 0.96414E+01 SP= -.13E+02 SK= 0.50E-01
   1152 T=   587. E= -.23366048E+03 F= -.23018212E+03 E0= -.23018212E+03  EK= 0.96396E+01 SP= -.13E+02 SK= 0.46E-01
   1153 T=   589. E= -.23366132E+03 F= -.23035798E+03 E0= -.23035798E+03  EK= 0.96694E+01 SP= -.13E+02 SK= 0.44E-01
   1154 T=   592. E= -.23366201E+03 F= -.23054661E+03 E0= -.23054661E+03  EK= 0.97154E+01 SP= -.13E+02 SK= 0.42E-01
   1155 T=   595. E= -.23366259E+03 F= -.23073518E+03 E0= -.23073518E+03  EK= 0.97635E+01 SP= -.13E+02 SK= 0.40E-01
   1156 T=   597. E= -.23366287E+03 F= -.23091310E+03 E0= -.23091310E+03  EK= 0.98024E+01 SP= -.13E+02 SK= 0.40E-01
   1157 T=   598. E= -.23366295E+03 F= -.23107338E+03 E0= -.23107338E+03  EK= 0.98241E+01 SP= -.12E+02 SK= 0.39E-01
   1158 T=   598. E= -.23366284E+03 F= -.23121202E+03 E0= -.23121202E+03  EK= 0.98245E+01 SP= -.12E+02 SK= 0.39E-01
   1159 T=   597. E= -.23366252E+03 F= -.23132822E+03 E0= -.23132822E+03  EK= 0.98031E+01 SP= -.12E+02 SK= 0.39E-01
   1160 T=   595. E= -.23366208E+03 F= -.23142440E+03 E0= -.23142440E+03  EK= 0.97629E+01 SP= -.12E+02 SK= 0.39E-01
   1161 T=   592. E= -.23366154E+03 F= -.23150545E+03 E0= -.23150545E+03  EK= 0.97102E+01 SP= -.12E+02 SK= 0.37E-01
   1162 T=   588. E= -.23366099E+03 F= -.23157809E+03 E0= -.23157809E+03  EK= 0.96528E+01 SP= -.12E+02 SK= 0.35E-01
   1163 T=   585. E= -.23366051E+03 F= -.23164938E+03 E0= -.23164938E+03  EK= 0.95991E+01 SP= -.12E+02 SK= 0.32E-01
   1164 T=   582. E= -.23366022E+03 F= -.23172532E+03 E0= -.23172532E+03  EK= 0.95561E+01 SP= -.12E+02 SK= 0.29E-01
   1165 T=   580. E= -.23366012E+03 F= -.23180952E+03 E0= -.23180952E+03  EK= 0.95283E+01 SP= -.11E+02 SK= 0.26E-01
   1166 T=   580. E= -.23366032E+03 F= -.23190241E+03 E0= -.23190241E+03  EK= 0.95164E+01 SP= -.11E+02 SK= 0.22E-01
   1167 T=   580. E= -.23366062E+03 F= -.23200060E+03 E0= -.23200060E+03  EK= 0.95173E+01 SP= -.11E+02 SK= 0.19E-01
   1168 T=   580. E= -.23366104E+03 F= -.23209831E+03 E0= -.23209831E+03  EK= 0.95251E+01 SP= -.11E+02 SK= 0.16E-01
   1169 T=   581. E= -.23366153E+03 F= -.23218816E+03 E0= -.23218816E+03  EK= 0.95322E+01 SP= -.11E+02 SK= 0.14E-01
   1170 T=   581. E= -.23366195E+03 F= -.23226193E+03 E0= -.23226193E+03  EK= 0.95305E+01 SP= -.11E+02 SK= 0.11E-01
   1171 T=   579. E= -.23366235E+03 F= -.23231213E+03 E0= -.23231213E+03  EK= 0.95127E+01 SP= -.11E+02 SK= 0.90E-02
   1172 T=   577. E= -.23366262E+03 F= -.23233259E+03 E0= -.23233259E+03  EK= 0.94731E+01 SP= -.11E+02 SK= 0.69E-02
   1173 T=   573. E= -.23366269E+03 F= -.23231940E+03 E0= -.23231940E+03  EK= 0.94089E+01 SP= -.11E+02 SK= 0.48E-02
   1174 T=   568. E= -.23366256E+03 F= -.23227193E+03 E0= -.23227193E+03  EK= 0.93211E+01 SP= -.11E+02 SK= 0.28E-02
   1175 T=   561. E= -.23366228E+03 F= -.23219285E+03 E0= -.23219285E+03  EK= 0.92142E+01 SP= -.11E+02 SK= 0.11E-02
   1176 T=   554. E= -.23366173E+03 F= -.23208780E+03 E0= -.23208780E+03  EK= 0.90962E+01 SP= -.11E+02 SK= 0.78E-04
   1177 T=   547. E= -.23366116E+03 F= -.23196559E+03 E0= -.23196559E+03  EK= 0.89779E+01 SP= -.11E+02 SK= 0.38E-03
   1178 T=   540. E= -.23366064E+03 F= -.23183634E+03 E0= -.23183634E+03  EK= 0.88717E+01 SP= -.11E+02 SK= 0.27E-02
   1179 T=   535. E= -.23366020E+03 F= -.23170983E+03 E0= -.23170983E+03  EK= 0.87891E+01 SP= -.11E+02 SK= 0.76E-02
   1180 T=   532. E= -.23365990E+03 F= -.23159458E+03 E0= -.23159458E+03  EK= 0.87402E+01 SP= -.11E+02 SK= 0.16E-01
   1181 T=   532. E= -.23365986E+03 F= -.23149629E+03 E0= -.23149629E+03  EK= 0.87317E+01 SP= -.11E+02 SK= 0.27E-01
   1182 T=   534. E= -.23366003E+03 F= -.23141653E+03 E0= -.23141653E+03  EK= 0.87658E+01 SP= -.11E+02 SK= 0.41E-01
   1183 T=   539. E= -.23366039E+03 F= -.23135329E+03 E0= -.23135329E+03  EK= 0.88404E+01 SP= -.11E+02 SK= 0.58E-01
   1184 T=   545. E= -.23366081E+03 F= -.23130182E+03 E0= -.23130182E+03  EK= 0.89503E+01 SP= -.11E+02 SK= 0.75E-01
   1185 T=   554. E= -.23366125E+03 F= -.23125648E+03 E0= -.23125648E+03  EK= 0.90885E+01 SP= -.12E+02 SK= 0.91E-01
   1186 T=   563. E= -.23366151E+03 F= -.23121209E+03 E0= -.23121209E+03  EK= 0.92480E+01 SP= -.12E+02 SK= 0.11E+00
   1187 T=   574. E= -.23366177E+03 F= -.23116550E+03 E0= -.23116550E+03  EK= 0.94227E+01 SP= -.12E+02 SK= 0.12E+00
   1188 T=   585. E= -.23366201E+03 F= -.23111492E+03 E0= -.23111492E+03  EK= 0.96074E+01 SP= -.12E+02 SK= 0.13E+00
   1189 T=   597. E= -.23366225E+03 F= -.23105967E+03 E0= -.23105967E+03  EK= 0.97976E+01 SP= -.13E+02 SK= 0.13E+00
   1190 T=   608. E= -.23366250E+03 F= -.23099958E+03 E0= -.23099958E+03  EK= 0.99886E+01 SP= -.13E+02 SK= 0.13E+00
   1191 T=   620. E= -.23366275E+03 F= -.23093536E+03 E0= -.23093536E+03  EK= 0.10176E+02 SP= -.13E+02 SK= 0.12E+00
   1192 T=   631. E= -.23366294E+03 F= -.23086885E+03 E0= -.23086885E+03  EK= 0.10357E+02 SP= -.13E+02 SK= 0.11E+00
   1193 T=   641. E= -.23366314E+03 F= -.23080263E+03 E0= -.23080263E+03  EK= 0.10529E+02 SP= -.13E+02 SK= 0.96E-01
   1194 T=   651. E= -.23366334E+03 F= -.23073918E+03 E0= -.23073918E+03  EK= 0.10689E+02 SP= -.14E+02 SK= 0.80E-01
   1195 T=   660. E= -.23366369E+03 F= -.23068083E+03 E0= -.23068083E+03  EK= 0.10833E+02 SP= -.14E+02 SK= 0.62E-01
   1196 T=   668. E= -.23366393E+03 F= -.23062878E+03 E0= -.23062878E+03  EK= 0.10959E+02 SP= -.14E+02 SK= 0.45E-01
   1197 T=   674. E= -.23366410E+03 F= -.23058431E+03 E0= -.23058431E+03  EK= 0.11063E+02 SP= -.14E+02 SK= 0.29E-01
   1198 T=   679. E= -.23366427E+03 F= -.23054909E+03 E0= -.23054909E+03  EK= 0.11144E+02 SP= -.14E+02 SK= 0.15E-01
   1199 T=   682. E= -.23366445E+03 F= -.23052416E+03 E0= -.23052416E+03  EK= 0.11198E+02 SP= -.14E+02 SK= 0.58E-02
   1200 T=   684. E= -.23366454E+03 F= -.23050990E+03 E0= -.23050990E+03  EK= 0.11225E+02 SP= -.14E+02 SK= 0.73E-03
   1201 T=   684. E= -.23366473E+03 F= -.23050629E+03 E0= -.23050629E+03  EK= 0.11223E+02 SP= -.14E+02 SK= 0.52E-03
   1202 T=   682. E= -.23366492E+03 F= -.23051099E+03 E0= -.23051099E+03  EK= 0.11189E+02 SP= -.14E+02 SK= 0.52E-02
   1203 T=   678. E= -.23366509E+03 F= -.23052037E+03 E0= -.23052037E+03  EK= 0.11123E+02 SP= -.14E+02 SK= 0.14E-01
   1204 T=   671. E= -.23366520E+03 F= -.23053020E+03 E0= -.23053020E+03  EK= 0.11021E+02 SP= -.14E+02 SK= 0.27E-01
   1205 T=   663. E= -.23366513E+03 F= -.23053641E+03 E0= -.23053641E+03  EK= 0.10885E+02 SP= -.14E+02 SK= 0.42E-01
   1206 T=   653. E= -.23366496E+03 F= -.23053604E+03 E0= -.23053604E+03  EK= 0.10715E+02 SP= -.14E+02 SK= 0.57E-01
   1207 T=   641. E= -.23366456E+03 F= -.23052745E+03 E0= -.23052745E+03  EK= 0.10516E+02 SP= -.14E+02 SK= 0.71E-01
   1208 T=   627. E= -.23366407E+03 F= -.23051123E+03 E0= -.23051123E+03  EK= 0.10296E+02 SP= -.14E+02 SK= 0.83E-01
   1209 T=   613. E= -.23366347E+03 F= -.23048967E+03 E0= -.23048967E+03  EK= 0.10063E+02 SP= -.13E+02 SK= 0.90E-01
   1210 T=   599. E= -.23366282E+03 F= -.23046670E+03 E0= -.23046670E+03  EK= 0.98275E+01 SP= -.13E+02 SK= 0.93E-01
       N       E                     dE             d eps       ncg     rms          rms(c)
RMM:   1    -0.218700567969E+03    0.54669E+01   -0.17392E+03   129   0.572E+01
RMM:   2    -0.237775218721E+03   -0.19075E+02   -0.15818E+02   129   0.173E+01
RMM:   3    -0.240412565625E+03   -0.26373E+01   -0.21354E+01   129   0.622E+00
RMM:   4    -0.240970659835E+03   -0.55809E+00   -0.50595E+00   269   0.271E+00
RMM:   5    -0.241150161503E+03   -0.17950E+00   -0.16518E+00   281   0.127E+00    0.960E+00
RMM:   6    -0.225358062954E+03    0.15792E+02   -0.25639E+01   302   0.353E+00    0.448E+00
RMM:   7    -0.223442469983E+03    0.19156E+01   -0.29067E+00   258   0.170E+00    0.214E+00
RMM:   8    -0.223192033070E+03    0.25044E+00   -0.11027E+00   258   0.977E-01    0.113E+00
RMM:   9    -0.223157597666E+03    0.34435E-01   -0.24910E-01   264   0.561E-01    0.492E-01
RMM:  10    -0.223160077366E+03   -0.24797E-02   -0.78042E-02   265   0.311E-01    0.189E-01
RMM:  11    -0.223160975658E+03   -0.89829E-03   -0.17839E-02   255   0.157E-01
   1211 T=   585. E= -.22636989E+03 F= -.22316098E+03 E0= -.22314088E+03  EK= 0.96066E+01 SP= -.13E+02 SK= 0.90E-01
   1212 T=   573. E= -.23364661E+03 F= -.23044100E+03 E0= -.23044100E+03  EK= 0.94113E+01 SP= -.13E+02 SK= 0.83E-01
   1213 T=   563. E= -.23364612E+03 F= -.23044903E+03 E0= -.23044903E+03  EK= 0.92350E+01 SP= -.13E+02 SK= 0.73E-01
   1214 T=   554. E= -.23364582E+03 F= -.23047657E+03 E0= -.23047657E+03  EK= 0.90948E+01 SP= -.12E+02 SK= 0.61E-01
   1215 T=   548. E= -.23364565E+03 F= -.23052648E+03 E0= -.23052648E+03  EK= 0.89957E+01 SP= -.12E+02 SK= 0.48E-01
   1216 T=   545. E= -.23364551E+03 F= -.23059987E+03 E0= -.23059987E+03  EK= 0.89401E+01 SP= -.12E+02 SK= 0.35E-01
   1217 T=   544. E= -.23364548E+03 F= -.23069716E+03 E0= -.23069716E+03  EK= 0.89286E+01 SP= -.12E+02 SK= 0.24E-01
   1218 T=   546. E= -.23364551E+03 F= -.23081773E+03 E0= -.23081773E+03  EK= 0.89605E+01 SP= -.12E+02 SK= 0.15E-01
   1219 T=   550. E= -.23364569E+03 F= -.23095952E+03 E0= -.23095952E+03  EK= 0.90325E+01 SP= -.12E+02 SK= 0.89E-02
   1220 T=   557. E= -.23364610E+03 F= -.23111844E+03 E0= -.23111844E+03  EK= 0.91388E+01 SP= -.12E+02 SK= 0.46E-02
   1221 T=   565. E= -.23364675E+03 F= -.23128710E+03 E0= -.23128710E+03  EK= 0.92700E+01 SP= -.12E+02 SK= 0.21E-02
   1222 T=   573. E= -.23364759E+03 F= -.23145487E+03 E0= -.23145487E+03  EK= 0.94126E+01 SP= -.12E+02 SK= 0.78E-03
   1223 T=   582. E= -.23364837E+03 F= -.23160901E+03 E0= -.23160901E+03  EK= 0.95513E+01 SP= -.12E+02 SK= 0.25E-03
   1224 T=   589. E= -.23364906E+03 F= -.23173721E+03 E0= -.23173721E+03  EK= 0.96707E+01 SP= -.12E+02 SK= 0.66E-04
   1225 T=   594. E= -.23364959E+03 F= -.23182890E+03 E0= -.23182890E+03  EK= 0.97576E+01 SP= -.12E+02 SK= 0.18E-04
   1226 T=   597. E= -.23364974E+03 F= -.23187656E+03 E0= -.23187656E+03  EK= 0.98027E+01 SP= -.12E+02 SK= 0.77E-05
   1227 T=   597. E= -.23364961E+03 F= -.23187764E+03 E0= -.23187764E+03  EK= 0.98022E+01 SP= -.12E+02 SK= 0.44E-05
   1228 T=   594. E= -.23364923E+03 F= -.23183430E+03 E0= -.23183430E+03  EK= 0.97583E+01 SP= -.12E+02 SK= 0.37E-06
   1229 T=   590. E= -.23364855E+03 F= -.23175278E+03 E0= -.23175278E+03  EK= 0.96783E+01 SP= -.12E+02 SK= 0.99E-05
   1230 T=   583. E= -.23364776E+03 F= -.23164338E+03 E0= -.23164338E+03  EK= 0.95743E+01 SP= -.12E+02 SK= 0.11E-03
   1231 T=   576. E= -.23364694E+03 F= -.23151880E+03 E0= -.23151880E+03  EK= 0.94612E+01 SP= -.12E+02 SK= 0.45E-03
   1232 T=   570. E= -.23364612E+03 F= -.23139269E+03 E0= -.23139269E+03  EK= 0.93551E+01 SP= -.12E+02 SK= 0.13E-02
   1233 T=   565. E= -.23364540E+03 F= -.23127880E+03 E0= -.23127880E+03  EK= 0.92721E+01 SP= -.12E+02 SK= 0.30E-02
   1234 T=   562. E= -.23364478E+03 F= -.23118974E+03 E0= -.23118974E+03  EK= 0.92264E+01 SP= -.12E+02 SK= 0.57E-02
   1235 T=   562. E= -.23364442E+03 F= -.23113599E+03 E0= -.23113599E+03  EK= 0.92297E+01 SP= -.12E+02 SK= 0.95E-02
   1236 T=   566. E= -.23364447E+03 F= -.23112366E+03 E0= -.23112366E+03  EK= 0.92880E+01 SP= -.12E+02 SK= 0.14E-01
   1237 T=   573. E= -.23364508E+03 F= -.23115249E+03 E0= -.23115249E+03  EK= 0.94002E+01 SP= -.12E+02 SK= 0.18E-01
   1238 T=   582. E= -.23364615E+03 F= -.23121417E+03 E0= -.23121417E+03  EK= 0.95561E+01 SP= -.12E+02 SK= 0.22E-01
   1239 T=   593. E= -.23364752E+03 F= -.23129322E+03 E0= -.23129322E+03  EK= 0.97375E+01 SP= -.12E+02 SK= 0.24E-01
   1240 T=   604. E= -.23364891E+03 F= -.23137028E+03 E0= -.23137028E+03  EK= 0.99211E+01 SP= -.12E+02 SK= 0.24E-01
   1241 T=   614. E= -.23365008E+03 F= -.23142635E+03 E0= -.23142635E+03  EK= 0.10084E+02 SP= -.12E+02 SK= 0.22E-01
   1242 T=   622. E= -.23365080E+03 F= -.23144650E+03 E0= -.23144650E+03  EK= 0.10206E+02 SP= -.12E+02 SK= 0.19E-01
   1243 T=   626. E= -.23365095E+03 F= -.23142257E+03 E0= -.23142257E+03  EK= 0.10276E+02 SP= -.13E+02 SK= 0.15E-01
   1244 T=   627. E= -.23365049E+03 F= -.23135456E+03 E0= -.23135456E+03  EK= 0.10291E+02 SP= -.13E+02 SK= 0.11E-01
   1245 T=   625. E= -.23364970E+03 F= -.23125018E+03 E0= -.23125018E+03  EK= 0.10258E+02 SP= -.13E+02 SK= 0.80E-02
   1246 T=   621. E= -.23364891E+03 F= -.23112170E+03 E0= -.23112170E+03  EK= 0.10190E+02 SP= -.13E+02 SK= 0.56E-02
   1247 T=   615. E= -.23364815E+03 F= -.23098171E+03 E0= -.23098171E+03  EK= 0.10101E+02 SP= -.13E+02 SK= 0.41E-02
       N       E                     dE             d eps       ncg     rms          rms(c)
RMM:   1    -0.224128022040E+03   -0.96794E+00   -0.92072E+02   129   0.434E+01
RMM:   2    -0.234790364811E+03   -0.10662E+02   -0.88063E+01   129   0.141E+01
RMM:   3    -0.236442270113E+03   -0.16519E+01   -0.14929E+01   129   0.550E+00
RMM:   4    -0.236763794792E+03   -0.32152E+00   -0.29865E+00   258   0.245E+00
RMM:   5    -0.236863105723E+03   -0.99311E-01   -0.96621E-01   262   0.119E+00    0.840E+00
RMM:   6    -0.224885349947E+03    0.11978E+02   -0.19429E+01   306   0.309E+00    0.365E+00
RMM:   7    -0.223726629364E+03    0.11587E+01   -0.19627E+00   258   0.141E+00    0.166E+00
RMM:   8    -0.223606058610E+03    0.12057E+00   -0.48512E-01   258   0.728E-01    0.870E-01
RMM:   9    -0.223586315323E+03    0.19743E-01   -0.14337E-01   260   0.411E-01    0.387E-01
RMM:  10    -0.223584764823E+03    0.15505E-02   -0.34071E-02   260   0.222E-01    0.175E-01
RMM:  11    -0.223585133514E+03   -0.36869E-03   -0.91869E-03   228   0.115E-01
   1248 T=   610. E= -.22638360E+03 F= -.22358513E+03 E0= -.22355835E+03  EK= 0.10011E+02 SP= -.13E+02 SK= 0.31E-02
   1249 T=   605. E= -.23362805E+03 F= -.23071091E+03 E0= -.23071091E+03  EK= 0.99304E+01 SP= -.13E+02 SK= 0.26E-02
   1250 T=   600. E= -.23362770E+03 F= -.23059510E+03 E0= -.23059510E+03  EK= 0.98496E+01 SP= -.13E+02 SK= 0.24E-02
   1251 T=   596. E= -.23362743E+03 F= -.23049900E+03 E0= -.23049900E+03  EK= 0.97877E+01 SP= -.13E+02 SK= 0.24E-02
   1252 T=   594. E= -.23362735E+03 F= -.23042646E+03 E0= -.23042646E+03  EK= 0.97500E+01 SP= -.13E+02 SK= 0.26E-02
   1253 T=   593. E= -.23362749E+03 F= -.23037896E+03 E0= -.23037896E+03  EK= 0.97389E+01 SP= -.13E+02 SK= 0.30E-02
   1254 T=   594. E= -.23362784E+03 F= -.23035476E+03 E0= -.23035476E+03  EK= 0.97531E+01 SP= -.13E+02 SK= 0.33E-02
   1255 T=   596. E= -.23362838E+03 F= -.23034906E+03 E0= -.23034906E+03  EK= 0.97875E+01 SP= -.13E+02 SK= 0.36E-02
   1256 T=   599. E= -.23362889E+03 F= -.23035472E+03 E0= -.23035472E+03  EK= 0.98344E+01 SP= -.13E+02 SK= 0.37E-02
   1257 T=   602. E= -.23362918E+03 F= -.23036485E+03 E0= -.23036485E+03  EK= 0.98862E+01 SP= -.13E+02 SK= 0.35E-02
   1258 T=   605. E= -.23362927E+03 F= -.23037525E+03 E0= -.23037525E+03  EK= 0.99372E+01 SP= -.13E+02 SK= 0.32E-02
   1259 T=   608. E= -.23362923E+03 F= -.23038481E+03 E0= -.23038481E+03  EK= 0.99849E+01 SP= -.13E+02 SK= 0.27E-02
   1260 T=   611. E= -.23362912E+03 F= -.23039472E+03 E0= -.23039472E+03  EK= 0.10029E+02 SP= -.13E+02 SK= 0.21E-02
   1261 T=   613. E= -.23362910E+03 F= -.23040680E+03 E0= -.23040680E+03  EK= 0.10071E+02 SP= -.13E+02 SK= 0.14E-02
   1262 T=   616. E= -.23362918E+03 F= -.23042208E+03 E0= -.23042208E+03  EK= 0.10110E+02 SP= -.13E+02 SK= 0.79E-03
   1263 T=   618. E= -.23362943E+03 F= -.23044023E+03 E0= -.23044023E+03  EK= 0.10144E+02 SP= -.13E+02 SK= 0.31E-03
   1264 T=   620. E= -.23362954E+03 F= -.23045973E+03 E0= -.23045973E+03  EK= 0.10172E+02 SP= -.13E+02 SK= 0.33E-04
   1265 T=   621. E= -.23362942E+03 F= -.23048056E+03 E0= -.23048056E+03  EK= 0.10192E+02 SP= -.13E+02 SK= 0.46E-04
   1266 T=   622. E= -.23362929E+03 F= -.23050472E+03 E0= -.23050472E+03  EK= 0.10207E+02 SP= -.13E+02 SK= 0.40E-03
   1267 T=   622. E= -.23362913E+03 F= -.23053495E+03 E0= -.23053495E+03  EK= 0.10218E+02 SP= -.13E+02 SK= 0.11E-02
   1268 T=   623. E= -.23362881E+03 F= -.23057472E+03 E0= -.23057472E+03  EK= 0.10228E+02 SP= -.13E+02 SK= 0.23E-02
   1269 T=   624. E= -.23362865E+03 F= -.23062800E+03 E0= -.23062800E+03  EK= 0.10242E+02 SP= -.13E+02 SK= 0.39E-02
   1270 T=   625. E= -.23362854E+03 F= -.23069710E+03 E0= -.23069710E+03  EK= 0.10261E+02 SP= -.13E+02 SK= 0.59E-02
   1271 T=   626. E= -.23362859E+03 F= -.23078240E+03 E0= -.23078240E+03  EK= 0.10284E+02 SP= -.13E+02 SK= 0.86E-02
   1272 T=   628. E= -.23362876E+03 F= -.23088196E+03 E0= -.23088196E+03  EK= 0.10310E+02 SP= -.13E+02 SK= 0.12E-01
   1273 T=   629. E= -.23362902E+03 F= -.23099179E+03 E0= -.23099179E+03  EK= 0.10333E+02 SP= -.13E+02 SK= 0.16E-01
   1274 T=   630. E= -.23362937E+03 F= -.23110618E+03 E0= -.23110618E+03  EK= 0.10347E+02 SP= -.13E+02 SK= 0.21E-01
   1275 T=   630. E= -.23362982E+03 F= -.23121749E+03 E0= -.23121749E+03  EK= 0.10344E+02 SP= -.13E+02 SK= 0.27E-01
   1276 T=   628. E= -.23363012E+03 F= -.23131704E+03 E0= -.23131704E+03  EK= 0.10317E+02 SP= -.13E+02 SK= 0.33E-01
   1277 T=   625. E= -.23363023E+03 F= -.23139734E+03 E0= -.23139734E+03  EK= 0.10259E+02 SP= -.13E+02 SK= 0.39E-01
   1278 T=   619. E= -.23363004E+03 F= -.23145301E+03 E0= -.23145301E+03  EK= 0.10166E+02 SP= -.12E+02 SK= 0.45E-01
   1279 T=   612. E= -.23362968E+03 F= -.23148232E+03 E0= -.23148232E+03  EK= 0.10040E+02 SP= -.12E+02 SK= 0.49E-01
   1280 T=   602. E= -.23362915E+03 F= -.23148679E+03 E0= -.23148679E+03  EK= 0.98865E+01 SP= -.12E+02 SK= 0.51E-01
   1281 T=   592. E= -.23362856E+03 F= -.23147078E+03 E0= -.23147078E+03  EK= 0.97137E+01 SP= -.12E+02 SK= 0.51E-01
   1282 T=   581. E= -.23362781E+03 F= -.23144086E+03 E0= -.23144086E+03  EK= 0.95330E+01 SP= -.12E+02 SK= 0.48E-01
   1283 T=   570. E= -.23362699E+03 F= -.23140629E+03 E0= -.23140629E+03  EK= 0.93575E+01 SP= -.12E+02 SK= 0.42E-01
   1284 T=   561. E= -.23362616E+03 F= -.23137815E+03 E0= -.23137815E+03  EK= 0.92019E+01 SP= -.11E+02 SK= 0.34E-01
   1285 T=   553. E= -.23362548E+03 F= -.23136788E+03 E0= -.23136788E+03  EK= 0.90805E+01 SP= -.11E+02 SK= 0.26E-01
   1286 T=   549. E= -.23362511E+03 F= -.23138501E+03 E0= -.23138501E+03  EK= 0.90043E+01 SP= -.11E+02 SK= 0.17E-01
   1287 T=   547. E= -.23362505E+03 F= -.23143485E+03 E0= -.23143485E+03  EK= 0.89796E+01 SP= -.11E+02 SK= 0.10E-01
   1288 T=   549. E= -.23362524E+03 F= -.23151777E+03 E0= -.23151777E+03  EK= 0.90069E+01 SP= -.11E+02 SK= 0.52E-02
   1289 T=   553. E= -.23362574E+03 F= -.23162953E+03 E0= -.23162953E+03  EK= 0.90811E+01 SP= -.11E+02 SK= 0.19E-02
   1290 T=   560. E= -.23362646E+03 F= -.23176139E+03 E0= -.23176139E+03  EK= 0.91919E+01 SP= -.11E+02 SK= 0.36E-03
   1291 T=   568. E= -.23362734E+03 F= -.23190122E+03 E0= -.23190122E+03  EK= 0.93251E+01 SP= -.11E+02 SK= 0.21E-05
   1292 T=   576. E= -.23362822E+03 F= -.23203474E+03 E0= -.23203474E+03  EK= 0.94638E+01 SP= -.11E+02 SK= 0.29E-03
   1293 T=   584. E= -.23362905E+03 F= -.23214774E+03 E0= -.23214774E+03  EK= 0.95910E+01 SP= -.11E+02 SK= 0.76E-03
   1294 T=   590. E= -.23362952E+03 F= -.23222800E+03 E0= -.23222800E+03  EK= 0.96919E+01 SP= -.11E+02 SK= 0.12E-02
   1295 T=   594. E= -.23362962E+03 F= -.23226877E+03 E0= -.23226877E+03  EK= 0.97573E+01 SP= -.11E+02 SK= 0.14E-02
   1296 T=   596. E= -.23362925E+03 F= -.23226949E+03 E0= -.23226949E+03  EK= 0.97851E+01 SP= -.11E+02 SK= 0.16E-02
   1297 T=   596. E= -.23362856E+03 F= -.23223577E+03 E0= -.23223577E+03  EK= 0.97799E+01 SP= -.11E+02 SK= 0.17E-02
   1298 T=   594. E= -.23362776E+03 F= -.23217792E+03 E0= -.23217792E+03  EK= 0.97521E+01 SP= -.11E+02 SK= 0.19E-02
   1299 T=   592. E= -.23362694E+03 F= -.23210844E+03 E0= -.23210844E+03  EK= 0.97144E+01 SP= -.11E+02 SK= 0.22E-02
   1300 T=   590. E= -.23362637E+03 F= -.23203959E+03 E0= -.23203959E+03  EK= 0.96799E+01 SP= -.11E+02 SK= 0.27E-02
   1301 T=   588. E= -.23362613E+03 F= -.23198036E+03 E0= -.23198036E+03  EK= 0.96582E+01 SP= -.11E+02 SK= 0.33E-02
   1302 T=   588. E= -.23362619E+03 F= -.23193530E+03 E0= -.23193530E+03  EK= 0.96545E+01 SP= -.11E+02 SK= 0.41E-02
   1303 T=   589. E= -.23362655E+03 F= -.23190422E+03 E0= -.23190422E+03  EK= 0.96688E+01 SP= -.11E+02 SK= 0.49E-02
   1304 T=   591. E= -.23362719E+03 F= -.23188238E+03 E0= -.23188238E+03  EK= 0.96961E+01 SP= -.11E+02 SK= 0.56E-02
   1305 T=   593. E= -.23362802E+03 F= -.23186119E+03 E0= -.23186119E+03  EK= 0.97273E+01 SP= -.12E+02 SK= 0.63E-02
   1306 T=   594. E= -.23362896E+03 F= -.23182975E+03 E0= -.23182975E+03  EK= 0.97508E+01 SP= -.12E+02 SK= 0.68E-02
   1307 T=   594. E= -.23362969E+03 F= -.23177677E+03 E0= -.23177677E+03  EK= 0.97551E+01 SP= -.12E+02 SK= 0.72E-02
   1308 T=   593. E= -.23363008E+03 F= -.23169381E+03 E0= -.23169381E+03  EK= 0.97316E+01 SP= -.12E+02 SK= 0.77E-02
   1309 T=   590. E= -.23363008E+03 F= -.23157759E+03 E0= -.23157759E+03  EK= 0.96774E+01 SP= -.12E+02 SK= 0.85E-02
   1310 T=   585. E= -.23362969E+03 F= -.23143077E+03 E0= -.23143077E+03  EK= 0.95963E+01 SP= -.12E+02 SK= 0.98E-02
   1311 T=   579. E= -.23362900E+03 F= -.23126170E+03 E0= -.23126170E+03  EK= 0.94982E+01 SP= -.12E+02 SK= 0.12E-01
   1312 T=   572. E= -.23362819E+03 F= -.23108329E+03 E0= -.23108329E+03  EK= 0.93981E+01 SP= -.12E+02 SK= 0.15E-01
   1313 T=   567. E= -.23362744E+03 F= -.23091041E+03 E0= -.23091041E+03  EK= 0.93127E+01 SP= -.12E+02 SK= 0.19E-01
   1314 T=   564. E= -.23362686E+03 F= -.23075686E+03 E0= -.23075686E+03  EK= 0.92578E+01 SP= -.12E+02 SK= 0.25E-01
   1315 T=   563. E= -.23362647E+03 F= -.23063379E+03 E0= -.23063379E+03  EK= 0.92460E+01 SP= -.12E+02 SK= 0.32E-01
   1316 T=   566. E= -.23362620E+03 F= -.23054933E+03 E0= -.23054933E+03  EK= 0.92863E+01 SP= -.12E+02 SK= 0.40E-01
   1317 T=   572. E= -.23362617E+03 F= -.23050888E+03 E0= -.23050888E+03  EK= 0.93839E+01 SP= -.13E+02 SK= 0.47E-01
   1318 T=   581. E= -.23362636E+03 F= -.23051407E+03 E0= -.23051407E+03  EK= 0.95393E+01 SP= -.13E+02 SK= 0.53E-01
   1319 T=   594. E= -.23362683E+03 F= -.23056285E+03 E0= -.23056285E+03  EK= 0.97478E+01 SP= -.13E+02 SK= 0.57E-01
   1320 T=   609. E= -.23362753E+03 F= -.23064901E+03 E0= -.23064901E+03  EK= 0.99993E+01 SP= -.13E+02 SK= 0.56E-01
   1321 T=   626. E= -.23362836E+03 F= -.23076291E+03 E0= -.23076291E+03  EK= 0.10278E+02 SP= -.13E+02 SK= 0.51E-01
   1322 T=   644. E= -.23362929E+03 F= -.23089358E+03 E0= -.23089358E+03  EK= 0.10567E+02 SP= -.13E+02 SK= 0.42E-01
   1323 T=   661. E= -.23363004E+03 F= -.23103022E+03 E0= -.23103022E+03  EK= 0.10846E+02 SP= -.13E+02 SK= 0.30E-01
   1324 T=   676. E= -.23363082E+03 F= -.23116357E+03 E0= -.23116357E+03  EK= 0.11098E+02 SP= -.14E+02 SK= 0.17E-01
   1325 T=   689. E= -.23363148E+03 F= -.23128488E+03 E0= -.23128488E+03  EK= 0.11304E+02 SP= -.14E+02 SK= 0.69E-02
   1326 T=   697. E= -.23363198E+03 F= -.23138650E+03 E0= -.23138650E+03  EK= 0.11450E+02 SP= -.14E+02 SK= 0.77E-03
   1327 T=   702. E= -.23363224E+03 F= -.23146197E+03 E0= -.23146197E+03  EK= 0.11524E+02 SP= -.14E+02 SK= 0.99E-03
   1328 T=   702. E= -.23363216E+03 F= -.23150679E+03 E0= -.23150679E+03  EK= 0.11518E+02 SP= -.14E+02 SK= 0.85E-02
   1329 T=   696. E= -.23363195E+03 F= -.23151881E+03 E0= -.23151881E+03  EK= 0.11431E+02 SP= -.14E+02 SK= 0.23E-01
   1330 T=   686. E= -.23363165E+03 F= -.23149669E+03 E0= -.23149669E+03  EK= 0.11266E+02 SP= -.13E+02 SK= 0.42E-01
   1331 T=   672. E= -.23363135E+03 F= -.23143904E+03 E0= -.23143904E+03  EK= 0.11027E+02 SP= -.13E+02 SK= 0.64E-01
   1332 T=   653. E= -.23363080E+03 F= -.23134443E+03 E0= -.23134443E+03  EK= 0.10724E+02 SP= -.13E+02 SK= 0.84E-01
   1333 T=   632. E= -.23362985E+03 F= -.23121470E+03 E0= -.23121470E+03  EK= 0.10368E+02 SP= -.13E+02 SK= 0.10E+00
   1334 T=   608. E= -.23362878E+03 F= -.23105691E+03 E0= -.23105691E+03  EK= 0.99789E+01 SP= -.13E+02 SK= 0.11E+00
   1335 T=   583. E= -.23362763E+03 F= -.23088246E+03 E0= -.23088246E+03  EK= 0.95786E+01 SP= -.12E+02 SK= 0.11E+00
   1336 T=   560. E= -.23362671E+03 F= -.23070598E+03 E0= -.23070598E+03  EK= 0.91912E+01 SP= -.12E+02 SK= 0.96E-01
   1337 T=   538. E= -.23362599E+03 F= -.23054207E+03 E0= -.23054207E+03  EK= 0.88390E+01 SP= -.12E+02 SK= 0.79E-01
   1338 T=   520. E= -.23362564E+03 F= -.23040333E+03 E0= -.23040333E+03  EK= 0.85400E+01 SP= -.12E+02 SK= 0.58E-01
   1339 T=   506. E= -.23362541E+03 F= -.23029887E+03 E0= -.23029887E+03  EK= 0.83073E+01 SP= -.12E+02 SK= 0.36E-01
   1340 T=   496. E= -.23362522E+03 F= -.23023566E+03 E0= -.23023566E+03  EK= 0.81501E+01 SP= -.12E+02 SK= 0.18E-01
   1341 T=   492. E= -.23362502E+03 F= -.23021965E+03 E0= -.23021965E+03  EK= 0.80756E+01 SP= -.11E+02 SK= 0.51E-02
   1342 T=   493. E= -.23362491E+03 F= -.23025557E+03 E0= -.23025557E+03  EK= 0.80886E+01 SP= -.11E+02 SK= 0.81E-04
   1343 T=   499. E= -.23362479E+03 F= -.23034614E+03 E0= -.23034614E+03  EK= 0.81916E+01 SP= -.11E+02 SK= 0.26E-02
   1344 T=   511. E= -.23362490E+03 F= -.23049170E+03 E0= -.23049170E+03  EK= 0.83834E+01 SP= -.12E+02 SK= 0.11E-01
   1345 T=   527. E= -.23362535E+03 F= -.23068786E+03 E0= -.23068786E+03  EK= 0.86576E+01 SP= -.12E+02 SK= 0.24E-01
   1346 T=   548. E= -.23362602E+03 F= -.23092498E+03 E0= -.23092498E+03  EK= 0.90014E+01 SP= -.12E+02 SK= 0.36E-01
   1347 T=   572. E= -.23362682E+03 F= -.23119023E+03 E0= -.23119023E+03  EK= 0.93967E+01 SP= -.12E+02 SK= 0.45E-01
   1348 T=   598. E= -.23362779E+03 F= -.23146935E+03 E0= -.23146935E+03  EK= 0.98220E+01 SP= -.12E+02 SK= 0.48E-01
   1349 T=   625. E= -.23362904E+03 F= -.23174694E+03 E0= -.23174694E+03  EK= 0.10252E+02 SP= -.12E+02 SK= 0.45E-01
   1350 T=   649. E= -.23363052E+03 F= -.23200622E+03 E0= -.23200622E+03  EK= 0.10659E+02 SP= -.12E+02 SK= 0.36E-01
   1351 T=   671. E= -.23363204E+03 F= -.23222956E+03 E0= -.23222956E+03  EK= 0.11014E+02 SP= -.12E+02 SK= 0.24E-01
   1352 T=   688. E= -.23363323E+03 F= -.23240025E+03 E0= -.23240025E+03  EK= 0.11286E+02 SP= -.13E+02 SK= 0.11E-01
   1353 T=   698. E= -.23363378E+03 F= -.23250616E+03 E0= -.23250616E+03  EK= 0.11455E+02 SP= -.13E+02 SK= 0.26E-02
   1354 T=   701. E= -.23363362E+03 F= -.23254272E+03 E0= -.23254272E+03  EK= 0.11509E+02 SP= -.13E+02 SK= 0.71E-04
   1355 T=   697. E= -.23363301E+03 F= -.23251276E+03 E0= -.23251276E+03  EK= 0.11449E+02 SP= -.13E+02 SK= 0.46E-02
   1356 T=   687. E= -.23363203E+03 F= -.23242361E+03 E0= -.23242361E+03  EK= 0.11284E+02 SP= -.13E+02 SK= 0.15E-01
   1357 T=   672. E= -.23363074E+03 F= -.23228593E+03 E0= -.23228593E+03  EK= 0.11031E+02 SP= -.12E+02 SK= 0.29E-01
   1358 T=   653. E= -.23362928E+03 F= -.23211339E+03 E0= -.23211339E+03  EK= 0.10714E+02 SP= -.12E+02 SK= 0.43E-01
   1359 T=   631. E= -.23362776E+03 F= -.23192253E+03 E0= -.23192253E+03  EK= 0.10360E+02 SP= -.12E+02 SK= 0.54E-01
   1360 T=   609. E= -.23362645E+03 F= -.23173151E+03 E0= -.23173151E+03  EK= 0.99975E+01 SP= -.12E+02 SK= 0.60E-01
   1361 T=   588. E= -.23362546E+03 F= -.23155736E+03 E0= -.23155736E+03  EK= 0.96536E+01 SP= -.12E+02 SK= 0.60E-01
   1362 T=   570. E= -.23362504E+03 F= -.23141357E+03 E0= -.23141357E+03  EK= 0.93493E+01 SP= -.12E+02 SK= 0.54E-01
   1363 T=   554. E= -.23362505E+03 F= -.23130715E+03 E0= -.23130715E+03  EK= 0.90978E+01 SP= -.11E+02 SK= 0.45E-01
   1364 T=   542. E= -.23362536E+03 F= -.23123899E+03 E0= -.23123899E+03  EK= 0.89042E+01 SP= -.11E+02 SK= 0.33E-01
   1365 T=   534. E= -.23362575E+03 F= -.23120589E+03 E0= -.23120589E+03  EK= 0.87683E+01 SP= -.11E+02 SK= 0.21E-01
   1366 T=   529. E= -.23362609E+03 F= -.23120295E+03 E0= -.23120295E+03  EK= 0.86871E+01 SP= -.11E+02 SK= 0.11E-01
   1367 T=   527. E= -.23362642E+03 F= -.23122463E+03 E0= -.23122463E+03  EK= 0.86558E+01 SP= -.11E+02 SK= 0.42E-02
   1368 T=   528. E= -.23362664E+03 F= -.23126546E+03 E0= -.23126546E+03  EK= 0.86694E+01 SP= -.11E+02 SK= 0.54E-03
   1369 T=   531. E= -.23362688E+03 F= -.23132060E+03 E0= -.23132060E+03  EK= 0.87224E+01 SP= -.11E+02 SK= 0.30E-03
   1370 T=   537. E= -.23362697E+03 F= -.23138560E+03 E0= -.23138560E+03  EK= 0.88098E+01 SP= -.11E+02 SK= 0.30E-02
   1371 T=   544. E= -.23362695E+03 F= -.23145781E+03 E0= -.23145781E+03  EK= 0.89274E+01 SP= -.11E+02 SK= 0.80E-02
   1372 T=   553. E= -.23362689E+03 F= -.23153608E+03 E0= -.23153608E+03  EK= 0.90722E+01 SP= -.11E+02 SK= 0.14E-01
   1373 T=   563. E= -.23362685E+03 F= -.23162006E+03 E0= -.23162006E+03  EK= 0.92413E+01 SP= -.11E+02 SK= 0.20E-01
   1374 T=   574. E= -.23362704E+03 F= -.23170879E+03 E0= -.23170879E+03  EK= 0.94304E+01 SP= -.11E+02 SK= 0.26E-01
   1375 T=   587. E= -.23362738E+03 F= -.23179919E+03 E0= -.23179919E+03  EK= 0.96328E+01 SP= -.11E+02 SK= 0.29E-01
   1376 T=   599. E= -.23362795E+03 F= -.23188592E+03 E0= -.23188592E+03  EK= 0.98385E+01 SP= -.12E+02 SK= 0.31E-01
   1377 T=   611. E= -.23362859E+03 F= -.23196136E+03 E0= -.23196136E+03  EK= 0.10035E+02 SP= -.12E+02 SK= 0.29E-01
   1378 T=   622. E= -.23362923E+03 F= -.23201758E+03 E0= -.23201758E+03  EK= 0.10210E+02 SP= -.12E+02 SK= 0.26E-01
   1379 T=   631. E= -.23362967E+03 F= -.23204756E+03 E0= -.23204756E+03  EK= 0.10350E+02 SP= -.12E+02 SK= 0.21E-01
   1380 T=   636. E= -.23362990E+03 F= -.23204703E+03 E0= -.23204703E+03  EK= 0.10449E+02 SP= -.12E+02 SK= 0.15E-01
   1381 T=   640. E= -.23362980E+03 F= -.23201545E+03 E0= -.23201545E+03  EK= 0.10501E+02 SP= -.12E+02 SK= 0.10E-01
   1382 T=   640. E= -.23362932E+03 F= -.23195661E+03 E0= -.23195661E+03  EK= 0.10508E+02 SP= -.12E+02 SK= 0.59E-02
   1383 T=   638. E= -.23362872E+03 F= -.23187852E+03 E0= -.23187852E+03  EK= 0.10479E+02 SP= -.12E+02 SK= 0.28E-02
   1384 T=   635. E= -.23362803E+03 F= -.23179116E+03 E0= -.23179116E+03  EK= 0.10423E+02 SP= -.12E+02 SK= 0.94E-03
   1385 T=   631. E= -.23362746E+03 F= -.23170503E+03 E0= -.23170503E+03  EK= 0.10353E+02 SP= -.12E+02 SK= 0.12E-03
   1386 T=   626. E= -.23362705E+03 F= -.23162901E+03 E0= -.23162901E+03  EK= 0.10279E+02 SP= -.12E+02 SK= 0.40E-04
   1387 T=   622. E= -.23362680E+03 F= -.23156930E+03 E0= -.23156930E+03  EK= 0.10210E+02 SP= -.12E+02 SK= 0.44E-03
   1388 T=   618. E= -.23362677E+03 F= -.23152901E+03 E0= -.23152901E+03  EK= 0.10150E+02 SP= -.12E+02 SK= 0.11E-02
   1389 T=   615. E= -.23362696E+03 F= -.23150778E+03 E0= -.23150778E+03  EK= 0.10101E+02 SP= -.12E+02 SK= 0.19E-02
   1390 T=   613. E= -.23362726E+03 F= -.23150223E+03 E0= -.23150223E+03  EK= 0.10061E+02 SP= -.12E+02 SK= 0.27E-02
   1391 T=   611. E= -.23362751E+03 F= -.23150699E+03 E0= -.23150699E+03  EK= 0.10025E+02 SP= -.12E+02 SK= 0.36E-02
   1392 T=   609. E= -.23362780E+03 F= -.23151645E+03 E0= -.23151645E+03  EK= 0.99897E+01 SP= -.12E+02 SK= 0.44E-02
   1393 T=   606. E= -.23362808E+03 F= -.23152483E+03 E0= -.23152483E+03  EK= 0.99493E+01 SP= -.12E+02 SK= 0.51E-02
   1394 T=   603. E= -.23362831E+03 F= -.23152667E+03 E0= -.23152667E+03  EK= 0.98997E+01 SP= -.12E+02 SK= 0.55E-02
   1395 T=   599. E= -.23362850E+03 F= -.23151723E+03 E0= -.23151723E+03  EK= 0.98375E+01 SP= -.12E+02 SK= 0.58E-02
   1396 T=   595. E= -.23362857E+03 F= -.23149291E+03 E0= -.23149291E+03  EK= 0.97607E+01 SP= -.12E+02 SK= 0.56E-02
   1397 T=   589. E= -.23362848E+03 F= -.23145227E+03 E0= -.23145227E+03  EK= 0.96700E+01 SP= -.12E+02 SK= 0.50E-02
   1398 T=   583. E= -.23362825E+03 F= -.23139651E+03 E0= -.23139651E+03  EK= 0.95687E+01 SP= -.12E+02 SK= 0.40E-02
   1399 T=   576. E= -.23362783E+03 F= -.23132944E+03 E0= -.23132944E+03  EK= 0.94631E+01 SP= -.12E+02 SK= 0.27E-02
   1400 T=   570. E= -.23362740E+03 F= -.23125755E+03 E0= -.23125755E+03  EK= 0.93618E+01 SP= -.12E+02 SK= 0.14E-02
   1401 T=   565. E= -.23362692E+03 F= -.23118858E+03 E0= -.23118858E+03  EK= 0.92748E+01 SP= -.12E+02 SK= 0.36E-03
   1402 T=   561. E= -.23362648E+03 F= -.23113079E+03 E0= -.23113079E+03  EK= 0.92119E+01 SP= -.12E+02 SK= 0.44E-05
   1403 T=   559. E= -.23362610E+03 F= -.23109190E+03 E0= -.23109190E+03  EK= 0.91822E+01 SP= -.12E+02 SK= 0.62E-03
   1404 T=   560. E= -.23362581E+03 F= -.23107830E+03 E0= -.23107830E+03  EK= 0.91926E+01 SP= -.12E+02 SK= 0.23E-02
   1405 T=   563. E= -.23362570E+03 F= -.23109432E+03 E0= -.23109432E+03  EK= 0.92472E+01 SP= -.12E+02 SK= 0.49E-02
   1406 T=   569. E= -.23362581E+03 F= -.23114137E+03 E0= -.23114137E+03  EK= 0.93465E+01 SP= -.12E+02 SK= 0.79E-02
   1407 T=   578. E= -.23362620E+03 F= -.23121718E+03 E0= -.23121718E+03  EK= 0.94864E+01 SP= -.12E+02 SK= 0.11E-01
   1408 T=   588. E= -.23362681E+03 F= -.23131527E+03 E0= -.23131527E+03  EK= 0.96576E+01 SP= -.12E+02 SK= 0.13E-01
   1409 T=   600. E= -.23362760E+03 F= -.23142603E+03 E0= -.23142603E+03  EK= 0.98470E+01 SP= -.12E+02 SK= 0.14E-01
   1410 T=   612. E= -.23362844E+03 F= -.23153790E+03 E0= -.23153790E+03  EK= 0.10039E+02 SP= -.12E+02 SK= 0.13E-01
   1411 T=   622. E= -.23362923E+03 F= -.23163891E+03 E0= -.23163891E+03  EK= 0.10216E+02 SP= -.12E+02 SK= 0.10E-01
   1412 T=   631. E= -.23362975E+03 F= -.23171846E+03 E0= -.23171846E+03  EK= 0.10363E+02 SP= -.12E+02 SK= 0.72E-02
   1413 T=   638. E= -.23362997E+03 F= -.23176946E+03 E0= -.23176946E+03  EK= 0.10469E+02 SP= -.12E+02 SK= 0.41E-02
   1414 T=   641. E= -.23362987E+03 F= -.23178937E+03 E0= -.23178937E+03  EK= 0.10528E+02 SP= -.12E+02 SK= 0.16E-02
   1415 T=   642. E= -.23362944E+03 F= -.23178002E+03 E0= -.23178002E+03  EK= 0.10539E+02 SP= -.12E+02 SK= 0.22E-03
   1416 T=   640. E= -.23362897E+03 F= -.23174685E+03 E0= -.23174685E+03  EK= 0.10508E+02 SP= -.12E+02 SK= 0.97E-04
   1417 T=   636. E= -.23362846E+03 F= -.23169652E+03 E0= -.23169652E+03  EK= 0.10443E+02 SP= -.12E+02 SK= 0.11E-02
   1418 T=   630. E= -.23362811E+03 F= -.23163542E+03 E0= -.23163542E+03  EK= 0.10350E+02 SP= -.12E+02 SK= 0.28E-02
   1419 T=   624. E= -.23362799E+03 F= -.23156773E+03 E0= -.23156773E+03  EK= 0.10238E+02 SP= -.12E+02 SK= 0.48E-02
   1420 T=   616. E= -.23362802E+03 F= -.23149462E+03 E0= -.23149462E+03  EK= 0.10110E+02 SP= -.12E+02 SK= 0.67E-02
   1421 T=   607. E= -.23362818E+03 F= -.23141467E+03 E0= -.23141467E+03  EK= 0.99692E+01 SP= -.12E+02 SK= 0.80E-02
   1422 T=   598. E= -.23362835E+03 F= -.23132458E+03 E0= -.23132458E+03  EK= 0.98156E+01 SP= -.12E+02 SK= 0.84E-02
   1423 T=   588. E= -.23362848E+03 F= -.23122105E+03 E0= -.23122105E+03  EK= 0.96500E+01 SP= -.12E+02 SK= 0.77E-02
   1424 T=   577. E= -.23362850E+03 F= -.23110218E+03 E0= -.23110218E+03  EK= 0.94746E+01 SP= -.12E+02 SK= 0.62E-02
   1425 T=   566. E= -.23362822E+03 F= -.23096827E+03 E0= -.23096827E+03  EK= 0.92940E+01 SP= -.12E+02 SK= 0.39E-02
   1426 T=   555. E= -.23362788E+03 F= -.23082314E+03 E0= -.23082314E+03  EK= 0.91156E+01 SP= -.12E+02 SK= 0.16E-02
   1427 T=   545. E= -.23362746E+03 F= -.23067272E+03 E0= -.23067272E+03  EK= 0.89488E+01 SP= -.12E+02 SK= 0.14E-03
   1428 T=   536. E= -.23362694E+03 F= -.23052477E+03 E0= -.23052477E+03  EK= 0.88046E+01 SP= -.12E+02 SK= 0.49E-03
   1429 T=   530. E= -.23362649E+03 F= -.23038825E+03 E0= -.23038825E+03  EK= 0.86941E+01 SP= -.12E+02 SK= 0.37E-02
   1430 T=   526. E= -.23362608E+03 F= -.23027163E+03 E0= -.23027163E+03  EK= 0.86280E+01 SP= -.12E+02 SK= 0.11E-01
   1431 T=   525. E= -.23362575E+03 F= -.23018224E+03 E0= -.23018224E+03  EK= 0.86147E+01 SP= -.12E+02 SK= 0.21E-01
   1432 T=   528. E= -.23362555E+03 F= -.23012557E+03 E0= -.23012557E+03  EK= 0.86605E+01 SP= -.12E+02 SK= 0.36E-01
   1433 T=   534. E= -.23362557E+03 F= -.23010424E+03 E0= -.23010424E+03  EK= 0.87678E+01 SP= -.12E+02 SK= 0.52E-01
   1434 T=   544. E= -.23362588E+03 F= -.23011676E+03 E0= -.23011676E+03  EK= 0.89343E+01 SP= -.13E+02 SK= 0.69E-01
   1435 T=   557. E= -.23362652E+03 F= -.23015710E+03 E0= -.23015710E+03  EK= 0.91519E+01 SP= -.13E+02 SK= 0.85E-01
   1436 T=   573. E= -.23362734E+03 F= -.23021527E+03 E0= -.23021527E+03  EK= 0.94077E+01 SP= -.13E+02 SK= 0.97E-01
   1437 T=   590. E= -.23362841E+03 F= -.23027885E+03 E0= -.23027885E+03  EK= 0.96845E+01 SP= -.13E+02 SK= 0.10E+00
   1438 T=   607. E= -.23362942E+03 F= -.23033432E+03 E0= -.23033432E+03  EK= 0.99632E+01 SP= -.13E+02 SK= 0.10E+00
   1439 T=   623. E= -.23363032E+03 F= -.23036985E+03 E0= -.23036985E+03  EK= 0.10225E+02 SP= -.14E+02 SK= 0.98E-01
   1440 T=   637. E= -.23363099E+03 F= -.23037657E+03 E0= -.23037657E+03  EK= 0.10454E+02 SP= -.14E+02 SK= 0.86E-01
   1441 T=   648. E= -.23363129E+03 F= -.23035012E+03 E0= -.23035012E+03  EK= 0.10637E+02 SP= -.14E+02 SK= 0.72E-01
   1442 T=   656. E= -.23363111E+03 F= -.23029186E+03 E0= -.23029186E+03  EK= 0.10771E+02 SP= -.14E+02 SK= 0.56E-01
   1443 T=   661. E= -.23363066E+03 F= -.23020950E+03 E0= -.23020950E+03  EK= 0.10858E+02 SP= -.14E+02 SK= 0.41E-01
   1444 T=   664. E= -.23363004E+03 F= -.23011460E+03 E0= -.23011460E+03  EK= 0.10905E+02 SP= -.14E+02 SK= 0.27E-01
       N       E                     dE             d eps       ncg     rms          rms(c)
RMM:   1    -0.213798791282E+03    0.97860E+01   -0.17156E+03   129   0.570E+01
RMM:   2    -0.232273086393E+03   -0.18474E+02   -0.15031E+02   129   0.172E+01
RMM:   3    -0.234674635630E+03   -0.24015E+01   -0.19602E+01   129   0.603E+00
RMM:   4    -0.235163477846E+03   -0.48884E+00   -0.44995E+00   270   0.258E+00
RMM:   5    -0.235293079201E+03   -0.12960E+00   -0.11959E+00   276   0.114E+00    0.887E+00
RMM:   6    -0.223428983909E+03    0.11864E+02   -0.16607E+01   288   0.300E+00    0.395E+00
RMM:   7    -0.222210324029E+03    0.12187E+01   -0.24365E+00   258   0.158E+00    0.198E+00
RMM:   8    -0.222065293379E+03    0.14503E+00   -0.10189E+00   258   0.956E-01    0.899E-01
RMM:   9    -0.222055747971E+03    0.95454E-02   -0.16014E-01   261   0.504E-01    0.426E-01
RMM:  10    -0.222057277623E+03   -0.15297E-02   -0.53172E-02   261   0.268E-01    0.175E-01
RMM:  11    -0.222058118094E+03   -0.84047E-03   -0.11903E-02   236   0.133E-01
   1445 T=   666. E= -.22566062E+03 F= -.22205812E+03 E0= -.22202713E+03  EK= 0.10930E+02 SP= -.15E+02 SK= 0.16E-01
   1446 T=   667. E= -.23289286E+03 F= -.22922550E+03 E0= -.22922550E+03  EK= 0.10947E+02 SP= -.15E+02 SK= 0.74E-02
   1447 T=   667. E= -.23289240E+03 F= -.22917249E+03 E0= -.22917249E+03  EK= 0.10946E+02 SP= -.15E+02 SK= 0.22E-02
   1448 T=   667. E= -.23289209E+03 F= -.22915013E+03 E0= -.22915013E+03  EK= 0.10945E+02 SP= -.15E+02 SK= 0.47E-04
   1449 T=   667. E= -.23289211E+03 F= -.22916306E+03 E0= -.22916306E+03  EK= 0.10948E+02 SP= -.15E+02 SK= 0.11E-02
   1450 T=   667. E= -.23289238E+03 F= -.22921112E+03 E0= -.22921112E+03  EK= 0.10955E+02 SP= -.15E+02 SK= 0.53E-02
   1451 T=   668. E= -.23289288E+03 F= -.22928950E+03 E0= -.22928950E+03  EK= 0.10961E+02 SP= -.15E+02 SK= 0.13E-01
   1452 T=   667. E= -.23289358E+03 F= -.22938915E+03 E0= -.22938915E+03  EK= 0.10956E+02 SP= -.14E+02 SK= 0.23E-01
   1453 T=   666. E= -.23289434E+03 F= -.22949726E+03 E0= -.22949726E+03  EK= 0.10930E+02 SP= -.14E+02 SK= 0.37E-01
   1454 T=   662. E= -.23289494E+03 F= -.22959927E+03 E0= -.22959927E+03  EK= 0.10868E+02 SP= -.14E+02 SK= 0.53E-01
   1455 T=   655. E= -.23289519E+03 F= -.22968187E+03 E0= -.22968187E+03  EK= 0.10760E+02 SP= -.14E+02 SK= 0.71E-01
   1456 T=   646. E= -.23289500E+03 F= -.22973546E+03 E0= -.22973546E+03  EK= 0.10600E+02 SP= -.14E+02 SK= 0.88E-01
   1457 T=   633. E= -.23289457E+03 F= -.22975553E+03 E0= -.22975553E+03  EK= 0.10391E+02 SP= -.14E+02 SK= 0.10E+00
   1458 T=   618. E= -.23289399E+03 F= -.22974180E+03 E0= -.22974180E+03  EK= 0.10139E+02 SP= -.13E+02 SK= 0.11E+00
   1459 T=   600. E= -.23289337E+03 F= -.22969713E+03 E0= -.22969713E+03  EK= 0.98547E+01 SP= -.13E+02 SK= 0.12E+00
   1460 T=   582. E= -.23289283E+03 F= -.22962640E+03 E0= -.22962640E+03  EK= 0.95507E+01 SP= -.13E+02 SK= 0.11E+00
   1461 T=   563. E= -.23289220E+03 F= -.22953587E+03 E0= -.22953587E+03  EK= 0.92410E+01 SP= -.13E+02 SK= 0.10E+00
   1462 T=   545. E= -.23289164E+03 F= -.22943378E+03 E0= -.22943378E+03  EK= 0.89404E+01 SP= -.12E+02 SK= 0.87E-01
   1463 T=   528. E= -.23289104E+03 F= -.22932978E+03 E0= -.22932978E+03  EK= 0.86640E+01 SP= -.12E+02 SK= 0.67E-01
   1464 T=   513. E= -.23289034E+03 F= -.22923539E+03 E0= -.22923539E+03  EK= 0.84273E+01 SP= -.12E+02 SK= 0.45E-01
   1465 T=   502. E= -.23288972E+03 F= -.22916334E+03 E0= -.22916334E+03  EK= 0.82458E+01 SP= -.12E+02 SK= 0.26E-01
   1466 T=   495. E= -.23288921E+03 F= -.22912528E+03 E0= -.22912528E+03  EK= 0.81325E+01 SP= -.12E+02 SK= 0.10E-01
   1467 T=   493. E= -.23288891E+03 F= -.22913012E+03 E0= -.22913012E+03  EK= 0.80972E+01 SP= -.12E+02 SK= 0.16E-02
   1468 T=   496. E= -.23288877E+03 F= -.22918293E+03 E0= -.22918293E+03  EK= 0.81448E+01 SP= -.12E+02 SK= 0.46E-03
   1469 T=   504. E= -.23288883E+03 F= -.22928474E+03 E0= -.22928474E+03  EK= 0.82758E+01 SP= -.12E+02 SK= 0.63E-02
   1470 T=   517. E= -.23288908E+03 F= -.22943236E+03 E0= -.22943236E+03  EK= 0.84857E+01 SP= -.12E+02 SK= 0.17E-01
   1471 T=   534. E= -.23288966E+03 F= -.22961847E+03 E0= -.22961847E+03  EK= 0.87646E+01 SP= -.12E+02 SK= 0.30E-01
   1472 T=   554. E= -.23289061E+03 F= -.22983090E+03 E0= -.22983090E+03  EK= 0.90967E+01 SP= -.12E+02 SK= 0.43E-01
   1473 T=   576. E= -.23289189E+03 F= -.23005306E+03 E0= -.23005306E+03  EK= 0.94599E+01 SP= -.12E+02 SK= 0.51E-01
   1474 T=   599. E= -.23289339E+03 F= -.23026512E+03 E0= -.23026512E+03  EK= 0.98276E+01 SP= -.13E+02 SK= 0.54E-01
   1475 T=   620. E= -.23289484E+03 F= -.23044644E+03 E0= -.23044644E+03  EK= 0.10171E+02 SP= -.13E+02 SK= 0.51E-01
   1476 T=   637. E= -.23289603E+03 F= -.23057906E+03 E0= -.23057906E+03  EK= 0.10462E+02 SP= -.13E+02 SK= 0.44E-01
   1477 T=   651. E= -.23289670E+03 F= -.23065046E+03 E0= -.23065046E+03  EK= 0.10679E+02 SP= -.13E+02 SK= 0.33E-01
   1478 T=   659. E= -.23289694E+03 F= -.23065562E+03 E0= -.23065562E+03  EK= 0.10810E+02 SP= -.13E+02 SK= 0.22E-01
   1479 T=   661. E= -.23289667E+03 F= -.23059617E+03 E0= -.23059617E+03  EK= 0.10852E+02 SP= -.13E+02 SK= 0.13E-01
   1480 T=   658. E= -.23289605E+03 F= -.23047970E+03 E0= -.23047970E+03  EK= 0.10809E+02 SP= -.13E+02 SK= 0.59E-02
   1481 T=   651. E= -.23289523E+03 F= -.23031816E+03 E0= -.23031816E+03  EK= 0.10695E+02 SP= -.13E+02 SK= 0.19E-02
   1482 T=   641. E= -.23289407E+03 F= -.23012706E+03 E0= -.23012706E+03  EK= 0.10528E+02 SP= -.13E+02 SK= 0.25E-03
   1483 T=   629. E= -.23289280E+03 F= -.22992519E+03 E0= -.22992519E+03  EK= 0.10331E+02 SP= -.13E+02 SK= 0.30E-04
   1484 T=   617. E= -.23289161E+03 F= -.22973235E+03 E0= -.22973235E+03  EK= 0.10130E+02 SP= -.13E+02 SK= 0.39E-03
   1485 T=   606. E= -.23289069E+03 F= -.22956699E+03 E0= -.22956699E+03  EK= 0.99490E+01 SP= -.13E+02 SK= 0.73E-03
   1486 T=   597. E= -.23289014E+03 F= -.22944370E+03 E0= -.22944370E+03  EK= 0.98069E+01 SP= -.13E+02 SK= 0.80E-03
   1487 T=   592. E= -.23288998E+03 F= -.22937172E+03 E0= -.22937172E+03  EK= 0.97164E+01 SP= -.13E+02 SK= 0.66E-03
   1488 T=   590. E= -.23289010E+03 F= -.22935432E+03 E0= -.22935432E+03  EK= 0.96830E+01 SP= -.13E+02 SK= 0.43E-03
   1489 T=   591. E= -.23289049E+03 F= -.22938974E+03 E0= -.22938974E+03  EK= 0.97055E+01 SP= -.13E+02 SK= 0.24E-03
   1490 T=   596. E= -.23289116E+03 F= -.22947171E+03 E0= -.22947171E+03  EK= 0.97773E+01 SP= -.13E+02 SK= 0.15E-03
   1491 T=   602. E= -.23289204E+03 F= -.22958949E+03 E0= -.22958949E+03  EK= 0.98857E+01 SP= -.13E+02 SK= 0.15E-03
   1492 T=   610. E= -.23289299E+03 F= -.22972934E+03 E0= -.22972934E+03  EK= 0.10015E+02 SP= -.13E+02 SK= 0.27E-03
   1493 T=   618. E= -.23289389E+03 F= -.22987651E+03 E0= -.22987651E+03  EK= 0.10146E+02 SP= -.13E+02 SK= 0.64E-03
   1494 T=   625. E= -.23289473E+03 F= -.23001621E+03 E0= -.23001621E+03  EK= 0.10262E+02 SP= -.13E+02 SK= 0.15E-02
   1495 T=   630. E= -.23289535E+03 F= -.23013481E+03 E0= -.23013481E+03  EK= 0.10345E+02 SP= -.13E+02 SK= 0.31E-02
   1496 T=   633. E= -.23289569E+03 F= -.23022154E+03 E0= -.23022154E+03  EK= 0.10383E+02 SP= -.13E+02 SK= 0.56E-02
   1497 T=   632. E= -.23289563E+03 F= -.23026960E+03 E0= -.23026960E+03  EK= 0.10369E+02 SP= -.13E+02 SK= 0.90E-02
   1498 T=   627. E= -.23289530E+03 F= -.23027726E+03 E0= -.23027726E+03  EK= 0.10300E+02 SP= -.13E+02 SK= 0.13E-01
   1499 T=   620. E= -.23289478E+03 F= -.23024672E+03 E0= -.23024672E+03  EK= 0.10183E+02 SP= -.13E+02 SK= 0.16E-01
   1500 T=   611. E= -.23289407E+03 F= -.23018328E+03 E0= -.23018328E+03  EK= 0.10024E+02 SP= -.13E+02 SK= 0.19E-01
   1501 T=   599. E= -.23289326E+03 F= -.23009547E+03 E0= -.23009547E+03  EK= 0.98389E+01 SP= -.13E+02 SK= 0.20E-01
   1502 T=   587. E= -.23289239E+03 F= -.22999407E+03 E0= -.22999407E+03  EK= 0.96415E+01 SP= -.13E+02 SK= 0.19E-01
   1503 T=   576. E= -.23289152E+03 F= -.22989128E+03 E0= -.22989128E+03  EK= 0.94492E+01 SP= -.12E+02 SK= 0.16E-01
   1504 T=   565. E= -.23289066E+03 F= -.22980015E+03 E0= -.22980015E+03  EK= 0.92792E+01 SP= -.12E+02 SK= 0.12E-01
   1505 T=   557. E= -.23288997E+03 F= -.22973372E+03 E0= -.22973372E+03  EK= 0.91478E+01 SP= -.12E+02 SK= 0.80E-02
   1506 T=   552. E= -.23288941E+03 F= -.22970339E+03 E0= -.22970339E+03  EK= 0.90686E+01 SP= -.12E+02 SK= 0.40E-02
   1507 T=   551. E= -.23288917E+03 F= -.22971780E+03 E0= -.22971780E+03  EK= 0.90513E+01 SP= -.12E+02 SK= 0.13E-02
   1508 T=   554. E= -.23288926E+03 F= -.22978103E+03 E0= -.22978103E+03  EK= 0.91002E+01 SP= -.12E+02 SK= 0.75E-04
   1509 T=   561. E= -.23288967E+03 F= -.22989171E+03 E0= -.22989171E+03  EK= 0.92127E+01 SP= -.12E+02 SK= 0.24E-03
   1510 T=   571. E= -.23289047E+03 F= -.23004302E+03 E0= -.23004302E+03  EK= 0.93798E+01 SP= -.12E+02 SK= 0.12E-02
   1511 T=   584. E= -.23289161E+03 F= -.23022242E+03 E0= -.23022242E+03  EK= 0.95857E+01 SP= -.12E+02 SK= 0.22E-02
   1512 T=   598. E= -.23289268E+03 F= -.23041355E+03 E0= -.23041355E+03  EK= 0.98100E+01 SP= -.12E+02 SK= 0.27E-02
   1513 T=   611. E= -.23289353E+03 F= -.23060069E+03 E0= -.23060069E+03  EK= 0.10032E+02 SP= -.12E+02 SK= 0.24E-02
   1514 T=   623. E= -.23289386E+03 F= -.23077223E+03 E0= -.23077223E+03  EK= 0.10234E+02 SP= -.12E+02 SK= 0.14E-02
   1515 T=   634. E= -.23289377E+03 F= -.23092308E+03 E0= -.23092308E+03  EK= 0.10406E+02 SP= -.12E+02 SK= 0.41E-03
   1516 T=   642. E= -.23289334E+03 F= -.23105367E+03 E0= -.23105367E+03  EK= 0.10544E+02 SP= -.12E+02 SK= 0.83E-05
   1517 T=   649. E= -.23289292E+03 F= -.23116851E+03 E0= -.23116851E+03  EK= 0.10647E+02 SP= -.12E+02 SK= 0.91E-03
       N       E                     dE             d eps       ncg     rms          rms(c)
RMM:   1    -0.219929173452E+03    0.21281E+01   -0.12326E+03   129   0.496E+01
RMM:   2    -0.233780267913E+03   -0.13851E+02   -0.11026E+02   129   0.156E+01
RMM:   3    -0.235725218412E+03   -0.19450E+01   -0.17227E+01   129   0.578E+00
RMM:   4    -0.236088076204E+03   -0.36286E+00   -0.33532E+00   259   0.256E+00
RMM:   5    -0.236202886225E+03   -0.11481E+00   -0.11119E+00   269   0.121E+00    0.812E+00
RMM:   6    -0.226572427019E+03    0.96305E+01   -0.19171E+01   303   0.319E+00    0.421E+00
RMM:   7    -0.225174678709E+03    0.13977E+01   -0.24062E+00   258   0.159E+00    0.173E+00
RMM:   8    -0.225063908391E+03    0.11077E+00   -0.66326E-01   258   0.818E-01    0.779E-01
RMM:   9    -0.225056818360E+03    0.70900E-02   -0.10463E-01   260   0.399E-01    0.367E-01
RMM:  10    -0.225055310143E+03    0.15082E-02   -0.31881E-02   264   0.209E-01    0.161E-01
RMM:  11    -0.225055370390E+03   -0.60247E-04   -0.76586E-03   215   0.110E-01
   1518 T=   654. E= -.22665668E+03 F= -.22505537E+03 E0= -.22504229E+03  EK= 0.10735E+02 SP= -.12E+02 SK= 0.37E-02
   1519 T=   658. E= -.23285141E+03 F= -.23137411E+03 E0= -.23137411E+03  EK= 0.10800E+02 SP= -.12E+02 SK= 0.89E-02
   1520 T=   659. E= -.23285124E+03 F= -.23146984E+03 E0= -.23146984E+03  EK= 0.10810E+02 SP= -.12E+02 SK= 0.17E-01
   1521 T=   657. E= -.23285113E+03 F= -.23155956E+03 E0= -.23155956E+03  EK= 0.10788E+02 SP= -.12E+02 SK= 0.27E-01
   1522 T=   654. E= -.23285115E+03 F= -.23164135E+03 E0= -.23164135E+03  EK= 0.10732E+02 SP= -.12E+02 SK= 0.39E-01
   1523 T=   648. E= -.23285115E+03 F= -.23171138E+03 E0= -.23171138E+03  EK= 0.10641E+02 SP= -.12E+02 SK= 0.52E-01
   1524 T=   640. E= -.23285127E+03 F= -.23176484E+03 E0= -.23176484E+03  EK= 0.10514E+02 SP= -.12E+02 SK= 0.64E-01
   1525 T=   630. E= -.23285157E+03 F= -.23179534E+03 E0= -.23179534E+03  EK= 0.10349E+02 SP= -.11E+02 SK= 0.76E-01
   1526 T=   618. E= -.23285195E+03 F= -.23179475E+03 E0= -.23179475E+03  EK= 0.10142E+02 SP= -.11E+02 SK= 0.84E-01
   1527 T=   603. E= -.23285198E+03 F= -.23175456E+03 E0= -.23175456E+03  EK= 0.98929E+01 SP= -.11E+02 SK= 0.88E-01
   1528 T=   585. E= -.23285167E+03 F= -.23167032E+03 E0= -.23167032E+03  EK= 0.96044E+01 SP= -.11E+02 SK= 0.87E-01
   1529 T=   566. E= -.23285099E+03 F= -.23154378E+03 E0= -.23154378E+03  EK= 0.92858E+01 SP= -.11E+02 SK= 0.79E-01
   1530 T=   545. E= -.23285004E+03 F= -.23138355E+03 E0= -.23138355E+03  EK= 0.89530E+01 SP= -.10E+02 SK= 0.65E-01
   1531 T=   526. E= -.23284901E+03 F= -.23120414E+03 E0= -.23120414E+03  EK= 0.86270E+01 SP= -.10E+02 SK= 0.48E-01
   1532 T=   507. E= -.23284796E+03 F= -.23102357E+03 E0= -.23102357E+03  EK= 0.83307E+01 SP= -.10E+02 SK= 0.29E-01
   1533 T=   493. E= -.23284708E+03 F= -.23086080E+03 E0= -.23086080E+03  EK= 0.80866E+01 SP= -.10E+02 SK= 0.13E-01
   1534 T=   482. E= -.23284652E+03 F= -.23073254E+03 E0= -.23073254E+03  EK= 0.79139E+01 SP= -.10E+02 SK= 0.22E-02
   1535 T=   477. E= -.23284616E+03 F= -.23065105E+03 E0= -.23065105E+03  EK= 0.78263E+01 SP= -.10E+02 SK= 0.55E-03
   1536 T=   477. E= -.23284613E+03 F= -.23062312E+03 E0= -.23062312E+03  EK= 0.78311E+01 SP= -.10E+02 SK= 0.90E-02
   1537 T=   483. E= -.23284629E+03 F= -.23064910E+03 E0= -.23064910E+03  EK= 0.79294E+01 SP= -.10E+02 SK= 0.27E-01
   1538 T=   494. E= -.23284668E+03 F= -.23072406E+03 E0= -.23072406E+03  EK= 0.81159E+01 SP= -.10E+02 SK= 0.53E-01
   1539 T=   511. E= -.23284718E+03 F= -.23083864E+03 E0= -.23083864E+03  EK= 0.83806E+01 SP= -.10E+02 SK= 0.82E-01
   1540 T=   531. E= -.23284781E+03 F= -.23098067E+03 E0= -.23098067E+03  EK= 0.87091E+01 SP= -.11E+02 SK= 0.11E+00
   1541 T=   553. E= -.23284850E+03 F= -.23113657E+03 E0= -.23113657E+03  EK= 0.90842E+01 SP= -.11E+02 SK= 0.13E+00
   1542 T=   578. E= -.23284923E+03 F= -.23129336E+03 E0= -.23129336E+03  EK= 0.94874E+01 SP= -.11E+02 SK= 0.15E+00
   1543 T=   603. E= -.23284997E+03 F= -.23143968E+03 E0= -.23143968E+03  EK= 0.98993E+01 SP= -.11E+02 SK= 0.15E+00
   1544 T=   628. E= -.23285072E+03 F= -.23156646E+03 E0= -.23156646E+03  EK= 0.10301E+02 SP= -.12E+02 SK= 0.14E+00
   1545 T=   650. E= -.23285147E+03 F= -.23166690E+03 E0= -.23166690E+03  EK= 0.10675E+02 SP= -.12E+02 SK= 0.13E+00
   1546 T=   670. E= -.23285226E+03 F= -.23173603E+03 E0= -.23173603E+03  EK= 0.11004E+02 SP= -.12E+02 SK= 0.10E+00
   1547 T=   687. E= -.23285302E+03 F= -.23176998E+03 E0= -.23176998E+03  EK= 0.11273E+02 SP= -.12E+02 SK= 0.75E-01
   1548 T=   699. E= -.23285359E+03 F= -.23176600E+03 E0= -.23176600E+03  EK= 0.11467E+02 SP= -.13E+02 SK= 0.48E-01
   1549 T=   705. E= -.23285406E+03 F= -.23172268E+03 E0= -.23172268E+03  EK= 0.11578E+02 SP= -.13E+02 SK= 0.25E-01
   1550 T=   707. E= -.23285428E+03 F= -.23163929E+03 E0= -.23163929E+03  EK= 0.11599E+02 SP= -.13E+02 SK= 0.91E-02
   1551 T=   702. E= -.23285418E+03 F= -.23151643E+03 E0= -.23151643E+03  EK= 0.11529E+02 SP= -.13E+02 SK= 0.11E-02
   1552 T=   693. E= -.23285366E+03 F= -.23135721E+03 E0= -.23135721E+03  EK= 0.11374E+02 SP= -.13E+02 SK= 0.60E-03
   1553 T=   679. E= -.23285281E+03 F= -.23116826E+03 E0= -.23116826E+03  EK= 0.11146E+02 SP= -.13E+02 SK= 0.57E-02
   1554 T=   662. E= -.23285183E+03 F= -.23095920E+03 E0= -.23095920E+03  EK= 0.10862E+02 SP= -.13E+02 SK= 0.14E-01
   1555 T=   642. E= -.23285083E+03 F= -.23074115E+03 E0= -.23074115E+03  EK= 0.10544E+02 SP= -.13E+02 SK= 0.22E-01
   1556 T=   622. E= -.23285002E+03 F= -.23052556E+03 E0= -.23052556E+03  EK= 0.10213E+02 SP= -.13E+02 SK= 0.28E-01
   1557 T=   602. E= -.23284947E+03 F= -.23032229E+03 E0= -.23032229E+03  EK= 0.98877E+01 SP= -.12E+02 SK= 0.31E-01
   1558 T=   584. E= -.23284900E+03 F= -.23013921E+03 E0= -.23013921E+03  EK= 0.95850E+01 SP= -.12E+02 SK= 0.30E-01
   1559 T=   568. E= -.23284885E+03 F= -.22998245E+03 E0= -.22998245E+03  EK= 0.93177E+01 SP= -.12E+02 SK= 0.25E-01
   1560 T=   554. E= -.23284887E+03 F= -.22985539E+03 E0= -.22985539E+03  EK= 0.90946E+01 SP= -.12E+02 SK= 0.18E-01
   1561 T=   543. E= -.23284886E+03 F= -.22975976E+03 E0= -.22975976E+03  EK= 0.89216E+01 SP= -.12E+02 SK= 0.11E-01
   1562 T=   536. E= -.23284891E+03 F= -.22969689E+03 E0= -.22969689E+03  EK= 0.88028E+01 SP= -.12E+02 SK= 0.52E-02
   1563 T=   532. E= -.23284892E+03 F= -.22966756E+03 E0= -.22966756E+03  EK= 0.87406E+01 SP= -.12E+02 SK= 0.11E-02
   1564 T=   532. E= -.23284886E+03 F= -.22967236E+03 E0= -.22967236E+03  EK= 0.87366E+01 SP= -.12E+02 SK= 0.27E-04
   1565 T=   535. E= -.23284897E+03 F= -.22971141E+03 E0= -.22971141E+03  EK= 0.87906E+01 SP= -.12E+02 SK= 0.19E-02
   1566 T=   542. E= -.23284922E+03 F= -.22978242E+03 E0= -.22978242E+03  EK= 0.88997E+01 SP= -.12E+02 SK= 0.62E-02
   1567 T=   552. E= -.23284966E+03 F= -.22988053E+03 E0= -.22988053E+03  EK= 0.90571E+01 SP= -.12E+02 SK= 0.12E-01
       N       E                     dE             d eps       ncg     rms          rms(c)
RMM:   1    -0.217894952274E+03    0.71604E+01   -0.11094E+03   129   0.476E+01
RMM:   2    -0.230850712886E+03   -0.12956E+02   -0.10427E+02   129   0.153E+01
RMM:   3    -0.232743657733E+03   -0.18929E+01   -0.16878E+01   129   0.581E+00
RMM:   4    -0.233098617135E+03   -0.35496E+00   -0.32903E+00   258   0.257E+00
RMM:   5    -0.233205032007E+03   -0.10641E+00   -0.10338E+00   263   0.123E+00    0.769E+00
RMM:   6    -0.224221111358E+03    0.89839E+01   -0.13064E+01   299   0.256E+00    0.377E+00
RMM:   7    -0.223088433476E+03    0.11327E+01   -0.18766E+00   258   0.135E+00    0.168E+00
RMM:   8    -0.222954721509E+03    0.13371E+00   -0.62207E-01   258   0.773E-01    0.803E-01
RMM:   9    -0.222939721068E+03    0.15000E-01   -0.12957E-01   260   0.421E-01    0.390E-01
RMM:  10    -0.222940085793E+03   -0.36472E-03   -0.34877E-02   263   0.225E-01    0.188E-01
RMM:  11    -0.222940237199E+03   -0.15141E-03   -0.94182E-03   231   0.117E-01
   1568 T=   563. E= -.22580490E+03 F= -.22294024E+03 E0= -.22289297E+03  EK= 0.92403E+01 SP= -.12E+02 SK= 0.18E-01
   1569 T=   577. E= -.23287112E+03 F= -.23014457E+03 E0= -.23014457E+03  EK= 0.94725E+01 SP= -.12E+02 SK= 0.23E-01
   1570 T=   592. E= -.23287181E+03 F= -.23029173E+03 E0= -.23029173E+03  EK= 0.97242E+01 SP= -.12E+02 SK= 0.25E-01
   1571 T=   607. E= -.23287255E+03 F= -.23043016E+03 E0= -.23043016E+03  EK= 0.99725E+01 SP= -.12E+02 SK= 0.25E-01
   1572 T=   621. E= -.23287321E+03 F= -.23055058E+03 E0= -.23055058E+03  EK= 0.10202E+02 SP= -.13E+02 SK= 0.22E-01
   1573 T=   633. E= -.23287383E+03 F= -.23064523E+03 E0= -.23064523E+03  EK= 0.10398E+02 SP= -.13E+02 SK= 0.17E-01
   1574 T=   643. E= -.23287424E+03 F= -.23070831E+03 E0= -.23070831E+03  EK= 0.10550E+02 SP= -.13E+02 SK= 0.12E-01
   1575 T=   649. E= -.23287440E+03 F= -.23073713E+03 E0= -.23073713E+03  EK= 0.10650E+02 SP= -.13E+02 SK= 0.65E-02
   1576 T=   652. E= -.23287432E+03 F= -.23073235E+03 E0= -.23073235E+03  EK= 0.10695E+02 SP= -.13E+02 SK= 0.26E-02
   1577 T=   651. E= -.23287402E+03 F= -.23069753E+03 E0= -.23069753E+03  EK= 0.10688E+02 SP= -.13E+02 SK= 0.38E-03
   1578 T=   648. E= -.23287346E+03 F= -.23063935E+03 E0= -.23063935E+03  EK= 0.10633E+02 SP= -.13E+02 SK= 0.10E-03
   1579 T=   642. E= -.23287271E+03 F= -.23056739E+03 E0= -.23056739E+03  EK= 0.10544E+02 SP= -.13E+02 SK= 0.14E-02
   1580 T=   636. E= -.23287188E+03 F= -.23049288E+03 E0= -.23049288E+03  EK= 0.10434E+02 SP= -.13E+02 SK= 0.37E-02
   1581 T=   629. E= -.23287108E+03 F= -.23042767E+03 E0= -.23042767E+03  EK= 0.10318E+02 SP= -.13E+02 SK= 0.64E-02
   1582 T=   622. E= -.23287040E+03 F= -.23038279E+03 E0= -.23038279E+03  EK= 0.10210E+02 SP= -.13E+02 SK= 0.91E-02
   1583 T=   617. E= -.23286984E+03 F= -.23036722E+03 E0= -.23036722E+03  EK= 0.10122E+02 SP= -.13E+02 SK= 0.12E-01
   1584 T=   613. E= -.23286956E+03 F= -.23038755E+03 E0= -.23038755E+03  EK= 0.10062E+02 SP= -.13E+02 SK= 0.14E-01
   1585 T=   611. E= -.23286955E+03 F= -.23044659E+03 E0= -.23044659E+03  EK= 0.10036E+02 SP= -.12E+02 SK= 0.15E-01
   1586 T=   612. E= -.23286997E+03 F= -.23054233E+03 E0= -.23054233E+03  EK= 0.10040E+02 SP= -.12E+02 SK= 0.17E-01
   1587 T=   613. E= -.23287072E+03 F= -.23066696E+03 E0= -.23066696E+03  EK= 0.10068E+02 SP= -.12E+02 SK= 0.19E-01
   1588 T=   616. E= -.23287166E+03 F= -.23080757E+03 E0= -.23080757E+03  EK= 0.10105E+02 SP= -.12E+02 SK= 0.22E-01
   1589 T=   617. E= -.23287260E+03 F= -.23094805E+03 E0= -.23094805E+03  EK= 0.10134E+02 SP= -.12E+02 SK= 0.25E-01
   1590 T=   618. E= -.23287318E+03 F= -.23107240E+03 E0= -.23107240E+03  EK= 0.10140E+02 SP= -.12E+02 SK= 0.29E-01
   1591 T=   616. E= -.23287324E+03 F= -.23116910E+03 E0= -.23116910E+03  EK= 0.10111E+02 SP= -.12E+02 SK= 0.33E-01
   1592 T=   612. E= -.23287287E+03 F= -.23123371E+03 E0= -.23123371E+03  EK= 0.10044E+02 SP= -.12E+02 SK= 0.36E-01
   1593 T=   606. E= -.23287218E+03 F= -.23126841E+03 E0= -.23126841E+03  EK= 0.99429E+01 SP= -.12E+02 SK= 0.38E-01
   1594 T=   598. E= -.23287150E+03 F= -.23128014E+03 E0= -.23128014E+03  EK= 0.98178E+01 SP= -.11E+02 SK= 0.39E-01
   1595 T=   590. E= -.23287081E+03 F= -.23127740E+03 E0= -.23127740E+03  EK= 0.96804E+01 SP= -.11E+02 SK= 0.38E-01
   1596 T=   581. E= -.23287031E+03 F= -.23126850E+03 E0= -.23126850E+03  EK= 0.95422E+01 SP= -.11E+02 SK= 0.35E-01
   1597 T=   573. E= -.23286998E+03 F= -.23126000E+03 E0= -.23126000E+03  EK= 0.94130E+01 SP= -.11E+02 SK= 0.30E-01
   1598 T=   567. E= -.23286981E+03 F= -.23125662E+03 E0= -.23125662E+03  EK= 0.93001E+01 SP= -.11E+02 SK= 0.25E-01
   1599 T=   561. E= -.23286987E+03 F= -.23126058E+03 E0= -.23126058E+03  EK= 0.92078E+01 SP= -.11E+02 SK= 0.19E-01
   1600 T=   557. E= -.23287007E+03 F= -.23127103E+03 E0= -.23127103E+03  EK= 0.91371E+01 SP= -.11E+02 SK= 0.13E-01
   1601 T=   553. E= -.23287040E+03 F= -.23128482E+03 E0= -.23128482E+03  EK= 0.90859E+01 SP= -.11E+02 SK= 0.76E-02
   1602 T=   551. E= -.23287065E+03 F= -.23129764E+03 E0= -.23129764E+03  EK= 0.90511E+01 SP= -.11E+02 SK= 0.36E-02
   1603 T=   550. E= -.23287076E+03 F= -.23130624E+03 E0= -.23130624E+03  EK= 0.90301E+01 SP= -.11E+02 SK= 0.10E-02
   1604 T=   550. E= -.23287066E+03 F= -.23130925E+03 E0= -.23130925E+03  EK= 0.90219E+01 SP= -.11E+02 SK= 0.12E-04
       N       E                     dE             d eps       ncg     rms          rms(c)
RMM:   1    -0.224249658066E+03   -0.13096E+01   -0.10036E+03   129   0.452E+01
RMM:   2    -0.235913190996E+03   -0.11664E+02   -0.95331E+01   129   0.147E+01
RMM:   3    -0.237698006868E+03   -0.17848E+01   -0.16007E+01   129   0.568E+00
RMM:   4    -0.238042596083E+03   -0.34459E+00   -0.31921E+00   258   0.255E+00
RMM:   5    -0.238146929702E+03   -0.10433E+00   -0.10136E+00   263   0.123E+00    0.852E+00
RMM:   6    -0.226062253704E+03    0.12085E+02   -0.17904E+01   312   0.300E+00    0.343E+00
RMM:   7    -0.224967599897E+03    0.10947E+01   -0.18063E+00   258   0.132E+00    0.161E+00
RMM:   8    -0.224827614725E+03    0.13999E+00   -0.59538E-01   258   0.758E-01    0.833E-01
RMM:   9    -0.224810258767E+03    0.17356E-01   -0.13142E-01   259   0.418E-01    0.405E-01
RMM:  10    -0.224809109643E+03    0.11491E-02   -0.39462E-02   262   0.230E-01    0.173E-01
RMM:  11    -0.224809596840E+03   -0.48720E-03   -0.10452E-02   240   0.120E-01
   1605 T=   551. E= -.22635485E+03 F= -.22480960E+03 E0= -.22478801E+03  EK= 0.90450E+01 SP= -.11E+02 SK= 0.64E-03
   1606 T=   554. E= -.23283188E+03 F= -.23131558E+03 E0= -.23131558E+03  EK= 0.90988E+01 SP= -.11E+02 SK= 0.27E-02
   1607 T=   558. E= -.23283144E+03 F= -.23132724E+03 E0= -.23132724E+03  EK= 0.91527E+01 SP= -.11E+02 SK= 0.59E-02
   1608 T=   562. E= -.23283116E+03 F= -.23134893E+03 E0= -.23134893E+03  EK= 0.92323E+01 SP= -.11E+02 SK= 0.10E-01
   1609 T=   569. E= -.23283114E+03 F= -.23138448E+03 E0= -.23138448E+03  EK= 0.93400E+01 SP= -.11E+02 SK= 0.14E-01
   1610 T=   577. E= -.23283138E+03 F= -.23143404E+03 E0= -.23143404E+03  EK= 0.94740E+01 SP= -.11E+02 SK= 0.18E-01
   1611 T=   587. E= -.23283182E+03 F= -.23149411E+03 E0= -.23149411E+03  EK= 0.96281E+01 SP= -.11E+02 SK= 0.21E-01
   1612 T=   597. E= -.23283234E+03 F= -.23155885E+03 E0= -.23155885E+03  EK= 0.97934E+01 SP= -.11E+02 SK= 0.22E-01
   1613 T=   607. E= -.23283277E+03 F= -.23162171E+03 E0= -.23162171E+03  EK= 0.99595E+01 SP= -.11E+02 SK= 0.22E-01
   1614 T=   616. E= -.23283313E+03 F= -.23167692E+03 E0= -.23167692E+03  EK= 0.10117E+02 SP= -.11E+02 SK= 0.20E-01
   1615 T=   625. E= -.23283343E+03 F= -.23172012E+03 E0= -.23172012E+03  EK= 0.10256E+02 SP= -.11E+02 SK= 0.16E-01
   1616 T=   632. E= -.23283353E+03 F= -.23174896E+03 E0= -.23174896E+03  EK= 0.10371E+02 SP= -.11E+02 SK= 0.12E-01
   1617 T=   637. E= -.23283352E+03 F= -.23176348E+03 E0= -.23176348E+03  EK= 0.10459E+02 SP= -.12E+02 SK= 0.79E-02
   1618 T=   641. E= -.23283340E+03 F= -.23176552E+03 E0= -.23176552E+03  EK= 0.10519E+02 SP= -.12E+02 SK= 0.43E-02
   1619 T=   643. E= -.23283332E+03 F= -.23175807E+03 E0= -.23175807E+03  EK= 0.10551E+02 SP= -.12E+02 SK= 0.16E-02
   1620 T=   643. E= -.23283328E+03 F= -.23174342E+03 E0= -.23174342E+03  EK= 0.10556E+02 SP= -.12E+02 SK= 0.21E-03
   1621 T=   642. E= -.23283328E+03 F= -.23172272E+03 E0= -.23172272E+03  EK= 0.10537E+02 SP= -.12E+02 SK= 0.13E-03
   1622 T=   639. E= -.23283337E+03 F= -.23169610E+03 E0= -.23169610E+03  EK= 0.10493E+02 SP= -.12E+02 SK= 0.13E-02
   1623 T=   635. E= -.23283334E+03 F= -.23166284E+03 E0= -.23166284E+03  EK= 0.10425E+02 SP= -.12E+02 SK= 0.34E-02
   1624 T=   630. E= -.23283335E+03 F= -.23162267E+03 E0= -.23162267E+03  EK= 0.10335E+02 SP= -.12E+02 SK= 0.60E-02
   1625 T=   623. E= -.23283328E+03 F= -.23157550E+03 E0= -.23157550E+03  EK= 0.10225E+02 SP= -.11E+02 SK= 0.88E-02
   1626 T=   615. E= -.23283310E+03 F= -.23152203E+03 E0= -.23152203E+03  EK= 0.10100E+02 SP= -.11E+02 SK= 0.11E-01
   1627 T=   607. E= -.23283277E+03 F= -.23146456E+03 E0= -.23146456E+03  EK= 0.99649E+01 SP= -.11E+02 SK= 0.13E-01
   1628 T=   599. E= -.23283235E+03 F= -.23140751E+03 E0= -.23140751E+03  EK= 0.98282E+01 SP= -.11E+02 SK= 0.13E-01
   1629 T=   591. E= -.23283177E+03 F= -.23135696E+03 E0= -.23135696E+03  EK= 0.96993E+01 SP= -.11E+02 SK= 0.13E-01
   1630 T=   584. E= -.23283118E+03 F= -.23132092E+03 E0= -.23132092E+03  EK= 0.95890E+01 SP= -.11E+02 SK= 0.11E-01
   1631 T=   579. E= -.23283067E+03 F= -.23130795E+03 E0= -.23130795E+03  EK= 0.95082E+01 SP= -.11E+02 SK= 0.92E-02
   1632 T=   577. E= -.23283042E+03 F= -.23132491E+03 E0= -.23132491E+03  EK= 0.94652E+01 SP= -.11E+02 SK= 0.70E-02
   1633 T=   577. E= -.23283045E+03 F= -.23137518E+03 E0= -.23137518E+03  EK= 0.94639E+01 SP= -.11E+02 SK= 0.49E-02
   1634 T=   579. E= -.23283082E+03 F= -.23145747E+03 E0= -.23145747E+03  EK= 0.95029E+01 SP= -.11E+02 SK= 0.33E-02
   1635 T=   583. E= -.23283142E+03 F= -.23156547E+03 E0= -.23156547E+03  EK= 0.95748E+01 SP= -.11E+02 SK= 0.22E-02
   1636 T=   589. E= -.23283219E+03 F= -.23168893E+03 E0= -.23168893E+03  EK= 0.96679E+01 SP= -.11E+02 SK= 0.16E-02
   1637 T=   595. E= -.23283301E+03 F= -.23181477E+03 E0= -.23181477E+03  EK= 0.97670E+01 SP= -.11E+02 SK= 0.13E-02
   1638 T=   600. E= -.23283381E+03 F= -.23192860E+03 E0= -.23192860E+03  EK= 0.98555E+01 SP= -.11E+02 SK= 0.12E-02
   1639 T=   604. E= -.23283442E+03 F= -.23201657E+03 E0= -.23201657E+03  EK= 0.99174E+01 SP= -.11E+02 SK= 0.14E-02
   1640 T=   606. E= -.23283465E+03 F= -.23206769E+03 E0= -.23206769E+03  EK= 0.99407E+01 SP= -.11E+02 SK= 0.17E-02
   1641 T=   604. E= -.23283461E+03 F= -.23207598E+03 E0= -.23207598E+03  EK= 0.99188E+01 SP= -.11E+02 SK= 0.20E-02
   1642 T=   600. E= -.23283439E+03 F= -.23203995E+03 E0= -.23203995E+03  EK= 0.98507E+01 SP= -.11E+02 SK= 0.22E-02
   1643 T=   593. E= -.23283401E+03 F= -.23196163E+03 E0= -.23196163E+03  EK= 0.97404E+01 SP= -.11E+02 SK= 0.21E-02
   1644 T=   585. E= -.23283355E+03 F= -.23184577E+03 E0= -.23184577E+03  EK= 0.95954E+01 SP= -.11E+02 SK= 0.16E-02
   1645 T=   574. E= -.23283295E+03 F= -.23169931E+03 E0= -.23169931E+03  EK= 0.94261E+01 SP= -.11E+02 SK= 0.85E-03
   1646 T=   563. E= -.23283227E+03 F= -.23153173E+03 E0= -.23153173E+03  EK= 0.92456E+01 SP= -.11E+02 SK= 0.13E-03
       N       E                     dE             d eps       ncg     rms          rms(c)
RMM:   1    -0.221965627323E+03    0.28435E+01   -0.10401E+03   129   0.461E+01
RMM:   2    -0.234044690155E+03   -0.12079E+02   -0.96758E+01   129   0.149E+01
RMM:   3    -0.235815652446E+03   -0.17710E+01   -0.15945E+01   129   0.568E+00
RMM:   4    -0.236153258350E+03   -0.33761E+00   -0.31200E+00   258   0.252E+00
RMM:   5    -0.236256960548E+03   -0.10370E+00   -0.10075E+00   267   0.120E+00    0.815E+00
RMM:   6    -0.226290945286E+03    0.99660E+01   -0.17384E+01   307   0.295E+00    0.353E+00
RMM:   7    -0.225134940663E+03    0.11560E+01   -0.17853E+00   258   0.134E+00    0.175E+00
RMM:   8    -0.224952471292E+03    0.18247E+00   -0.59537E-01   258   0.755E-01    0.803E-01
RMM:   9    -0.224940221546E+03    0.12250E-01   -0.14153E-01   260   0.420E-01    0.385E-01
RMM:  10    -0.224940469966E+03   -0.24842E-03   -0.36826E-02   261   0.228E-01    0.159E-01
RMM:  11    -0.224940756330E+03   -0.28636E-03   -0.89156E-03   222   0.115E-01
   1647 T=   552. E= -.22642220E+03 F= -.22494076E+03 E0= -.22491493E+03  EK= 0.90650E+01 SP= -.11E+02 SK= 0.15E-03
   1648 T=   543. E= -.23283657E+03 F= -.23119157E+03 E0= -.23119157E+03  EK= 0.89189E+01 SP= -.11E+02 SK= 0.18E-02
   1649 T=   537. E= -.23283583E+03 F= -.23104723E+03 E0= -.23104723E+03  EK= 0.88127E+01 SP= -.11E+02 SK= 0.59E-02
   1650 T=   534. E= -.23283525E+03 F= -.23093427E+03 E0= -.23093427E+03  EK= 0.87598E+01 SP= -.11E+02 SK= 0.13E-01
   1651 T=   534. E= -.23283496E+03 F= -.23086187E+03 E0= -.23086187E+03  EK= 0.87706E+01 SP= -.11E+02 SK= 0.23E-01
   1652 T=   539. E= -.23283500E+03 F= -.23083424E+03 E0= -.23083424E+03  EK= 0.88496E+01 SP= -.11E+02 SK= 0.36E-01
   1653 T=   548. E= -.23283543E+03 F= -.23084987E+03 E0= -.23084987E+03  EK= 0.89947E+01 SP= -.11E+02 SK= 0.49E-01
   1654 T=   560. E= -.23283615E+03 F= -.23090135E+03 E0= -.23090135E+03  EK= 0.91970E+01 SP= -.11E+02 SK= 0.62E-01
   1655 T=   575. E= -.23283710E+03 F= -.23097662E+03 E0= -.23097662E+03  EK= 0.94414E+01 SP= -.11E+02 SK= 0.71E-01
   1656 T=   591. E= -.23283808E+03 F= -.23106148E+03 E0= -.23106148E+03  EK= 0.97094E+01 SP= -.12E+02 SK= 0.76E-01
   1657 T=   608. E= -.23283900E+03 F= -.23114214E+03 E0= -.23114214E+03  EK= 0.99816E+01 SP= -.12E+02 SK= 0.76E-01
   1658 T=   624. E= -.23283989E+03 F= -.23120656E+03 E0= -.23120656E+03  EK= 0.10239E+02 SP= -.12E+02 SK= 0.70E-01
   1659 T=   638. E= -.23284046E+03 F= -.23124571E+03 E0= -.23124571E+03  EK= 0.10466E+02 SP= -.12E+02 SK= 0.61E-01
   1660 T=   649. E= -.23284084E+03 F= -.23125535E+03 E0= -.23125535E+03  EK= 0.10650E+02 SP= -.12E+02 SK= 0.49E-01
   1661 T=   657. E= -.23284087E+03 F= -.23123559E+03 E0= -.23123559E+03  EK= 0.10786E+02 SP= -.12E+02 SK= 0.36E-01
   1662 T=   662. E= -.23284073E+03 F= -.23119084E+03 E0= -.23119084E+03  EK= 0.10872E+02 SP= -.13E+02 SK= 0.23E-01
   1663 T=   665. E= -.23284058E+03 F= -.23112724E+03 E0= -.23112724E+03  EK= 0.10912E+02 SP= -.13E+02 SK= 0.13E-01
   1664 T=   665. E= -.23284042E+03 F= -.23105078E+03 E0= -.23105078E+03  EK= 0.10910E+02 SP= -.13E+02 SK= 0.58E-02
   1665 T=   662. E= -.23284024E+03 F= -.23096685E+03 E0= -.23096685E+03  EK= 0.10870E+02 SP= -.13E+02 SK= 0.15E-02
   1666 T=   658. E= -.23284011E+03 F= -.23087961E+03 E0= -.23087961E+03  EK= 0.10799E+02 SP= -.13E+02 SK= 0.66E-05
   1667 T=   652. E= -.23284009E+03 F= -.23079142E+03 E0= -.23079142E+03  EK= 0.10700E+02 SP= -.13E+02 SK= 0.91E-03
   1668 T=   644. E= -.23284021E+03 F= -.23070262E+03 E0= -.23070262E+03  EK= 0.10578E+02 SP= -.13E+02 SK= 0.35E-02
   1669 T=   636. E= -.23284041E+03 F= -.23061128E+03 E0= -.23061128E+03  EK= 0.10433E+02 SP= -.13E+02 SK= 0.69E-02
   1670 T=   625. E= -.23284059E+03 F= -.23051379E+03 E0= -.23051379E+03  EK= 0.10267E+02 SP= -.13E+02 SK= 0.10E-01
   1671 T=   614. E= -.23284062E+03 F= -.23040672E+03 E0= -.23040672E+03  EK= 0.10082E+02 SP= -.13E+02 SK= 0.13E-01
   1672 T=   602. E= -.23284033E+03 F= -.23028889E+03 E0= -.23028889E+03  EK= 0.98818E+01 SP= -.12E+02 SK= 0.14E-01
   1673 T=   589. E= -.23283994E+03 F= -.23016293E+03 E0= -.23016293E+03  EK= 0.96737E+01 SP= -.12E+02 SK= 0.14E-01
   1674 T=   577. E= -.23283942E+03 F= -.23003385E+03 E0= -.23003385E+03  EK= 0.94680E+01 SP= -.12E+02 SK= 0.12E-01
   1675 T=   565. E= -.23283890E+03 F= -.22990864E+03 E0= -.22990864E+03  EK= 0.92763E+01 SP= -.12E+02 SK= 0.86E-02
   1676 T=   555. E= -.23283838E+03 F= -.22979503E+03 E0= -.22979503E+03  EK= 0.91103E+01 SP= -.12E+02 SK= 0.49E-02
   1677 T=   547. E= -.23283795E+03 F= -.22970068E+03 E0= -.22970068E+03  EK= 0.89805E+01 SP= -.12E+02 SK= 0.18E-02
   1678 T=   542. E= -.23283760E+03 F= -.22963231E+03 E0= -.22963231E+03  EK= 0.88960E+01 SP= -.12E+02 SK= 0.10E-03
   1679 T=   540. E= -.23283737E+03 F= -.22959535E+03 E0= -.22959535E+03  EK= 0.88637E+01 SP= -.12E+02 SK= 0.57E-03
   1680 T=   541. E= -.23283722E+03 F= -.22959340E+03 E0= -.22959340E+03  EK= 0.88877E+01 SP= -.12E+02 SK= 0.34E-02
   1681 T=   546. E= -.23283723E+03 F= -.22962810E+03 E0= -.22962810E+03  EK= 0.89694E+01 SP= -.12E+02 SK= 0.82E-02
   1682 T=   555. E= -.23283736E+03 F= -.22969896E+03 E0= -.22969896E+03  EK= 0.91071E+01 SP= -.12E+02 SK= 0.14E-01
   1683 T=   566. E= -.23283765E+03 F= -.22980347E+03 E0= -.22980347E+03  EK= 0.92962E+01 SP= -.12E+02 SK= 0.20E-01
   1684 T=   580. E= -.23283812E+03 F= -.22993684E+03 E0= -.22993684E+03  EK= 0.95284E+01 SP= -.12E+02 SK= 0.24E-01
   1685 T=   596. E= -.23283878E+03 F= -.23009195E+03 E0= -.23009195E+03  EK= 0.97920E+01 SP= -.13E+02 SK= 0.26E-01
   1686 T=   614. E= -.23283953E+03 F= -.23025986E+03 E0= -.23025986E+03  EK= 0.10072E+02 SP= -.13E+02 SK= 0.25E-01
   1687 T=   631. E= -.23284035E+03 F= -.23043094E+03 E0= -.23043094E+03  EK= 0.10353E+02 SP= -.13E+02 SK= 0.21E-01
   1688 T=   647. E= -.23284103E+03 F= -.23059588E+03 E0= -.23059588E+03  EK= 0.10616E+02 SP= -.13E+02 SK= 0.15E-01
   1689 T=   661. E= -.23284156E+03 F= -.23074767E+03 E0= -.23074767E+03  EK= 0.10848E+02 SP= -.13E+02 SK= 0.80E-02
   1690 T=   672. E= -.23284191E+03 F= -.23088151E+03 E0= -.23088151E+03  EK= 0.11035E+02 SP= -.13E+02 SK= 0.25E-02
   1691 T=   680. E= -.23284200E+03 F= -.23099482E+03 E0= -.23099482E+03  EK= 0.11170E+02 SP= -.13E+02 SK= 0.16E-04
   1692 T=   685. E= -.23284196E+03 F= -.23108711E+03 E0= -.23108711E+03  EK= 0.11246E+02 SP= -.13E+02 SK= 0.21E-02
   1693 T=   686. E= -.23284179E+03 F= -.23115861E+03 E0= -.23115861E+03  EK= 0.11261E+02 SP= -.13E+02 SK= 0.93E-02
   1694 T=   683. E= -.23284144E+03 F= -.23121028E+03 E0= -.23121028E+03  EK= 0.11216E+02 SP= -.13E+02 SK= 0.22E-01
   1695 T=   677. E= -.23284106E+03 F= -.23124349E+03 E0= -.23124349E+03  EK= 0.11114E+02 SP= -.13E+02 SK= 0.38E-01
   1696 T=   668. E= -.23284063E+03 F= -.23125916E+03 E0= -.23125916E+03  EK= 0.10961E+02 SP= -.13E+02 SK= 0.56E-01
   1697 T=   656. E= -.23284030E+03 F= -.23125755E+03 E0= -.23125755E+03  EK= 0.10762E+02 SP= -.12E+02 SK= 0.75E-01
   1698 T=   641. E= -.23283993E+03 F= -.23123763E+03 E0= -.23123763E+03  EK= 0.10524E+02 SP= -.12E+02 SK= 0.92E-01
   1699 T=   625. E= -.23283957E+03 F= -.23119876E+03 E0= -.23119876E+03  EK= 0.10255E+02 SP= -.12E+02 SK= 0.10E+00
   1700 T=   607. E= -.23283909E+03 F= -.23114109E+03 E0= -.23114109E+03  EK= 0.99618E+01 SP= -.12E+02 SK= 0.11E+00
   1701 T=   588. E= -.23283857E+03 F= -.23106700E+03 E0= -.23106700E+03  EK= 0.96563E+01 SP= -.12E+02 SK= 0.11E+00
   1702 T=   570. E= -.23283807E+03 F= -.23098097E+03 E0= -.23098097E+03  EK= 0.93502E+01 SP= -.11E+02 SK= 0.10E+00
   1703 T=   552. E= -.23283744E+03 F= -.23088942E+03 E0= -.23088942E+03  EK= 0.90569E+01 SP= -.11E+02 SK= 0.89E-01
   1704 T=   535. E= -.23283690E+03 F= -.23080100E+03 E0= -.23080100E+03  EK= 0.87901E+01 SP= -.11E+02 SK= 0.71E-01
   1705 T=   522. E= -.23283644E+03 F= -.23072463E+03 E0= -.23072463E+03  EK= 0.85629E+01 SP= -.11E+02 SK= 0.51E-01
   1706 T=   511. E= -.23283607E+03 F= -.23066875E+03 E0= -.23066875E+03  EK= 0.83865E+01 SP= -.11E+02 SK= 0.31E-01
   1707 T=   504. E= -.23283586E+03 F= -.23064056E+03 E0= -.23064056E+03  EK= 0.82699E+01 SP= -.10E+02 SK= 0.15E-01
   1708 T=   501. E= -.23283572E+03 F= -.23064493E+03 E0= -.23064493E+03  EK= 0.82189E+01 SP= -.10E+02 SK= 0.45E-02
   1709 T=   502. E= -.23283570E+03 F= -.23068457E+03 E0= -.23068457E+03  EK= 0.82363E+01 SP= -.10E+02 SK= 0.90E-04
   1710 T=   507. E= -.23283582E+03 F= -.23075951E+03 E0= -.23075951E+03  EK= 0.83219E+01 SP= -.10E+02 SK= 0.21E-02
   1711 T=   516. E= -.23283605E+03 F= -.23086674E+03 E0= -.23086674E+03  EK= 0.84714E+01 SP= -.10E+02 SK= 0.94E-02
   1712 T=   529. E= -.23283651E+03 F= -.23100035E+03 E0= -.23100035E+03  EK= 0.86772E+01 SP= -.11E+02 SK= 0.20E-01
   1713 T=   544. E= -.23283716E+03 F= -.23115096E+03 E0= -.23115096E+03  EK= 0.89273E+01 SP= -.11E+02 SK= 0.32E-01
   1714 T=   561. E= -.23283798E+03 F= -.23130633E+03 E0= -.23130633E+03  EK= 0.92054E+01 SP= -.11E+02 SK= 0.42E-01
   1715 T=   578. E= -.23283886E+03 F= -.23145280E+03 E0= -.23145280E+03  EK= 0.94933E+01 SP= -.11E+02 SK= 0.50E-01
   1716 T=   595. E= -.23283972E+03 F= -.23157746E+03 E0= -.23157746E+03  EK= 0.97719E+01 SP= -.11E+02 SK= 0.53E-01
   1717 T=   611. E= -.23284026E+03 F= -.23166945E+03 E0= -.23166945E+03  EK= 0.10024E+02 SP= -.11E+02 SK= 0.52E-01
   1718 T=   624. E= -.23284067E+03 F= -.23172236E+03 E0= -.23172236E+03  EK= 0.10236E+02 SP= -.11E+02 SK= 0.47E-01
   1719 T=   633. E= -.23284077E+03 F= -.23173385E+03 E0= -.23173385E+03  EK= 0.10399E+02 SP= -.12E+02 SK= 0.40E-01
   1720 T=   640. E= -.23284069E+03 F= -.23170565E+03 E0= -.23170565E+03  EK= 0.10510E+02 SP= -.12E+02 SK= 0.31E-01
   1721 T=   644. E= -.23284047E+03 F= -.23164227E+03 E0= -.23164227E+03  EK= 0.10570E+02 SP= -.12E+02 SK= 0.23E-01
   1722 T=   645. E= -.23284004E+03 F= -.23155045E+03 E0= -.23155045E+03  EK= 0.10581E+02 SP= -.12E+02 SK= 0.15E-01
   1723 T=   643. E= -.23283959E+03 F= -.23143855E+03 E0= -.23143855E+03  EK= 0.10553E+02 SP= -.12E+02 SK= 0.96E-02
   1724 T=   639. E= -.23283923E+03 F= -.23131446E+03 E0= -.23131446E+03  EK= 0.10493E+02 SP= -.12E+02 SK= 0.53E-02
   1725 T=   634. E= -.23283887E+03 F= -.23118490E+03 E0= -.23118490E+03  EK= 0.10410E+02 SP= -.12E+02 SK= 0.26E-02
   1726 T=   628. E= -.23283860E+03 F= -.23105567E+03 E0= -.23105567E+03  EK= 0.10311E+02 SP= -.12E+02 SK= 0.10E-02
   1727 T=   622. E= -.23283853E+03 F= -.23093081E+03 E0= -.23093081E+03  EK= 0.10204E+02 SP= -.12E+02 SK= 0.28E-03
   1728 T=   615. E= -.23283849E+03 F= -.23081199E+03 E0= -.23081199E+03  EK= 0.10094E+02 SP= -.12E+02 SK= 0.31E-04
   1729 T=   608. E= -.23283858E+03 F= -.23069964E+03 E0= -.23069964E+03  EK= 0.99826E+01 SP= -.12E+02 SK= 0.33E-05
   1730 T=   601. E= -.23283871E+03 F= -.23059270E+03 E0= -.23059270E+03  EK= 0.98730E+01 SP= -.12E+02 SK= 0.28E-04
   1731 T=   595. E= -.23283879E+03 F= -.23048934E+03 E0= -.23048934E+03  EK= 0.97661E+01 SP= -.12E+02 SK= 0.23E-04
   1732 T=   589. E= -.23283879E+03 F= -.23038858E+03 E0= -.23038858E+03  EK= 0.96634E+01 SP= -.12E+02 SK= 0.50E-06
   1733 T=   583. E= -.23283867E+03 F= -.23029082E+03 E0= -.23029082E+03  EK= 0.95679E+01 SP= -.12E+02 SK= 0.49E-04
   1734 T=   578. E= -.23283849E+03 F= -.23019780E+03 E0= -.23019780E+03  EK= 0.94834E+01 SP= -.12E+02 SK= 0.32E-03
   1735 T=   573. E= -.23283836E+03 F= -.23011204E+03 E0= -.23011204E+03  EK= 0.94143E+01 SP= -.12E+02 SK= 0.99E-03
   1736 T=   570. E= -.23283812E+03 F= -.23003626E+03 E0= -.23003626E+03  EK= 0.93650E+01 SP= -.12E+02 SK= 0.22E-02
   1737 T=   569. E= -.23283788E+03 F= -.22997415E+03 E0= -.22997415E+03  EK= 0.93402E+01 SP= -.12E+02 SK= 0.42E-02
   1738 T=   569. E= -.23283769E+03 F= -.22992928E+03 E0= -.22992928E+03  EK= 0.93439E+01 SP= -.12E+02 SK= 0.67E-02
   1739 T=   571. E= -.23283749E+03 F= -.22990429E+03 E0= -.22990429E+03  EK= 0.93791E+01 SP= -.12E+02 SK= 0.98E-02
   1740 T=   575. E= -.23283764E+03 F= -.22990102E+03 E0= -.22990102E+03  EK= 0.94466E+01 SP= -.12E+02 SK= 0.13E-01
   1741 T=   581. E= -.23283792E+03 F= -.22991784E+03 E0= -.22991784E+03  EK= 0.95439E+01 SP= -.12E+02 SK= 0.16E-01
   1742 T=   589. E= -.23283843E+03 F= -.22995047E+03 E0= -.22995047E+03  EK= 0.96645E+01 SP= -.13E+02 SK= 0.18E-01
   1743 T=   597. E= -.23283910E+03 F= -.22999201E+03 E0= -.22999201E+03  EK= 0.97991E+01 SP= -.13E+02 SK= 0.19E-01
   1744 T=   605. E= -.23283986E+03 F= -.23003362E+03 E0= -.23003362E+03  EK= 0.99358E+01 SP= -.13E+02 SK= 0.19E-01
   1745 T=   613. E= -.23284063E+03 F= -.23006561E+03 E0= -.23006561E+03  EK= 0.10062E+02 SP= -.13E+02 SK= 0.17E-01
   1746 T=   619. E= -.23284124E+03 F= -.23007889E+03 E0= -.23007889E+03  EK= 0.10164E+02 SP= -.13E+02 SK= 0.14E-01
   1747 T=   623. E= -.23284155E+03 F= -.23006688E+03 E0= -.23006688E+03  EK= 0.10234E+02 SP= -.13E+02 SK= 0.11E-01
   1748 T=   625. E= -.23284164E+03 F= -.23002673E+03 E0= -.23002673E+03  EK= 0.10266E+02 SP= -.13E+02 SK= 0.84E-02
   1749 T=   625. E= -.23284126E+03 F= -.22995965E+03 E0= -.22995965E+03  EK= 0.10260E+02 SP= -.13E+02 SK= 0.58E-02
   1750 T=   623. E= -.23284070E+03 F= -.22987212E+03 E0= -.22987212E+03  EK= 0.10223E+02 SP= -.13E+02 SK= 0.37E-02
   1751 T=   619. E= -.23283991E+03 F= -.22977421E+03 E0= -.22977421E+03  EK= 0.10165E+02 SP= -.13E+02 SK= 0.23E-02
   1752 T=   615. E= -.23283908E+03 F= -.22967857E+03 E0= -.22967857E+03  EK= 0.10101E+02 SP= -.13E+02 SK= 0.14E-02
   1753 T=   612. E= -.23283835E+03 F= -.22959834E+03 E0= -.22959834E+03  EK= 0.10045E+02 SP= -.13E+02 SK= 0.83E-03
   1754 T=   610. E= -.23283781E+03 F= -.22954526E+03 E0= -.22954526E+03  EK= 0.10011E+02 SP= -.13E+02 SK= 0.48E-03
   1755 T=   610. E= -.23283754E+03 F= -.22952807E+03 E0= -.22952807E+03  EK= 0.10007E+02 SP= -.13E+02 SK= 0.25E-03
   1756 T=   612. E= -.23283775E+03 F= -.22955086E+03 E0= -.22955086E+03  EK= 0.10039E+02 SP= -.13E+02 SK= 0.85E-04
   1757 T=   615. E= -.23283828E+03 F= -.22961147E+03 E0= -.22961147E+03  EK= 0.10102E+02 SP= -.13E+02 SK= 0.69E-06
   1758 T=   621. E= -.23283911E+03 F= -.22970243E+03 E0= -.22970243E+03  EK= 0.10189E+02 SP= -.13E+02 SK= 0.11E-03
   1759 T=   627. E= -.23284011E+03 F= -.22981194E+03 E0= -.22981194E+03  EK= 0.10285E+02 SP= -.13E+02 SK= 0.61E-03
   1760 T=   632. E= -.23284120E+03 F= -.22992509E+03 E0= -.22992509E+03  EK= 0.10372E+02 SP= -.13E+02 SK= 0.18E-02
   1761 T=   635. E= -.23284208E+03 F= -.23002529E+03 E0= -.23002529E+03  EK= 0.10432E+02 SP= -.13E+02 SK= 0.40E-02
   1762 T=   637. E= -.23284263E+03 F= -.23009771E+03 E0= -.23009771E+03  EK= 0.10449E+02 SP= -.13E+02 SK= 0.73E-02
   1763 T=   634. E= -.23284271E+03 F= -.23013176E+03 E0= -.23013176E+03  EK= 0.10412E+02 SP= -.13E+02 SK= 0.11E-01
   1764 T=   629. E= -.23284223E+03 F= -.23012291E+03 E0= -.23012291E+03  EK= 0.10318E+02 SP= -.13E+02 SK= 0.16E-01
   1765 T=   620. E= -.23284137E+03 F= -.23007430E+03 E0= -.23007430E+03  EK= 0.10173E+02 SP= -.13E+02 SK= 0.20E-01
   1766 T=   609. E= -.23284032E+03 F= -.22999546E+03 E0= -.22999546E+03  EK= 0.99907E+01 SP= -.13E+02 SK= 0.23E-01
   1767 T=   596. E= -.23283911E+03 F= -.22990012E+03 E0= -.22990012E+03  EK= 0.97903E+01 SP= -.13E+02 SK= 0.23E-01
   1768 T=   584. E= -.23283787E+03 F= -.22980495E+03 E0= -.22980495E+03  EK= 0.95932E+01 SP= -.13E+02 SK= 0.22E-01
   1769 T=   574. E= -.23283693E+03 F= -.22972706E+03 E0= -.22972706E+03  EK= 0.94207E+01 SP= -.13E+02 SK= 0.18E-01
   1770 T=   566. E= -.23283635E+03 F= -.22968051E+03 E0= -.22968051E+03  EK= 0.92903E+01 SP= -.12E+02 SK= 0.14E-01
   1771 T=   561. E= -.23283617E+03 F= -.22967454E+03 E0= -.22967454E+03  EK= 0.92136E+01 SP= -.12E+02 SK= 0.96E-02
   1772 T=   560. E= -.23283640E+03 F= -.22971215E+03 E0= -.22971215E+03  EK= 0.91945E+01 SP= -.12E+02 SK= 0.57E-02
   1773 T=   562. E= -.23283695E+03 F= -.22978980E+03 E0= -.22978980E+03  EK= 0.92297E+01 SP= -.12E+02 SK= 0.28E-02
   1774 T=   567. E= -.23283784E+03 F= -.22989829E+03 E0= -.22989829E+03  EK= 0.93091E+01 SP= -.12E+02 SK= 0.11E-02
   1775 T=   574. E= -.23283894E+03 F= -.23002355E+03 E0= -.23002355E+03  EK= 0.94170E+01 SP= -.12E+02 SK= 0.26E-03
   1776 T=   581. E= -.23284013E+03 F= -.23014851E+03 E0= -.23014851E+03  EK= 0.95342E+01 SP= -.12E+02 SK= 0.13E-04
   1777 T=   587. E= -.23284119E+03 F= -.23025534E+03 E0= -.23025534E+03  EK= 0.96404E+01 SP= -.12E+02 SK= 0.24E-04
   1778 T=   592. E= -.23284200E+03 F= -.23032843E+03 E0= -.23032843E+03  EK= 0.97178E+01 SP= -.12E+02 SK= 0.10E-03
   1779 T=   594. E= -.23284246E+03 F= -.23035627E+03 E0= -.23035627E+03  EK= 0.97531E+01 SP= -.12E+02 SK= 0.17E-03
   1780 T=   593. E= -.23284238E+03 F= -.23033319E+03 E0= -.23033319E+03  EK= 0.97400E+01 SP= -.12E+02 SK= 0.24E-03
   1781 T=   590. E= -.23284188E+03 F= -.23026107E+03 E0= -.23026107E+03  EK= 0.96806E+01 SP= -.12E+02 SK= 0.38E-03
   1782 T=   584. E= -.23284109E+03 F= -.23014843E+03 E0= -.23014843E+03  EK= 0.95844E+01 SP= -.12E+02 SK= 0.69E-03
   1783 T=   577. E= -.23284032E+03 F= -.23000764E+03 E0= -.23000764E+03  EK= 0.94658E+01 SP= -.12E+02 SK= 0.14E-02
   1784 T=   569. E= -.23283986E+03 F= -.22985051E+03 E0= -.22985051E+03  EK= 0.93389E+01 SP= -.12E+02 SK= 0.27E-02
   1785 T=   561. E= -.23283972E+03 F= -.22968530E+03 E0= -.22968530E+03  EK= 0.92146E+01 SP= -.12E+02 SK= 0.52E-02
   1786 T=   554. E= -.23283977E+03 F= -.22951631E+03 E0= -.22951631E+03  EK= 0.91000E+01 SP= -.12E+02 SK= 0.92E-02
       N       E                     dE             d eps       ncg     rms          rms(c)
RMM:   1    -0.212967856447E+03    0.11973E+02   -0.16310E+03   129   0.555E+01
RMM:   2    -0.230747374140E+03   -0.17780E+02   -0.14370E+02   129   0.170E+01
RMM:   3    -0.233162678032E+03   -0.24153E+01   -0.19984E+01   129   0.606E+00
RMM:   4    -0.233642007243E+03   -0.47933E+00   -0.43132E+00   263   0.265E+00
RMM:   5    -0.233821031732E+03   -0.17902E+00   -0.16768E+00   276   0.128E+00    0.830E+00
RMM:   6    -0.223519347061E+03    0.10302E+02   -0.14304E+01   272   0.290E+00    0.375E+00
RMM:   7    -0.222393182125E+03    0.11262E+01   -0.30347E+00   258   0.170E+00    0.186E+00
RMM:   8    -0.222255482050E+03    0.13770E+00   -0.10496E+00   258   0.988E-01    0.880E-01
RMM:   9    -0.222244256353E+03    0.11226E-01   -0.19012E-01   260   0.532E-01    0.452E-01
RMM:  10    -0.222245855274E+03   -0.15989E-02   -0.72190E-02   260   0.293E-01    0.190E-01
RMM:  11    -0.222246781060E+03   -0.92579E-03   -0.16078E-02   246   0.148E-01
   1787 T=   548. E= -.22573689E+03 F= -.22224678E+03 E0= -.22223402E+03  EK= 0.90037E+01 SP= -.13E+02 SK= 0.15E-01
   1788 T=   544. E= -.23227789E+03 F= -.22863421E+03 E0= -.22863421E+03  EK= 0.89384E+01 SP= -.13E+02 SK= 0.24E-01
   1789 T=   542. E= -.23227754E+03 F= -.22847956E+03 E0= -.22847956E+03  EK= 0.88916E+01 SP= -.13E+02 SK= 0.35E-01
   1790 T=   541. E= -.23227690E+03 F= -.22833968E+03 E0= -.22833968E+03  EK= 0.88804E+01 SP= -.13E+02 SK= 0.48E-01
   1791 T=   543. E= -.23227621E+03 F= -.22822553E+03 E0= -.22822553E+03  EK= 0.89163E+01 SP= -.13E+02 SK= 0.64E-01
   1792 T=   549. E= -.23227563E+03 F= -.22814842E+03 E0= -.22814842E+03  EK= 0.90105E+01 SP= -.13E+02 SK= 0.81E-01
   1793 T=   559. E= -.23227534E+03 F= -.22811689E+03 E0= -.22811689E+03  EK= 0.91711E+01 SP= -.13E+02 SK= 0.97E-01
   1794 T=   573. E= -.23227534E+03 F= -.22813464E+03 E0= -.22813464E+03  EK= 0.94000E+01 SP= -.14E+02 SK= 0.11E+00
   1795 T=   590. E= -.23227565E+03 F= -.22820077E+03 E0= -.22820077E+03  EK= 0.96930E+01 SP= -.14E+02 SK= 0.12E+00
   1796 T=   612. E= -.23227620E+03 F= -.22831050E+03 E0= -.22831050E+03  EK= 0.10040E+02 SP= -.14E+02 SK= 0.12E+00
   1797 T=   635. E= -.23227719E+03 F= -.22845583E+03 E0= -.22845583E+03  EK= 0.10426E+02 SP= -.14E+02 SK= 0.11E+00
   1798 T=   660. E= -.23227870E+03 F= -.22862454E+03 E0= -.22862454E+03  EK= 0.10828E+02 SP= -.15E+02 SK= 0.89E-01
   1799 T=   683. E= -.23228071E+03 F= -.22879927E+03 E0= -.22879927E+03  EK= 0.11217E+02 SP= -.15E+02 SK= 0.65E-01
   1800 T=   704. E= -.23228274E+03 F= -.22895851E+03 E0= -.22895851E+03  EK= 0.11558E+02 SP= -.15E+02 SK= 0.40E-01
   1801 T=   720. E= -.23228433E+03 F= -.22908123E+03 E0= -.22908123E+03  EK= 0.11817E+02 SP= -.15E+02 SK= 0.18E-01
   1802 T=   729. E= -.23228508E+03 F= -.22915219E+03 E0= -.22915219E+03  EK= 0.11968E+02 SP= -.15E+02 SK= 0.34E-02
   1803 T=   731. E= -.23228481E+03 F= -.22916575E+03 E0= -.22916575E+03  EK= 0.11998E+02 SP= -.15E+02 SK= 0.36E-03
   1804 T=   726. E= -.23228377E+03 F= -.22912697E+03 E0= -.22912697E+03  EK= 0.11912E+02 SP= -.15E+02 SK= 0.90E-02
   1805 T=   714. E= -.23228228E+03 F= -.22904808E+03 E0= -.22904808E+03  EK= 0.11725E+02 SP= -.15E+02 SK= 0.28E-01
   1806 T=   698. E= -.23228054E+03 F= -.22894533E+03 E0= -.22894533E+03  EK= 0.11461E+02 SP= -.15E+02 SK= 0.53E-01
   1807 T=   679. E= -.23227880E+03 F= -.22883740E+03 E0= -.22883740E+03  EK= 0.11150E+02 SP= -.15E+02 SK= 0.80E-01
   1808 T=   659. E= -.23227723E+03 F= -.22874341E+03 E0= -.22874341E+03  EK= 0.10822E+02 SP= -.14E+02 SK= 0.10E+00
   1809 T=   640. E= -.23227593E+03 F= -.22868167E+03 E0= -.22868167E+03  EK= 0.10506E+02 SP= -.14E+02 SK= 0.12E+00
   1810 T=   623. E= -.23227518E+03 F= -.22866772E+03 E0= -.22866772E+03  EK= 0.10226E+02 SP= -.14E+02 SK= 0.14E+00
   1811 T=   609. E= -.23227502E+03 F= -.22871081E+03 E0= -.22871081E+03  EK= 0.99999E+01 SP= -.14E+02 SK= 0.15E+00
   1812 T=   599. E= -.23227534E+03 F= -.22881232E+03 E0= -.22881232E+03  EK= 0.98323E+01 SP= -.13E+02 SK= 0.15E+00
   1813 T=   592. E= -.23227601E+03 F= -.22896623E+03 E0= -.22896623E+03  EK= 0.97202E+01 SP= -.13E+02 SK= 0.15E+00
   1814 T=   588. E= -.23227681E+03 F= -.22916087E+03 E0= -.22916087E+03  EK= 0.96537E+01 SP= -.13E+02 SK= 0.14E+00
   1815 T=   586. E= -.23227749E+03 F= -.22938190E+03 E0= -.22938190E+03  EK= 0.96191E+01 SP= -.13E+02 SK= 0.14E+00
   1816 T=   585. E= -.23227811E+03 F= -.22961491E+03 E0= -.22961491E+03  EK= 0.96022E+01 SP= -.12E+02 SK= 0.13E+00
   1817 T=   584. E= -.23227855E+03 F= -.22984615E+03 E0= -.22984615E+03  EK= 0.95895E+01 SP= -.12E+02 SK= 0.13E+00
   1818 T=   583. E= -.23227878E+03 F= -.23006383E+03 E0= -.23006383E+03  EK= 0.95696E+01 SP= -.12E+02 SK= 0.12E+00
   1819 T=   581. E= -.23227881E+03 F= -.23025900E+03 E0= -.23025900E+03  EK= 0.95343E+01 SP= -.12E+02 SK= 0.11E+00
   1820 T=   577. E= -.23227854E+03 F= -.23042610E+03 E0= -.23042610E+03  EK= 0.94795E+01 SP= -.11E+02 SK= 0.10E+00
   1821 T=   573. E= -.23227814E+03 F= -.23056374E+03 E0= -.23056374E+03  EK= 0.94051E+01 SP= -.11E+02 SK= 0.96E-01
   1822 T=   567. E= -.23227755E+03 F= -.23067394E+03 E0= -.23067394E+03  EK= 0.93154E+01 SP= -.11E+02 SK= 0.86E-01
   1823 T=   562. E= -.23227682E+03 F= -.23076204E+03 E0= -.23076204E+03  EK= 0.92178E+01 SP= -.11E+02 SK= 0.75E-01
   1824 T=   556. E= -.23227618E+03 F= -.23083581E+03 E0= -.23083581E+03  EK= 0.91219E+01 SP= -.11E+02 SK= 0.63E-01
   1825 T=   551. E= -.23227569E+03 F= -.23090308E+03 E0= -.23090308E+03  EK= 0.90373E+01 SP= -.10E+02 SK= 0.50E-01
   1826 T=   546. E= -.23227541E+03 F= -.23097005E+03 E0= -.23097005E+03  EK= 0.89713E+01 SP= -.10E+02 SK= 0.38E-01
   1827 T=   544. E= -.23227526E+03 F= -.23104067E+03 E0= -.23104067E+03  EK= 0.89290E+01 SP= -.10E+02 SK= 0.26E-01
   1828 T=   543. E= -.23227523E+03 F= -.23111692E+03 E0= -.23111692E+03  EK= 0.89127E+01 SP= -.10E+02 SK= 0.17E-01
   1829 T=   544. E= -.23227527E+03 F= -.23119867E+03 E0= -.23119867E+03  EK= 0.89224E+01 SP= -.10E+02 SK= 0.95E-02
   1830 T=   546. E= -.23227527E+03 F= -.23128479E+03 E0= -.23128479E+03  EK= 0.89568E+01 SP= -.10E+02 SK= 0.43E-02
   1831 T=   549. E= -.23227534E+03 F= -.23137398E+03 E0= -.23137398E+03  EK= 0.90136E+01 SP= -.99E+01 SK= 0.13E-02
   1832 T=   554. E= -.23227548E+03 F= -.23146412E+03 E0= -.23146412E+03  EK= 0.90896E+01 SP= -.99E+01 SK= 0.62E-04
   1833 T=   559. E= -.23227577E+03 F= -.23155185E+03 E0= -.23155185E+03  EK= 0.91800E+01 SP= -.99E+01 SK= 0.29E-03
   1834 T=   565. E= -.23227612E+03 F= -.23163200E+03 E0= -.23163200E+03  EK= 0.92778E+01 SP= -.99E+01 SK= 0.15E-02
   1835 T=   571. E= -.23227649E+03 F= -.23169843E+03 E0= -.23169843E+03  EK= 0.93751E+01 SP= -.10E+02 SK= 0.32E-02
   1836 T=   576. E= -.23227688E+03 F= -.23174493E+03 E0= -.23174493E+03  EK= 0.94636E+01 SP= -.10E+02 SK= 0.50E-02
   1837 T=   581. E= -.23227719E+03 F= -.23176567E+03 E0= -.23176567E+03  EK= 0.95356E+01 SP= -.10E+02 SK= 0.68E-02
   1838 T=   584. E= -.23227747E+03 F= -.23175603E+03 E0= -.23175603E+03  EK= 0.95848E+01 SP= -.10E+02 SK= 0.84E-02
   1839 T=   585. E= -.23227771E+03 F= -.23171248E+03 E0= -.23171248E+03  EK= 0.96063E+01 SP= -.10E+02 SK= 0.10E-01
   1840 T=   585. E= -.23227791E+03 F= -.23163248E+03 E0= -.23163248E+03  EK= 0.95969E+01 SP= -.10E+02 SK= 0.12E-01
   1841 T=   582. E= -.23227804E+03 F= -.23151499E+03 E0= -.23151499E+03  EK= 0.95556E+01 SP= -.10E+02 SK= 0.14E-01
   1842 T=   578. E= -.23227795E+03 F= -.23136104E+03 E0= -.23136104E+03  EK= 0.94843E+01 SP= -.10E+02 SK= 0.16E-01
   1843 T=   572. E= -.23227776E+03 F= -.23117467E+03 E0= -.23117467E+03  EK= 0.93882E+01 SP= -.11E+02 SK= 0.20E-01
   1844 T=   565. E= -.23227714E+03 F= -.23096309E+03 E0= -.23096309E+03  EK= 0.92767E+01 SP= -.11E+02 SK= 0.25E-01
   1845 T=   558. E= -.23227636E+03 F= -.23073856E+03 E0= -.23073856E+03  EK= 0.91640E+01 SP= -.11E+02 SK= 0.33E-01
   1846 T=   552. E= -.23227549E+03 F= -.23051638E+03 E0= -.23051638E+03  EK= 0.90677E+01 SP= -.11E+02 SK= 0.43E-01
   1847 T=   549. E= -.23227463E+03 F= -.23031268E+03 E0= -.23031268E+03  EK= 0.90060E+01 SP= -.11E+02 SK= 0.55E-01
   1848 T=   548. E= -.23227395E+03 F= -.23014239E+03 E0= -.23014239E+03  EK= 0.89955E+01 SP= -.11E+02 SK= 0.70E-01
   1849 T=   551. E= -.23227348E+03 F= -.23001721E+03 E0= -.23001721E+03  EK= 0.90490E+01 SP= -.11E+02 SK= 0.86E-01
   1850 T=   559. E= -.23227334E+03 F= -.22994434E+03 E0= -.22994434E+03  EK= 0.91740E+01 SP= -.12E+02 SK= 0.10E+00
   1851 T=   571. E= -.23227355E+03 F= -.22992568E+03 E0= -.22992568E+03  EK= 0.93715E+01 SP= -.12E+02 SK= 0.12E+00
   1852 T=   587. E= -.23227421E+03 F= -.22995718E+03 E0= -.22995718E+03  EK= 0.96350E+01 SP= -.12E+02 SK= 0.12E+00
   1853 T=   606. E= -.23227533E+03 F= -.23002843E+03 E0= -.23002843E+03  EK= 0.99497E+01 SP= -.12E+02 SK= 0.12E+00
   1854 T=   627. E= -.23227687E+03 F= -.23012338E+03 E0= -.23012338E+03  EK= 0.10293E+02 SP= -.13E+02 SK= 0.12E+00
   1855 T=   648. E= -.23227837E+03 F= -.23022246E+03 E0= -.23022246E+03  EK= 0.10637E+02 SP= -.13E+02 SK= 0.10E+00
   1856 T=   667. E= -.23227969E+03 F= -.23030771E+03 E0= -.23030771E+03  EK= 0.10953E+02 SP= -.13E+02 SK= 0.82E-01
   1857 T=   683. E= -.23228072E+03 F= -.23036537E+03 E0= -.23036537E+03  EK= 0.11216E+02 SP= -.13E+02 SK= 0.58E-01
   1858 T=   695. E= -.23228143E+03 F= -.23038629E+03 E0= -.23038629E+03  EK= 0.11408E+02 SP= -.13E+02 SK= 0.35E-01
   1859 T=   702. E= -.23228184E+03 F= -.23036547E+03 E0= -.23036547E+03  EK= 0.11516E+02 SP= -.13E+02 SK= 0.17E-01
   1860 T=   703. E= -.23228179E+03 F= -.23030103E+03 E0= -.23030103E+03  EK= 0.11532E+02 SP= -.14E+02 SK= 0.47E-02
   1861 T=   698. E= -.23228152E+03 F= -.23019472E+03 E0= -.23019472E+03  EK= 0.11458E+02 SP= -.14E+02 SK= 0.73E-04
   1862 T=   688. E= -.23228095E+03 F= -.23005077E+03 E0= -.23005077E+03  EK= 0.11299E+02 SP= -.14E+02 SK= 0.22E-02
   1863 T=   674. E= -.23228020E+03 F= -.22987555E+03 E0= -.22987555E+03  EK= 0.11068E+02 SP= -.13E+02 SK= 0.91E-02
   1864 T=   657. E= -.23227931E+03 F= -.22967709E+03 E0= -.22967709E+03  EK= 0.10781E+02 SP= -.13E+02 SK= 0.18E-01
   1865 T=   637. E= -.23227832E+03 F= -.22946498E+03 E0= -.22946498E+03  EK= 0.10458E+02 SP= -.13E+02 SK= 0.26E-01
   1866 T=   616. E= -.23227731E+03 F= -.22925086E+03 E0= -.22925086E+03  EK= 0.10120E+02 SP= -.13E+02 SK= 0.32E-01
   1867 T=   596. E= -.23227631E+03 F= -.22904761E+03 E0= -.22904761E+03  EK= 0.97900E+01 SP= -.13E+02 SK= 0.34E-01
   1868 T=   578. E= -.23227540E+03 F= -.22886891E+03 E0= -.22886891E+03  EK= 0.94892E+01 SP= -.13E+02 SK= 0.31E-01
   1869 T=   563. E= -.23227484E+03 F= -.22872781E+03 E0= -.22872781E+03  EK= 0.92372E+01 SP= -.13E+02 SK= 0.25E-01
   1870 T=   551. E= -.23227449E+03 F= -.22863371E+03 E0= -.22863371E+03  EK= 0.90481E+01 SP= -.13E+02 SK= 0.18E-01
   1871 T=   544. E= -.23227448E+03 F= -.22859232E+03 E0= -.22859232E+03  EK= 0.89306E+01 SP= -.13E+02 SK= 0.11E-01
   1872 T=   541. E= -.23227460E+03 F= -.22860498E+03 E0= -.22860498E+03  EK= 0.88876E+01 SP= -.13E+02 SK= 0.51E-02
   1873 T=   543. E= -.23227497E+03 F= -.22866927E+03 E0= -.22866927E+03  EK= 0.89170E+01 SP= -.13E+02 SK= 0.14E-02
   1874 T=   549. E= -.23227546E+03 F= -.22877899E+03 E0= -.22877899E+03  EK= 0.90119E+01 SP= -.13E+02 SK= 0.49E-04
   1875 T=   558. E= -.23227606E+03 F= -.22892515E+03 E0= -.22892515E+03  EK= 0.91616E+01 SP= -.13E+02 SK= 0.39E-03
   1876 T=   570. E= -.23227668E+03 F= -.22909705E+03 E0= -.22909705E+03  EK= 0.93525E+01 SP= -.13E+02 SK= 0.16E-02
   1877 T=   583. E= -.23227725E+03 F= -.22928362E+03 E0= -.22928362E+03  EK= 0.95699E+01 SP= -.13E+02 SK= 0.29E-02
   1878 T=   597. E= -.23227776E+03 F= -.22947488E+03 E0= -.22947488E+03  EK= 0.97991E+01 SP= -.13E+02 SK= 0.34E-02
   1879 T=   611. E= -.23227826E+03 F= -.22966260E+03 E0= -.22966260E+03  EK= 0.10026E+02 SP= -.13E+02 SK= 0.31E-02
   1880 T=   624. E= -.23227868E+03 F= -.22983966E+03 E0= -.22983966E+03  EK= 0.10239E+02 SP= -.13E+02 SK= 0.20E-02
   1881 T=   635. E= -.23227902E+03 F= -.23000047E+03 E0= -.23000047E+03  EK= 0.10426E+02 SP= -.13E+02 SK= 0.71E-03
   1882 T=   644. E= -.23227931E+03 F= -.23014070E+03 E0= -.23014070E+03  EK= 0.10577E+02 SP= -.13E+02 SK= 0.69E-05
   1883 T=   651. E= -.23227969E+03 F= -.23025645E+03 E0= -.23025645E+03  EK= 0.10683E+02 SP= -.13E+02 SK= 0.68E-03
   1884 T=   654. E= -.23227995E+03 F= -.23034316E+03 E0= -.23034316E+03  EK= 0.10738E+02 SP= -.13E+02 SK= 0.33E-02
   1885 T=   654. E= -.23228005E+03 F= -.23039697E+03 E0= -.23039697E+03  EK= 0.10735E+02 SP= -.13E+02 SK= 0.81E-02
   1886 T=   650. E= -.23228003E+03 F= -.23041507E+03 E0= -.23041507E+03  EK= 0.10673E+02 SP= -.13E+02 SK= 0.15E-01
   1887 T=   643. E= -.23227978E+03 F= -.23039585E+03 E0= -.23039585E+03  EK= 0.10552E+02 SP= -.12E+02 SK= 0.22E-01
   1888 T=   632. E= -.23227930E+03 F= -.23034044E+03 E0= -.23034044E+03  EK= 0.10377E+02 SP= -.12E+02 SK= 0.30E-01
   1889 T=   619. E= -.23227868E+03 F= -.23025290E+03 E0= -.23025290E+03  EK= 0.10159E+02 SP= -.12E+02 SK= 0.35E-01
   1890 T=   604. E= -.23227795E+03 F= -.23013938E+03 E0= -.23013938E+03  EK= 0.99092E+01 SP= -.12E+02 SK= 0.38E-01
   1891 T=   587. E= -.23227729E+03 F= -.23000778E+03 E0= -.23000778E+03  EK= 0.96433E+01 SP= -.12E+02 SK= 0.38E-01
   1892 T=   571. E= -.23227667E+03 F= -.22986663E+03 E0= -.22986663E+03  EK= 0.93758E+01 SP= -.12E+02 SK= 0.33E-01
       N       E                     dE             d eps       ncg     rms          rms(c)
RMM:   1    -0.215628140015E+03    0.66177E+01   -0.13971E+03   129   0.520E+01
RMM:   2    -0.232072793208E+03   -0.16445E+02   -0.12701E+02   129   0.162E+01
RMM:   3    -0.234333631560E+03   -0.22608E+01   -0.19428E+01   129   0.604E+00
RMM:   4    -0.234756021440E+03   -0.42239E+00   -0.38797E+00   261   0.267E+00
RMM:   5    -0.234896414333E+03   -0.14039E+00   -0.13517E+00   270   0.128E+00    0.843E+00
RMM:   6    -0.224612005022E+03    0.10284E+02   -0.16819E+01   290   0.306E+00    0.360E+00
RMM:   7    -0.223513149565E+03    0.10989E+01   -0.24877E+00   258   0.158E+00    0.166E+00
RMM:   8    -0.223394016871E+03    0.11913E+00   -0.81710E-01   259   0.897E-01    0.770E-01
RMM:   9    -0.223388242612E+03    0.57743E-02   -0.15248E-01   261   0.479E-01    0.364E-01
RMM:  10    -0.223389588544E+03   -0.13459E-02   -0.42485E-02   261   0.250E-01    0.151E-01
RMM:  11    -0.223390263826E+03   -0.67528E-03   -0.10803E-02   233   0.125E-01
   1893 T=   555. E= -.22594983E+03 F= -.22339026E+03 E0= -.22337303E+03  EK= 0.91135E+01 SP= -.12E+02 SK= 0.26E-01
   1894 T=   541. E= -.23228851E+03 F= -.22959707E+03 E0= -.22959707E+03  EK= 0.88880E+01 SP= -.12E+02 SK= 0.17E-01
   1895 T=   530. E= -.23228801E+03 F= -.22948782E+03 E0= -.22948782E+03  EK= 0.87085E+01 SP= -.12E+02 SK= 0.90E-02
   1896 T=   523. E= -.23228765E+03 F= -.22940618E+03 E0= -.22940618E+03  EK= 0.85820E+01 SP= -.11E+02 SK= 0.28E-02
   1897 T=   519. E= -.23228735E+03 F= -.22935945E+03 E0= -.22935945E+03  EK= 0.85175E+01 SP= -.11E+02 SK= 0.46E-04
   1898 T=   519. E= -.23228719E+03 F= -.22935310E+03 E0= -.22935310E+03  EK= 0.85214E+01 SP= -.11E+02 SK= 0.16E-02
   1899 T=   524. E= -.23228727E+03 F= -.22938990E+03 E0= -.22938990E+03  EK= 0.85962E+01 SP= -.12E+02 SK= 0.73E-02
   1900 T=   532. E= -.23228757E+03 F= -.22946826E+03 E0= -.22946826E+03  EK= 0.87397E+01 SP= -.12E+02 SK= 0.16E-01
   1901 T=   545. E= -.23228819E+03 F= -.22958226E+03 E0= -.22958226E+03  EK= 0.89439E+01 SP= -.12E+02 SK= 0.26E-01
   1902 T=   560. E= -.23228897E+03 F= -.22972219E+03 E0= -.22972219E+03  EK= 0.91963E+01 SP= -.12E+02 SK= 0.36E-01
   1903 T=   578. E= -.23228984E+03 F= -.22987600E+03 E0= -.22987600E+03  EK= 0.94808E+01 SP= -.12E+02 SK= 0.43E-01
   1904 T=   596. E= -.23229074E+03 F= -.23003103E+03 E0= -.23003103E+03  EK= 0.97790E+01 SP= -.12E+02 SK= 0.46E-01
   1905 T=   614. E= -.23229159E+03 F= -.23017565E+03 E0= -.23017565E+03  EK= 0.10073E+02 SP= -.12E+02 SK= 0.45E-01
   1906 T=   630. E= -.23229225E+03 F= -.23030049E+03 E0= -.23030049E+03  EK= 0.10345E+02 SP= -.12E+02 SK= 0.39E-01
   1907 T=   645. E= -.23229284E+03 F= -.23039966E+03 E0= -.23039966E+03  EK= 0.10581E+02 SP= -.13E+02 SK= 0.30E-01
   1908 T=   656. E= -.23229326E+03 F= -.23046950E+03 E0= -.23046950E+03  EK= 0.10772E+02 SP= -.13E+02 SK= 0.21E-01
   1909 T=   664. E= -.23229391E+03 F= -.23050783E+03 E0= -.23050783E+03  EK= 0.10906E+02 SP= -.13E+02 SK= 0.12E-01
   1910 T=   669. E= -.23229430E+03 F= -.23051112E+03 E0= -.23051112E+03  EK= 0.10977E+02 SP= -.13E+02 SK= 0.46E-02
   1911 T=   669. E= -.23229413E+03 F= -.23047794E+03 E0= -.23047794E+03  EK= 0.10981E+02 SP= -.13E+02 SK= 0.71E-03
   1912 T=   665. E= -.23229342E+03 F= -.23041256E+03 E0= -.23041256E+03  EK= 0.10922E+02 SP= -.13E+02 SK= 0.19E-03
       N       E                     dE             d eps       ncg     rms          rms(c)
RMM:   1    -0.224596448504E+03   -0.12069E+01   -0.58147E+02   129   0.348E+01
RMM:   2    -0.232027518114E+03   -0.74311E+01   -0.60474E+01   129   0.116E+01
RMM:   3    -0.233185353395E+03   -0.11578E+01   -0.10612E+01   129   0.470E+00
RMM:   4    -0.233412472496E+03   -0.22712E+00   -0.21365E+00   258   0.207E+00
RMM:   5    -0.233482526623E+03   -0.70054E-01   -0.68575E-01   260   0.101E+00    0.758E+00
RMM:   6    -0.225080045415E+03    0.84025E+01   -0.14319E+01   316   0.271E+00    0.333E+00
RMM:   7    -0.224138309103E+03    0.94174E+00   -0.15708E+00   258   0.121E+00    0.138E+00
RMM:   8    -0.224058651886E+03    0.79657E-01   -0.40792E-01   258   0.669E-01    0.667E-01
RMM:   9    -0.224048821742E+03    0.98301E-02   -0.80277E-02   259   0.335E-01    0.340E-01
RMM:  10    -0.224047478798E+03    0.13429E-02   -0.25665E-02   263   0.184E-01
   1913 T=   658. E= -.22601858E+03 F= -.22404748E+03 E0= -.22402465E+03  EK= 0.10807E+02 SP= -.13E+02 SK= 0.26E-02
   1914 T=   649. E= -.23229373E+03 F= -.23022433E+03 E0= -.23022433E+03  EK= 0.10657E+02 SP= -.13E+02 SK= 0.69E-02
   1915 T=   638. E= -.23229343E+03 F= -.23011564E+03 E0= -.23011564E+03  EK= 0.10477E+02 SP= -.13E+02 SK= 0.12E-01
   1916 T=   626. E= -.23229310E+03 F= -.22999990E+03 E0= -.22999990E+03  EK= 0.10273E+02 SP= -.13E+02 SK= 0.17E-01
   1917 T=   613. E= -.23229261E+03 F= -.22987975E+03 E0= -.22987975E+03  EK= 0.10056E+02 SP= -.12E+02 SK= 0.20E-01
   1918 T=   599. E= -.23229183E+03 F= -.22976102E+03 E0= -.22976102E+03  EK= 0.98375E+01 SP= -.12E+02 SK= 0.21E-01
   1919 T=   587. E= -.23229088E+03 F= -.22965395E+03 E0= -.22965395E+03  EK= 0.96324E+01 SP= -.12E+02 SK= 0.20E-01
   1920 T=   576. E= -.23229002E+03 F= -.22957185E+03 E0= -.22957185E+03  EK= 0.94587E+01 SP= -.12E+02 SK= 0.17E-01
   1921 T=   569. E= -.23228947E+03 F= -.22952782E+03 E0= -.22952782E+03  EK= 0.93329E+01 SP= -.12E+02 SK= 0.13E-01
   1922 T=   564. E= -.23228960E+03 F= -.22953077E+03 E0= -.22953077E+03  EK= 0.92658E+01 SP= -.12E+02 SK= 0.93E-02
   1923 T=   564. E= -.23229048E+03 F= -.22958055E+03 E0= -.22958055E+03  EK= 0.92580E+01 SP= -.12E+02 SK= 0.58E-02
   1924 T=   566. E= -.23229174E+03 F= -.22966601E+03 E0= -.22966601E+03  EK= 0.92986E+01 SP= -.12E+02 SK= 0.32E-02
   1925 T=   571. E= -.23229275E+03 F= -.22976954E+03 E0= -.22976954E+03  EK= 0.93696E+01 SP= -.12E+02 SK= 0.15E-02
   1926 T=   576. E= -.23229309E+03 F= -.22987568E+03 E0= -.22987568E+03  EK= 0.94545E+01 SP= -.12E+02 SK= 0.58E-03
   1927 T=   581. E= -.23229289E+03 F= -.22997704E+03 E0= -.22997704E+03  EK= 0.95437E+01 SP= -.12E+02 SK= 0.15E-03
   1928 T=   587. E= -.23229250E+03 F= -.23007351E+03 E0= -.23007351E+03  EK= 0.96351E+01 SP= -.12E+02 SK= 0.15E-04
   1929 T=   593. E= -.23229212E+03 F= -.23016844E+03 E0= -.23016844E+03  EK= 0.97295E+01 SP= -.12E+02 SK= 0.17E-05
   1930 T=   599. E= -.23229193E+03 F= -.23026541E+03 E0= -.23026541E+03  EK= 0.98282E+01 SP= -.12E+02 SK= 0.97E-05
   1931 T=   605. E= -.23229190E+03 F= -.23036596E+03 E0= -.23036596E+03  EK= 0.99303E+01 SP= -.12E+02 SK= 0.19E-05
   1932 T=   611. E= -.23229210E+03 F= -.23046920E+03 E0= -.23046920E+03  EK= 0.10032E+02 SP= -.12E+02 SK= 0.16E-04
   1933 T=   617. E= -.23229250E+03 F= -.23057132E+03 E0= -.23057132E+03  EK= 0.10128E+02 SP= -.12E+02 SK= 0.17E-03
   1934 T=   622. E= -.23229304E+03 F= -.23066585E+03 E0= -.23066585E+03  EK= 0.10208E+02 SP= -.12E+02 SK= 0.63E-03
   1935 T=   625. E= -.23229357E+03 F= -.23074422E+03 E0= -.23074422E+03  EK= 0.10263E+02 SP= -.12E+02 SK= 0.16E-02
   1936 T=   626. E= -.23229395E+03 F= -.23079746E+03 E0= -.23079746E+03  EK= 0.10281E+02 SP= -.12E+02 SK= 0.31E-02
   1937 T=   625. E= -.23229416E+03 F= -.23081808E+03 E0= -.23081808E+03  EK= 0.10255E+02 SP= -.12E+02 SK= 0.51E-02
   1938 T=   620. E= -.23229404E+03 F= -.23080158E+03 E0= -.23080158E+03  EK= 0.10181E+02 SP= -.12E+02 SK= 0.73E-02
   1939 T=   613. E= -.23229362E+03 F= -.23074809E+03 E0= -.23074809E+03  EK= 0.10063E+02 SP= -.12E+02 SK= 0.93E-02
   1940 T=   604. E= -.23229305E+03 F= -.23066195E+03 E0= -.23066195E+03  EK= 0.99073E+01 SP= -.12E+02 SK= 0.10E-01
   1941 T=   592. E= -.23229243E+03 F= -.23055014E+03 E0= -.23055014E+03  EK= 0.97253E+01 SP= -.11E+02 SK= 0.10E-01
   1942 T=   581. E= -.23229181E+03 F= -.23042128E+03 E0= -.23042128E+03  EK= 0.95301E+01 SP= -.11E+02 SK= 0.89E-02
   1943 T=   569. E= -.23229112E+03 F= -.23028534E+03 E0= -.23028534E+03  EK= 0.93365E+01 SP= -.11E+02 SK= 0.64E-02
   1944 T=   558. E= -.23229050E+03 F= -.23015337E+03 E0= -.23015337E+03  EK= 0.91593E+01 SP= -.11E+02 SK= 0.35E-02
   1945 T=   549. E= -.23228999E+03 F= -.23003621E+03 E0= -.23003621E+03  EK= 0.90130E+01 SP= -.11E+02 SK= 0.11E-02
   1946 T=   543. E= -.23228954E+03 F= -.22994350E+03 E0= -.22994350E+03  EK= 0.89097E+01 SP= -.11E+02 SK= 0.29E-05
   1947 T=   540. E= -.23228923E+03 F= -.22988338E+03 E0= -.22988338E+03  EK= 0.88595E+01 SP= -.11E+02 SK= 0.10E-02
   1948 T=   540. E= -.23228918E+03 F= -.22986128E+03 E0= -.22986128E+03  EK= 0.88685E+01 SP= -.11E+02 SK= 0.45E-02
   1949 T=   544. E= -.23228931E+03 F= -.22987857E+03 E0= -.22987857E+03  EK= 0.89383E+01 SP= -.11E+02 SK= 0.10E-01
   1950 T=   552. E= -.23228966E+03 F= -.22993311E+03 E0= -.22993311E+03  EK= 0.90658E+01 SP= -.11E+02 SK= 0.17E-01
   1951 T=   563. E= -.23229019E+03 F= -.23001926E+03 E0= -.23001926E+03  EK= 0.92435E+01 SP= -.12E+02 SK= 0.24E-01
   1952 T=   576. E= -.23229091E+03 F= -.23012839E+03 E0= -.23012839E+03  EK= 0.94596E+01 SP= -.12E+02 SK= 0.29E-01
   1953 T=   591. E= -.23229171E+03 F= -.23024966E+03 E0= -.23024966E+03  EK= 0.96994E+01 SP= -.12E+02 SK= 0.32E-01
   1954 T=   606. E= -.23229255E+03 F= -.23037158E+03 E0= -.23037158E+03  EK= 0.99460E+01 SP= -.12E+02 SK= 0.33E-01
   1955 T=   620. E= -.23229342E+03 F= -.23048310E+03 E0= -.23048310E+03  EK= 0.10182E+02 SP= -.12E+02 SK= 0.30E-01
   1956 T=   633. E= -.23229414E+03 F= -.23057413E+03 E0= -.23057413E+03  EK= 0.10392E+02 SP= -.12E+02 SK= 0.24E-01
   1957 T=   643. E= -.23229475E+03 F= -.23063684E+03 E0= -.23063684E+03  EK= 0.10561E+02 SP= -.12E+02 SK= 0.17E-01
   1958 T=   651. E= -.23229504E+03 F= -.23066586E+03 E0= -.23066586E+03  EK= 0.10679E+02 SP= -.12E+02 SK= 0.11E-01
   1959 T=   654. E= -.23229512E+03 F= -.23065968E+03 E0= -.23065968E+03  EK= 0.10739E+02 SP= -.12E+02 SK= 0.52E-02
   1960 T=   654. E= -.23229505E+03 F= -.23061969E+03 E0= -.23061969E+03  EK= 0.10742E+02 SP= -.12E+02 SK= 0.15E-02
   1961 T=   651. E= -.23229473E+03 F= -.23054925E+03 E0= -.23054925E+03  EK= 0.10689E+02 SP= -.12E+02 SK= 0.56E-04
   1962 T=   645. E= -.23229431E+03 F= -.23045392E+03 E0= -.23045392E+03  EK= 0.10589E+02 SP= -.12E+02 SK= 0.47E-03
   1963 T=   637. E= -.23229380E+03 F= -.23034038E+03 E0= -.23034038E+03  EK= 0.10451E+02 SP= -.12E+02 SK= 0.21E-02
   1964 T=   627. E= -.23229318E+03 F= -.23021602E+03 E0= -.23021602E+03  EK= 0.10286E+02 SP= -.12E+02 SK= 0.43E-02
   1965 T=   616. E= -.23229252E+03 F= -.23008905E+03 E0= -.23008905E+03  EK= 0.10107E+02 SP= -.12E+02 SK= 0.62E-02
   1966 T=   605. E= -.23229194E+03 F= -.22996818E+03 E0= -.22996818E+03  EK= 0.99287E+01 SP= -.12E+02 SK= 0.73E-02
   1967 T=   595. E= -.23229148E+03 F= -.22986124E+03 E0= -.22986124E+03  EK= 0.97624E+01 SP= -.12E+02 SK= 0.74E-02
   1968 T=   586. E= -.23229104E+03 F= -.22977492E+03 E0= -.22977492E+03  EK= 0.96192E+01 SP= -.12E+02 SK= 0.65E-02
   1969 T=   579. E= -.23229074E+03 F= -.22971512E+03 E0= -.22971512E+03  EK= 0.95081E+01 SP= -.12E+02 SK= 0.51E-02
   1970 T=   575. E= -.23229054E+03 F= -.22968597E+03 E0= -.22968597E+03  EK= 0.94356E+01 SP= -.12E+02 SK= 0.34E-02
   1971 T=   573. E= -.23229044E+03 F= -.22968996E+03 E0= -.22968996E+03  EK= 0.94056E+01 SP= -.12E+02 SK= 0.19E-02
   1972 T=   574. E= -.23229050E+03 F= -.22972767E+03 E0= -.22972767E+03  EK= 0.94191E+01 SP= -.12E+02 SK= 0.82E-03
   1973 T=   577. E= -.23229064E+03 F= -.22979738E+03 E0= -.22979738E+03  EK= 0.94741E+01 SP= -.12E+02 SK= 0.22E-03
   1974 T=   583. E= -.23229079E+03 F= -.22989588E+03 E0= -.22989588E+03  EK= 0.95662E+01 SP= -.12E+02 SK= 0.13E-04
   1975 T=   590. E= -.23229106E+03 F= -.23001893E+03 E0= -.23001893E+03  EK= 0.96890E+01 SP= -.12E+02 SK= 0.13E-04
   1976 T=   599. E= -.23229145E+03 F= -.23016047E+03 E0= -.23016047E+03  EK= 0.98336E+01 SP= -.12E+02 SK= 0.38E-04
   1977 T=   608. E= -.23229200E+03 F= -.23031295E+03 E0= -.23031295E+03  EK= 0.99888E+01 SP= -.12E+02 SK= 0.11E-04
   1978 T=   618. E= -.23229252E+03 F= -.23046737E+03 E0= -.23046737E+03  EK= 0.10142E+02 SP= -.12E+02 SK= 0.26E-04
   1979 T=   626. E= -.23229301E+03 F= -.23061485E+03 E0= -.23061485E+03  EK= 0.10280E+02 SP= -.12E+02 SK= 0.35E-03
   1980 T=   633. E= -.23229342E+03 F= -.23074700E+03 E0= -.23074700E+03  EK= 0.10392E+02 SP= -.12E+02 SK= 0.14E-02
   1981 T=   638. E= -.23229367E+03 F= -.23085682E+03 E0= -.23085682E+03  EK= 0.10466E+02 SP= -.12E+02 SK= 0.34E-02
   1982 T=   639. E= -.23229364E+03 F= -.23093972E+03 E0= -.23093972E+03  EK= 0.10497E+02 SP= -.12E+02 SK= 0.67E-02
   1983 T=   639. E= -.23229336E+03 F= -.23099445E+03 E0= -.23099445E+03  EK= 0.10482E+02 SP= -.12E+02 SK= 0.11E-01
   1984 T=   635. E= -.23229280E+03 F= -.23102377E+03 E0= -.23102377E+03  EK= 0.10426E+02 SP= -.12E+02 SK= 0.16E-01
   1985 T=   630. E= -.23229209E+03 F= -.23103371E+03 E0= -.23103371E+03  EK= 0.10335E+02 SP= -.12E+02 SK= 0.22E-01
   1986 T=   623. E= -.23229126E+03 F= -.23103246E+03 E0= -.23103246E+03  EK= 0.10221E+02 SP= -.12E+02 SK= 0.27E-01
   1987 T=   615. E= -.23229059E+03 F= -.23102890E+03 E0= -.23102890E+03  EK= 0.10096E+02 SP= -.11E+02 SK= 0.31E-01
   1988 T=   607. E= -.23229011E+03 F= -.23103036E+03 E0= -.23103036E+03  EK= 0.99711E+01 SP= -.11E+02 SK= 0.33E-01
   1989 T=   600. E= -.23228986E+03 F= -.23104201E+03 E0= -.23104201E+03  EK= 0.98540E+01 SP= -.11E+02 SK= 0.34E-01
   1990 T=   594. E= -.23228980E+03 F= -.23106589E+03 E0= -.23106589E+03  EK= 0.97499E+01 SP= -.11E+02 SK= 0.34E-01
   1991 T=   588. E= -.23228999E+03 F= -.23110105E+03 E0= -.23110105E+03  EK= 0.96600E+01 SP= -.11E+02 SK= 0.32E-01
   1992 T=   584. E= -.23229030E+03 F= -.23114360E+03 E0= -.23114360E+03  EK= 0.95826E+01 SP= -.11E+02 SK= 0.29E-01
   1993 T=   580. E= -.23229058E+03 F= -.23118801E+03 E0= -.23118801E+03  EK= 0.95139E+01 SP= -.11E+02 SK= 0.26E-01
   1994 T=   576. E= -.23229074E+03 F= -.23122898E+03 E0= -.23122898E+03  EK= 0.94503E+01 SP= -.11E+02 SK= 0.22E-01
   1995 T=   572. E= -.23229084E+03 F= -.23126259E+03 E0= -.23126259E+03  EK= 0.93892E+01 SP= -.10E+02 SK= 0.18E-01
   1996 T=   568. E= -.23229089E+03 F= -.23128606E+03 E0= -.23128606E+03  EK= 0.93289E+01 SP= -.10E+02 SK= 0.14E-01
   1997 T=   565. E= -.23229078E+03 F= -.23129805E+03 E0= -.23129805E+03  EK= 0.92697E+01 SP= -.10E+02 SK= 0.98E-02
   1998 T=   561. E= -.23229060E+03 F= -.23129918E+03 E0= -.23129918E+03  EK= 0.92132E+01 SP= -.10E+02 SK= 0.60E-02
   1999 T=   558. E= -.23229044E+03 F= -.23129130E+03 E0= -.23129130E+03  EK= 0.91622E+01 SP= -.10E+02 SK= 0.30E-02
   2000 T=   556. E= -.23229023E+03 F= -.23127676E+03 E0= -.23127676E+03  EK= 0.91203E+01 SP= -.10E+02 SK= 0.92E-03
