Li                                      
   1.0000000000000000     
    13.7572498126678209    0.0000000000000000    0.0000000000000008
     0.0000000000000024   13.7572498126678209    0.0000000000000008
     0.0000000000000000    0.0000000000000000   13.7572498126678209
   Li
   128
Direct
     0.2331334091942898    0.3222441349392157    0.4419299443959345
    -0.0081719256369580    0.8661688039774165    0.4016747006125866
    -0.0490676776475005    0.2194798467209739   -0.0591734496066587
    -0.2358959509952470    0.2323453240363400    0.3353077684373181
    -0.4350594751325040   -0.0358750555063021    0.1129833490136938
    -0.4482537160133552   -0.3588019958965225    0.6757595353759401
    -0.1014427810220704   -0.5753346942638238    0.6637852624270990
    -0.3920843501092803    0.1280423518238762    0.3639975549855076
    -0.1895332733601471   -0.1015279089258794   -0.1540529269989974
    -0.3068915541849990    0.3270941905440887    0.5314111496343452
     0.1385226497840428    0.2628914342682010    0.2909568763041578
     0.3526219078998933    0.1787567475481706    0.3655855958158767
    -0.0783039267454528    0.2689359855201839   -0.4962301285454005
     0.3181585468391403    0.5793279626354049    0.7298659725285445
     0.2887306921127240    0.1488574691817469    0.5602716017779658
     0.3436774589198717    0.6803793175139691    0.9311088514666211
     0.1265898724426202    0.3020659230049709   -0.4039714050098460
     0.4021837977843433    0.3122320157253544   -0.4419430581196142
    -0.0905033843468166    0.6662571898374816    0.4291154662714694
    -0.0379380049934638    0.8368410965021440    0.0247350348296297
     0.2371132612450671   -0.6068655318613085    1.1530793444978216
     0.1304559034770521    0.8483147854701806    0.2501780968631689
    -0.0240168563966622    0.1353749469504925    0.6632270396146764
    -0.1775966918867307    0.7000116583826385    0.9211855068189407
    -0.1980831163142803    1.2746881327128574    0.0666754774696126
     0.3746444882967467    0.3421837266145063    0.2987089538970712
     0.3051786674184762    0.4559885483755024   -0.0698130420568246
     0.1563946322589730    1.0014030060463328   -0.0742868085027423
    -0.4345099104037540    0.5940955003652386    1.0310155343329890
     0.0779001163143929    1.4681328155343822    0.4459946328971603
    -0.0512613467717398    1.0511048605490136    0.8222789831358785
    -0.2616758406897004    1.0792999194052741    0.8136083453390606
     0.4801875097050965    0.1180235682365484    0.2371089252614256
     0.5610971108095771    0.2948979674586020    0.2065860982501689
     0.0728854344070240   -0.0389340789381595    0.5469682440981125
     0.3319686836988081    0.8978971766867440   -0.0422157501022005
    -0.0986685013241304    0.0530159328774263    0.4085249062669173
    -0.1338868625561778   -0.2372143930179151    0.6961378769068758
    -0.3032911772967840    0.1420250027102259    0.1791004258959088
     0.1326242030434760    0.6278885555626221    0.8238732499329120
    -0.0464799519257535    0.3326996451521227    0.3164359369759269
     0.3659448286644728    0.6555495681374540    0.5188314858757352
     0.2964055507753544   -0.0632208230922336    0.5823279774097329
     1.0481705067031597    0.7488080644154836    0.5796645983339157
     0.4934226537736340    0.1393031347380150    0.5542256963779006
     0.7658179879123871    0.6263396247182880    0.1130242122693949
    -0.4532651346850897   -0.0834771700714790    0.2988189087460864
     0.6248234185309789    0.5073514818150694    1.4815811621016941
     0.0027253444695848    0.7858192956077809   -0.1804180780586491
     0.2188766529084526    0.7010271133678018    0.6124431912035875
     0.0800998733175426    0.1458454365499567    0.4390082629434871
     0.4128900323266793    0.4975949436527736    1.0939414735844764
     0.1724894513108227    0.5956759791282654    0.0070933701646254
     0.6949562460072125    0.6868741498567410    0.5500379853081381
     0.4498016702419111    0.8061050776258761    0.0922781923762401
     0.6724253303989964    0.2861733760653639    0.9050794182940096
     0.5951787458732037    0.2477455673078264   -0.2956498013996575
     0.3725336974005775    0.1620403309399195   -0.0604849335736010
     0.5092776225027510    0.5867178295436853    0.8608657955771229
     0.2333981854278485    0.8390863945312723    0.4493892294109777
    -0.6723144132441425    0.9033252138979398    0.2366239281210397
     0.1463777748914151    0.6591582865458750    0.3718127823633524
     0.2637435039400439    0.4985464593550729    0.3242980088670161
     0.8069110795738428    1.0796558203633044    0.9920011177163017
     0.3407587645144158    0.0068264902014005   -0.2186589402653929
     0.3957295684774502    0.0270032116447303    0.0962037429487119
     0.6988892065518126    0.4225087266861220    0.2693507652326806
     0.5344352142384460    0.0485407273307658    0.7061158557352706
     0.3940052219249719   -0.0301952423731480    0.4138426118577735
     0.3414901180177429    0.2184151042721163    0.7454071391106212
     0.1220448307551728   -0.1143073453704314    0.7459874035622199
     0.6807162049647625    0.9116929291501756    0.6944127673226541
    -0.1621770462514716    0.4648095580697181    0.0920580427660930
     0.7856315529446442    0.8609070195554718    0.5220778261196074
     0.9142659542196361    0.6932795304774174    0.2275225975276942
     0.5047630931652808    0.3706904813150440    0.9183641156970277
     0.5939194759071373   -0.2610041843723926    0.1916704508337234
     0.1920367335077989    0.2662766645792411    0.9205386551830230
     0.4502665842261553    0.5038072498712526    0.4310833311245895
     0.8419179320622523    0.3719142234525118    0.8795931610720948
     0.6292673322756641    0.7873219616948491    0.0000904005540433
     0.5142773203547182    0.2880533535524080    0.4257725950733903
     0.7119523870150618    0.4577396074808557    0.7272531023427228
     0.7750371474696109    0.8029612100833605    0.3119644994637737
     1.0946345013909642   -0.3164714534440216    0.1575108971475006
     0.8555581493535367    0.4419615896327827    0.4568769888760295
     0.5535313768142827   -0.2964040278255259    1.3953204343083223
     1.0097112739056555    0.2948412202886042    0.7883398601840755
     0.5219971570430202    0.8117310004513912   -0.1553010416692959
     0.9271793883022417    0.9461631061694459    0.2080336341014291
     0.1674399448846226    0.9693900687694841    0.1368861486546528
     0.5205071250288674    0.5158709655157743    1.2510093434156619
     0.8429606156199809    0.5873303465597761    0.5934181641250122
     0.7124095630589643    0.6741196722472227   -0.2324836606944651
     0.1584288083724365    1.1103386630366443    0.7550364543777380
     0.0794317240054174    1.5039577044245793    0.6236939164274411
     0.5574696682865899    0.1560452304034784    0.0552094198234033
     0.9114114608757541    0.1501640413108907    0.2024830711398577
     0.4586930600467010   -0.5321581023974821    0.6623447315394005
     1.1964952752074622   -0.0103687391754520    0.3797701968097398
     1.0189550646879557    0.3541125627005954    0.0785888845861005
     0.9238314488613764   -0.4296006715445773    0.7903019168442111
     0.2768840037615574    0.1474859626717474    1.2171893748729532
     1.1918945385677988    0.4052431439513396    0.7505959026761938
     1.0810192346597425    0.5143351373788256    0.2284729719975144
     1.0805392938678371    0.4552900367423911   -0.1173349011275314
     0.8800976185088670   -0.4848135668828237    0.2802727718159281
     1.0806031554697706    0.0683219810579150    0.2504185928080048
     0.4709314268007303   -0.1761059433500755    0.6057169027506447
     0.9679699370451960   -0.3852690959861076    0.9796070528805796
     0.6117239098653561   -0.0671285339202428    0.4971504425980822
     0.9028381638513640    0.9547992300502423    0.6401875262791815
     0.9944697743585486    1.0804700098790583    0.0492201596573833
     0.6986431731747889    1.5081457800617990   -0.0739594093735062
     1.3949690523696701    0.2753529060279685    0.0882186699098096
     1.3065919277271696    0.7969032001343224    0.7628400734495373
     1.6257685068389809    0.3865350322356438    0.0796289761041196
     0.7258957614244630    0.6142320415762079    1.3277661011938915
     0.8091743941769498    0.2486903034213350    0.6957980471112769
     1.2891593936547756    0.6825981005614651    1.1535752072596206
     0.5741402343687905    0.9645761851704667   -0.0975211493306110
     1.1318577856220611    1.2109897255005628    0.1114358283944120
     1.1461805054846628    0.8068189161589485   -0.0107372685518536
     0.7488528180306196    0.9973581749250668    0.3372793075386093
     1.2776086330617489    0.4780553974769803    0.5364558222890468
     0.3940976773732734    0.7202520118958139    1.3086648609263676
     0.7253499520093927    1.0733135290061342    0.5311766060755784
     0.7807232469190161    0.8888288403695789    1.0959083891336965

  0.98807980E-02  0.45493874E-02  0.77800230E-02
  0.40078631E-02  0.10500751E-01  0.54786251E-02
  0.86688169E-02 -0.16861923E-01  0.12185388E-01
  0.12446828E-01  0.19176438E-01  0.10928684E-01
 -0.87646817E-02  0.28333209E-02  0.10913828E-01
 -0.87500284E-02 -0.50886812E-02 -0.52966792E-03
  0.51985015E-02  0.30411601E-02 -0.68565854E-03
  0.50214080E-03 -0.16043902E-01  0.14614472E-01
  0.89852516E-02 -0.57800051E-02  0.10864440E-01
  0.56233901E-02  0.81256611E-02  0.95391473E-02
 -0.70633946E-02  0.14100801E-01 -0.69177100E-02
 -0.41352724E-02 -0.74036488E-02 -0.36394155E-02
 -0.10708369E-01  0.27121456E-02  0.15089631E-01
 -0.68979178E-02  0.77522689E-02  0.47486559E-02
  0.25057084E-02  0.99433152E-02 -0.10166006E-01
 -0.63022204E-02 -0.43723597E-03  0.33390594E-02
  0.11153005E-01 -0.31560722E-02 -0.93800058E-02
 -0.68348227E-02  0.22642219E-02 -0.11219062E-01
  0.69323642E-02  0.76078401E-02 -0.60028284E-02
  0.30180338E-02  0.11557081E-01 -0.34986948E-02
 -0.11167521E-01  0.39686965E-02  0.63299901E-03
 -0.25716967E-02 -0.39076468E-02  0.12971488E-02
 -0.46688401E-02 -0.93840556E-02  0.71710913E-02
 -0.70763539E-02  0.14535862E-02 -0.17843316E-01
 -0.95248141E-02 -0.15331119E-01 -0.36211856E-02
 -0.97732543E-02  0.49993348E-02 -0.10136099E-02
 -0.84119548E-02 -0.13525659E-01 -0.43443024E-02
 -0.25139907E-02  0.41772954E-02  0.53902449E-02
 -0.84710481E-02  0.29214565E-02 -0.83802371E-02
 -0.34016876E-02  0.34977702E-02  0.45550409E-02
 -0.34838757E-03 -0.80479756E-02 -0.32614378E-02
 -0.32210064E-02  0.52117769E-02  0.39822802E-02
 -0.26777597E-02 -0.43721453E-02 -0.12149979E-01
  0.10720945E-01  0.77258455E-02 -0.55524256E-03
  0.10763323E-02 -0.13409790E-01  0.13765171E-02
 -0.60960280E-02  0.21619310E-02 -0.11804128E-02
  0.68488981E-02  0.29113379E-02 -0.90744578E-03
 -0.47659147E-02  0.31719353E-02 -0.12187467E-01
  0.76961418E-02 -0.22435209E-01  0.23403089E-02
  0.29294149E-02  0.17642186E-01  0.61367274E-02
  0.10986126E-01  0.17687907E-02 -0.77152232E-02
 -0.18670167E-02 -0.34667957E-02  0.78113575E-03
 -0.47552505E-03 -0.10972027E-01  0.14885271E-02
  0.44889540E-02 -0.13972509E-01 -0.63538000E-02
 -0.80560547E-03 -0.30959842E-02  0.97565951E-02
  0.44595062E-02 -0.78632881E-02 -0.38644640E-02
  0.73030150E-03  0.37861963E-02 -0.92349270E-02
  0.21330782E-03 -0.79972464E-02  0.38111265E-02
  0.10725424E-01  0.83748746E-02 -0.12185708E-01
 -0.40538136E-02  0.63961082E-02 -0.69306225E-02
 -0.75798070E-02  0.72435168E-02  0.23061594E-02
  0.45653986E-02  0.84363881E-02  0.87124494E-02
  0.44427651E-02  0.19810654E-03 -0.34702634E-02
 -0.13808714E-01  0.83025125E-02  0.25123074E-02
  0.14089599E-01 -0.70446418E-02  0.36616672E-02
  0.16056584E-01  0.38760014E-02 -0.54250072E-02
  0.13061845E-02 -0.47743155E-03  0.43199204E-03
 -0.33984146E-02  0.22156847E-02 -0.97736871E-03
 -0.88481916E-02 -0.72464167E-02 -0.12558043E-02
 -0.66704177E-02  0.10349924E-02  0.90437026E-03
 -0.18418767E-01  0.23751227E-02  0.72476638E-02
 -0.11215566E-01  0.10102257E-01 -0.75421777E-02
  0.10172062E-02 -0.49644702E-02 -0.58480303E-02
 -0.97456753E-03  0.32827909E-02  0.14837173E-01
  0.82131112E-03 -0.53953833E-02 -0.41571458E-02
  0.10979514E-01 -0.70139390E-02 -0.77706343E-02
  0.23562744E-02 -0.19523683E-02 -0.30669287E-02
  0.86685556E-03  0.93856183E-02  0.29266057E-02
  0.19421568E-02  0.14910864E-02  0.43463462E-02
 -0.64608811E-02  0.32988969E-02  0.19277522E-01
  0.12713101E-01 -0.38774994E-03  0.11831641E-01
  0.93385949E-02  0.12399778E-01  0.14358882E-02
 -0.35290335E-02 -0.37182998E-02 -0.40578536E-02
  0.80565324E-02  0.35395890E-03 -0.11236517E-01
 -0.17203614E-02  0.58759018E-02  0.73536582E-02
 -0.34069166E-02 -0.14725443E-01 -0.28077237E-02
 -0.76195575E-02 -0.16943578E-01  0.33475380E-03
  0.27456940E-02  0.10518472E-02  0.54862741E-02
  0.13787487E-02  0.33105718E-01  0.17538146E-01
 -0.52900105E-02  0.50753617E-02  0.92603157E-02
  0.95383543E-02 -0.27489413E-02 -0.36091965E-02
 -0.39314615E-02 -0.58320686E-02  0.10749799E-01
  0.46014160E-02 -0.92941353E-03  0.69034519E-03
 -0.42811907E-02  0.39901730E-02 -0.12118224E-01
  0.36936909E-02 -0.90588103E-02  0.42355199E-02
 -0.25717488E-02  0.10093200E-01 -0.27209463E-01
  0.82436606E-04  0.12119423E-01  0.73855724E-02
 -0.85033945E-02  0.10106457E-01 -0.27994769E-02
  0.10184503E-01  0.62216133E-02 -0.45219620E-02
 -0.10129182E-01 -0.73979248E-02 -0.79215198E-02
  0.52961062E-02  0.34812970E-02  0.18050661E-02
  0.54055014E-02 -0.59066687E-02 -0.72447576E-02
 -0.10338075E-01 -0.96144578E-03 -0.94997988E-02
 -0.27435896E-02  0.46993264E-02  0.94989751E-02
  0.96044273E-03 -0.22250954E-02 -0.16432294E-01
 -0.19711433E-01 -0.21544816E-01 -0.22547086E-01
  0.95575510E-02 -0.13603443E-01 -0.52622948E-02
  0.10987103E-01  0.57472469E-02  0.93127302E-02
  0.82975368E-02 -0.53044823E-02  0.32191566E-04
 -0.70638333E-03 -0.50370671E-02 -0.79609730E-02
 -0.96838433E-02  0.13936677E-01 -0.13285116E-01
 -0.35521450E-02  0.30543896E-02 -0.63757013E-03
 -0.22016238E-02 -0.20102180E-01 -0.11166765E-02
  0.33592979E-02  0.14079905E-02  0.42021694E-02
 -0.34480949E-02 -0.24948051E-02  0.19945010E-01
  0.56607111E-02  0.68476775E-02  0.91188319E-02
 -0.62410303E-02 -0.11588606E-01 -0.92161249E-02
 -0.49025111E-02  0.31400547E-02 -0.27743655E-04
  0.55009520E-02 -0.30528906E-02  0.20206102E-01
  0.28600894E-02 -0.62781685E-02  0.22241768E-02
 -0.88903004E-02 -0.33710335E-02  0.50269807E-03
 -0.51724842E-02  0.56677078E-02  0.13186023E-01
  0.78292836E-02 -0.14301933E-01 -0.13718779E-02
 -0.56289032E-02 -0.29201394E-02 -0.17010181E-01
  0.84516572E-02  0.68361406E-02  0.81670736E-03
 -0.73499158E-02  0.24218061E-02  0.11996891E-01
  0.59210651E-02 -0.27370235E-02  0.88794582E-03
  0.12316672E-01 -0.28271069E-02 -0.10266186E-01
  0.45689397E-02 -0.68264446E-03 -0.62400703E-02
 -0.17522225E-02 -0.13587122E-01  0.46683048E-02
  0.48560210E-02  0.89939613E-02  0.12949518E-01
 -0.11123069E-01 -0.27559386E-02 -0.10817254E-01
  0.47185652E-02  0.52970712E-02  0.15652589E-02
  0.61308368E-02  0.10503878E-01 -0.12845914E-02
  0.12422733E-01 -0.10206337E-01 -0.27136239E-02
  0.12451886E-01  0.19783046E-01  0.98566659E-03
  0.20113801E-02 -0.52714051E-02 -0.75177043E-02
 -0.16986569E-01 -0.26380409E-02  0.84435179E-02

           1
   2.0000000000000000     
 -0.53751647E+00  0.12320311E-02  0.13557136E-02 -0.53881034E+00
  0.23456986E+00  0.32290552E+00  0.44306099E+00
  0.99241073E+00  0.86769538E+00  0.40247117E+00
  0.95219258E+00  0.21702850E+00  0.94259804E+00
  0.76591354E+00  0.23513315E+00  0.33689656E+00
  0.56366633E+00  0.96453685E+00  0.11456998E+00
  0.55047422E+00  0.64045822E+00  0.67568253E+00
  0.89931297E+00  0.42510742E+00  0.66368558E+00
  0.60798865E+00  0.12570992E+00  0.36612218E+00
  0.81177298E+00  0.89763181E+00  0.84752652E+00
  0.69392596E+00  0.32827548E+00  0.53279793E+00
  0.13749579E+00  0.26494138E+00  0.28995119E+00
  0.35202073E+00  0.17768042E+00  0.36505651E+00
  0.92013931E+00  0.26933027E+00  0.50596357E+00
  0.31715574E+00  0.58045497E+00  0.73055632E+00
  0.28909497E+00  0.15030301E+00  0.55879369E+00
  0.34276126E+00  0.68031575E+00  0.93159428E+00
  0.12821127E+00  0.30160710E+00  0.59466495E+00
  0.40119017E+00  0.31256118E+00  0.55642594E+00
  0.91050443E+00  0.66736320E+00  0.42824279E+00
  0.96250075E+00  0.83852124E+00  0.24226402E-01
  0.23548975E+00  0.39371143E+00  0.15317137E+00
  0.13008204E+00  0.84774670E+00  0.25036667E+00
  0.97530440E+00  0.13401071E+00  0.66426956E+00
  0.82137456E+00  0.70022298E+00  0.91859148E+00
  0.80053219E+00  0.27245933E+00  0.66149037E-01
  0.37322367E+00  0.34291052E+00  0.29856160E+00
  0.30395576E+00  0.45402222E+00  0.92955539E+00
  0.15602915E+00  0.20102925E-02  0.92649681E+00
  0.56425859E+00  0.59452022E+00  0.29797233E-01
  0.77405586E-01  0.46864131E+00  0.44665684E+00
  0.94868801E+00  0.49934863E-01  0.82180484E+00
  0.73785590E+00  0.80057597E-01  0.81418728E+00
  0.47979822E+00  0.11738795E+00  0.23534259E+00
  0.56265570E+00  0.29602113E+00  0.20650538E+00
  0.73041909E-01  0.95911643E+00  0.54716836E+00
  0.33108246E+00  0.89821147E+00  0.95761264E+00
  0.90232718E+00  0.53439177E-01  0.40839298E+00
  0.86542028E+00  0.76324674E+00  0.69436609E+00
  0.69782767E+00  0.13876342E+00  0.17944066E+00
  0.13305008E+00  0.63045334E+00  0.82476539E+00
  0.95511719E+00  0.33295679E+00  0.31531431E+00
  0.36567341E+00  0.65504557E+00  0.51894505E+00
  0.29633642E+00  0.93518409E+00  0.58254438E+00
  0.48823101E-01  0.74677677E+00  0.57874090E+00
  0.49330554E+00  0.13885305E+00  0.55564409E+00
  0.76646630E+00  0.62519648E+00  0.11246240E+00
  0.54684104E+00  0.91707326E+00  0.29747635E+00
  0.62485443E+00  0.50618886E+00  0.48213522E+00
  0.42845840E-02  0.78703682E+00  0.81781039E+00
  0.21828732E+00  0.70195697E+00  0.61143563E+00
  0.78997937E-01  0.14689848E+00  0.43934353E+00
  0.41355374E+00  0.49882141E+00  0.95208071E-01
  0.17313533E+00  0.59570478E+00  0.65888706E-02
  0.69294876E+00  0.68808115E+00  0.55040322E+00
  0.45184999E+00  0.80508094E+00  0.92810518E-01
  0.67475960E+00  0.28673686E+00  0.90429074E+00
  0.59536864E+00  0.24767616E+00  0.70441300E+00
  0.37203964E+00  0.16236244E+00  0.93937298E+00
  0.50799129E+00  0.58566436E+00  0.86068323E+00
  0.23242845E+00  0.83923686E+00  0.44952070E+00
  0.32500791E+00  0.90367050E+00  0.23767758E+00
  0.14474728E+00  0.66062693E+00  0.37071632E+00
  0.26389138E+00  0.49782474E+00  0.32344783E+00
  0.80676940E+00  0.80133066E-01  0.99415811E+00
  0.34087816E+00  0.60421207E-02  0.78073670E+00
  0.39732575E+00  0.25983540E-01  0.95074064E-01
  0.69923176E+00  0.42222490E+00  0.26890490E+00
  0.53456124E+00  0.49905189E-01  0.70654132E+00
  0.39428757E+00  0.97002153E+00  0.41447447E+00
  0.34055085E+00  0.21889469E+00  0.74820966E+00
  0.12389303E+00  0.88563628E+00  0.74770746E+00
  0.68207383E+00  0.91349558E+00  0.69462151E+00
  0.83730991E+00  0.46426900E+00  0.91468121E-01
  0.78680279E+00  0.86095848E+00  0.52044428E+00
  0.91401585E+00  0.69413376E+00  0.22859166E+00
  0.50426780E+00  0.36854973E+00  0.91795593E+00
  0.59281176E+00  0.73653259E+00  0.19171912E+00
  0.19243590E+00  0.26642958E+00  0.92133624E+00
  0.45046702E+00  0.50862009E+00  0.43363299E+00
  0.84114888E+00  0.37265207E+00  0.88093941E+00
  0.63065400E+00  0.78692233E+00  0.99956570E+00
  0.51370577E+00  0.28720550E+00  0.42733538E+00
  0.71262133E+00  0.45760449E+00  0.72735346E+00
  0.77441476E+00  0.80354129E+00  0.31020278E+00
  0.95171482E-01  0.68221160E+00  0.15812665E+00
  0.85518427E+00  0.44342892E+00  0.45292133E+00
  0.55354336E+00  0.70535787E+00  0.39639413E+00
  0.84750683E-02  0.29631048E+00  0.78793288E+00
  0.52347776E+00  0.81263549E+00  0.84404157E+00
  0.92570683E+00  0.94508761E+00  0.20688202E+00
  0.16820988E+00  0.96989617E+00  0.13714857E+00
  0.52129297E+00  0.51501227E+00  0.24995612E+00
  0.84145769E+00  0.58719057E+00  0.59203710E+00
  0.71201071E+00  0.67480285E+00  0.76889728E+00
  0.15856844E+00  0.11001518E+00  0.75264756E+00
  0.76566117E-01  0.50082556E+00  0.62041607E+00
  0.55885912E+00  0.15406759E+00  0.54444398E-01
  0.91300874E+00  0.15099956E+00  0.20383694E+00
  0.45989934E+00  0.46707074E+00  0.66234941E+00
  0.19639258E+00  0.98889898E+00  0.37861285E+00
  0.17547248E-01  0.35613865E+00  0.76657522E-01
  0.92331505E+00  0.57084337E+00  0.79020923E+00
  0.27656394E+00  0.14456355E+00  0.21702703E+00
  0.19238291E+00  0.40544783E+00  0.75120681E+00
  0.80517958E-01  0.51397245E+00  0.23137254E+00
  0.81362236E-01  0.45628554E+00  0.88399078E+00
  0.87919031E+00  0.51350171E+00  0.27893295E+00
  0.79890439E-01  0.68778476E-01  0.25041456E+00
  0.47173114E+00  0.82345023E+00  0.60865442E+00
  0.96838573E+00  0.61381820E+00  0.97993040E+00
  0.61043146E+00  0.93238139E+00  0.49722352E+00
  0.90208620E+00  0.95562319E+00  0.64210448E+00
  0.99560798E+00  0.78390825E-01  0.49020719E-01
  0.69782486E+00  0.50772126E+00  0.92356769E+00
  0.39619774E+00  0.27634673E+00  0.88337401E-01
  0.30552341E+00  0.79725528E+00  0.76458416E+00
  0.62662930E+00  0.38613713E+00  0.79758064E-01
  0.72768633E+00  0.61382104E+00  0.32627362E+00
  0.80983862E+00  0.24859106E+00  0.69489088E+00
  0.28890466E+00  0.68062283E+00  0.15425388E+00
  0.57484619E+00  0.96588371E+00  0.90436142E+00
  0.13024074E+00  0.21058907E+00  0.10986324E+00
  0.14686648E+00  0.80758899E+00  0.98949029E+00
  0.74974411E+00  0.99888521E+00  0.33709256E+00
  0.27941462E+00  0.47657162E+00  0.53606132E+00
  0.39590791E+00  0.72312803E+00  0.30880816E+00
  0.72564236E+00  0.72547183E-01  0.53008370E+00
  0.77825378E+00  0.88844533E+00  0.97135890E-01
  0.00000000E+00  0.00000000E+00  0.00000000E+00
  0.00000000E+00  0.00000000E+00  0.00000000E+00
  0.00000000E+00  0.00000000E+00  0.00000000E+00
  0.00000000E+00  0.00000000E+00  0.00000000E+00
  0.00000000E+00  0.00000000E+00  0.00000000E+00
  0.00000000E+00  0.00000000E+00  0.00000000E+00
  0.00000000E+00  0.00000000E+00  0.00000000E+00
  0.00000000E+00  0.00000000E+00  0.00000000E+00
  0.00000000E+00  0.00000000E+00  0.00000000E+00
  0.00000000E+00  0.00000000E+00  0.00000000E+00
  0.00000000E+00  0.00000000E+00  0.00000000E+00
  0.00000000E+00  0.00000000E+00  0.00000000E+00
  0.00000000E+00  0.00000000E+00  0.00000000E+00
  0.00000000E+00  0.00000000E+00  0.00000000E+00
  0.00000000E+00  0.00000000E+00  0.00000000E+00
  0.00000000E+00  0.00000000E+00  0.00000000E+00
  0.00000000E+00  0.00000000E+00  0.00000000E+00
  0.00000000E+00  0.00000000E+00  0.00000000E+00
  0.00000000E+00  0.00000000E+00  0.00000000E+00
  0.00000000E+00  0.00000000E+00  0.00000000E+00
  0.00000000E+00  0.00000000E+00  0.00000000E+00
  0.00000000E+00  0.00000000E+00  0.00000000E+00
  0.00000000E+00  0.00000000E+00  0.00000000E+00
  0.00000000E+00  0.00000000E+00  0.00000000E+00
  0.00000000E+00  0.00000000E+00  0.00000000E+00
  0.00000000E+00  0.00000000E+00  0.00000000E+00
  0.00000000E+00  0.00000000E+00  0.00000000E+00
  0.00000000E+00  0.00000000E+00  0.00000000E+00
  0.00000000E+00  0.00000000E+00  0.00000000E+00
  0.00000000E+00  0.00000000E+00  0.00000000E+00
  0.00000000E+00  0.00000000E+00  0.00000000E+00
  0.00000000E+00  0.00000000E+00  0.00000000E+00
  0.00000000E+00  0.00000000E+00  0.00000000E+00
  0.00000000E+00  0.00000000E+00  0.00000000E+00
  0.00000000E+00  0.00000000E+00  0.00000000E+00
  0.00000000E+00  0.00000000E+00  0.00000000E+00
  0.00000000E+00  0.00000000E+00  0.00000000E+00
  0.00000000E+00  0.00000000E+00  0.00000000E+00
  0.00000000E+00  0.00000000E+00  0.00000000E+00
  0.00000000E+00  0.00000000E+00  0.00000000E+00
  0.00000000E+00  0.00000000E+00  0.00000000E+00
  0.00000000E+00  0.00000000E+00  0.00000000E+00
  0.00000000E+00  0.00000000E+00  0.00000000E+00
  0.00000000E+00  0.00000000E+00  0.00000000E+00
  0.00000000E+00  0.00000000E+00  0.00000000E+00
  0.00000000E+00  0.00000000E+00  0.00000000E+00
  0.00000000E+00  0.00000000E+00  0.00000000E+00
  0.00000000E+00  0.00000000E+00  0.00000000E+00
  0.00000000E+00  0.00000000E+00  0.00000000E+00
  0.00000000E+00  0.00000000E+00  0.00000000E+00
  0.00000000E+00  0.00000000E+00  0.00000000E+00
  0.00000000E+00  0.00000000E+00  0.00000000E+00
  0.00000000E+00  0.00000000E+00  0.00000000E+00
  0.00000000E+00  0.00000000E+00  0.00000000E+00
  0.00000000E+00  0.00000000E+00  0.00000000E+00
  0.00000000E+00  0.00000000E+00  0.00000000E+00
  0.00000000E+00  0.00000000E+00  0.00000000E+00
  0.00000000E+00  0.00000000E+00  0.00000000E+00
  0.00000000E+00  0.00000000E+00  0.00000000E+00
  0.00000000E+00  0.00000000E+00  0.00000000E+00
  0.00000000E+00  0.00000000E+00  0.00000000E+00
  0.00000000E+00  0.00000000E+00  0.00000000E+00
  0.00000000E+00  0.00000000E+00  0.00000000E+00
  0.00000000E+00  0.00000000E+00  0.00000000E+00
  0.00000000E+00  0.00000000E+00  0.00000000E+00
  0.00000000E+00  0.00000000E+00  0.00000000E+00
  0.00000000E+00  0.00000000E+00  0.00000000E+00
  0.00000000E+00  0.00000000E+00  0.00000000E+00
  0.00000000E+00  0.00000000E+00  0.00000000E+00
  0.00000000E+00  0.00000000E+00  0.00000000E+00
  0.00000000E+00  0.00000000E+00  0.00000000E+00
  0.00000000E+00  0.00000000E+00  0.00000000E+00
  0.00000000E+00  0.00000000E+00  0.00000000E+00
  0.00000000E+00  0.00000000E+00  0.00000000E+00
  0.00000000E+00  0.00000000E+00  0.00000000E+00
  0.00000000E+00  0.00000000E+00  0.00000000E+00
  0.00000000E+00  0.00000000E+00  0.00000000E+00
  0.00000000E+00  0.00000000E+00  0.00000000E+00
  0.00000000E+00  0.00000000E+00  0.00000000E+00
  0.00000000E+00  0.00000000E+00  0.00000000E+00
  0.00000000E+00  0.00000000E+00  0.00000000E+00
  0.00000000E+00  0.00000000E+00  0.00000000E+00
  0.00000000E+00  0.00000000E+00  0.00000000E+00
  0.00000000E+00  0.00000000E+00  0.00000000E+00
  0.00000000E+00  0.00000000E+00  0.00000000E+00
  0.00000000E+00  0.00000000E+00  0.00000000E+00
  0.00000000E+00  0.00000000E+00  0.00000000E+00
  0.00000000E+00  0.00000000E+00  0.00000000E+00
  0.00000000E+00  0.00000000E+00  0.00000000E+00
  0.00000000E+00  0.00000000E+00  0.00000000E+00
  0.00000000E+00  0.00000000E+00  0.00000000E+00
  0.00000000E+00  0.00000000E+00  0.00000000E+00
  0.00000000E+00  0.00000000E+00  0.00000000E+00
  0.00000000E+00  0.00000000E+00  0.00000000E+00
  0.00000000E+00  0.00000000E+00  0.00000000E+00
  0.00000000E+00  0.00000000E+00  0.00000000E+00
  0.00000000E+00  0.00000000E+00  0.00000000E+00
  0.00000000E+00  0.00000000E+00  0.00000000E+00
  0.00000000E+00  0.00000000E+00  0.00000000E+00
  0.00000000E+00  0.00000000E+00  0.00000000E+00
  0.00000000E+00  0.00000000E+00  0.00000000E+00
  0.00000000E+00  0.00000000E+00  0.00000000E+00
  0.00000000E+00  0.00000000E+00  0.00000000E+00
  0.00000000E+00  0.00000000E+00  0.00000000E+00
  0.00000000E+00  0.00000000E+00  0.00000000E+00
  0.00000000E+00  0.00000000E+00  0.00000000E+00
  0.00000000E+00  0.00000000E+00  0.00000000E+00
  0.00000000E+00  0.00000000E+00  0.00000000E+00
  0.00000000E+00  0.00000000E+00  0.00000000E+00
  0.00000000E+00  0.00000000E+00  0.00000000E+00
  0.00000000E+00  0.00000000E+00  0.00000000E+00
  0.00000000E+00  0.00000000E+00  0.00000000E+00
  0.00000000E+00  0.00000000E+00  0.00000000E+00
  0.00000000E+00  0.00000000E+00  0.00000000E+00
  0.00000000E+00  0.00000000E+00  0.00000000E+00
  0.00000000E+00  0.00000000E+00  0.00000000E+00
  0.00000000E+00  0.00000000E+00  0.00000000E+00
  0.00000000E+00  0.00000000E+00  0.00000000E+00
  0.00000000E+00  0.00000000E+00  0.00000000E+00
  0.00000000E+00  0.00000000E+00  0.00000000E+00
  0.00000000E+00  0.00000000E+00  0.00000000E+00
  0.00000000E+00  0.00000000E+00  0.00000000E+00
  0.00000000E+00  0.00000000E+00  0.00000000E+00
  0.00000000E+00  0.00000000E+00  0.00000000E+00
  0.00000000E+00  0.00000000E+00  0.00000000E+00
  0.00000000E+00  0.00000000E+00  0.00000000E+00
  0.00000000E+00  0.00000000E+00  0.00000000E+00
  0.00000000E+00  0.00000000E+00  0.00000000E+00
  0.00000000E+00  0.00000000E+00  0.00000000E+00
  0.00000000E+00  0.00000000E+00  0.00000000E+00
  0.00000000E+00  0.00000000E+00  0.00000000E+00
  0.00000000E+00  0.00000000E+00  0.00000000E+00
  0.00000000E+00  0.00000000E+00  0.00000000E+00
  0.00000000E+00  0.00000000E+00  0.00000000E+00
  0.00000000E+00  0.00000000E+00  0.00000000E+00
  0.00000000E+00  0.00000000E+00  0.00000000E+00
  0.00000000E+00  0.00000000E+00  0.00000000E+00
  0.00000000E+00  0.00000000E+00  0.00000000E+00
  0.00000000E+00  0.00000000E+00  0.00000000E+00
  0.00000000E+00  0.00000000E+00  0.00000000E+00
  0.00000000E+00  0.00000000E+00  0.00000000E+00
  0.00000000E+00  0.00000000E+00  0.00000000E+00
  0.00000000E+00  0.00000000E+00  0.00000000E+00
  0.00000000E+00  0.00000000E+00  0.00000000E+00
  0.00000000E+00  0.00000000E+00  0.00000000E+00
  0.00000000E+00  0.00000000E+00  0.00000000E+00
  0.00000000E+00  0.00000000E+00  0.00000000E+00
  0.00000000E+00  0.00000000E+00  0.00000000E+00
  0.00000000E+00  0.00000000E+00  0.00000000E+00
  0.00000000E+00  0.00000000E+00  0.00000000E+00
  0.00000000E+00  0.00000000E+00  0.00000000E+00
  0.00000000E+00  0.00000000E+00  0.00000000E+00
  0.00000000E+00  0.00000000E+00  0.00000000E+00
  0.00000000E+00  0.00000000E+00  0.00000000E+00
  0.00000000E+00  0.00000000E+00  0.00000000E+00
  0.00000000E+00  0.00000000E+00  0.00000000E+00
  0.00000000E+00  0.00000000E+00  0.00000000E+00
  0.00000000E+00  0.00000000E+00  0.00000000E+00
  0.00000000E+00  0.00000000E+00  0.00000000E+00
  0.00000000E+00  0.00000000E+00  0.00000000E+00
  0.00000000E+00  0.00000000E+00  0.00000000E+00
  0.00000000E+00  0.00000000E+00  0.00000000E+00
  0.00000000E+00  0.00000000E+00  0.00000000E+00
  0.00000000E+00  0.00000000E+00  0.00000000E+00
  0.00000000E+00  0.00000000E+00  0.00000000E+00
  0.00000000E+00  0.00000000E+00  0.00000000E+00
  0.00000000E+00  0.00000000E+00  0.00000000E+00
  0.00000000E+00  0.00000000E+00  0.00000000E+00
  0.00000000E+00  0.00000000E+00  0.00000000E+00
  0.00000000E+00  0.00000000E+00  0.00000000E+00
  0.00000000E+00  0.00000000E+00  0.00000000E+00
  0.00000000E+00  0.00000000E+00  0.00000000E+00
  0.00000000E+00  0.00000000E+00  0.00000000E+00
  0.00000000E+00  0.00000000E+00  0.00000000E+00
  0.00000000E+00  0.00000000E+00  0.00000000E+00
  0.00000000E+00  0.00000000E+00  0.00000000E+00
  0.00000000E+00  0.00000000E+00  0.00000000E+00
  0.00000000E+00  0.00000000E+00  0.00000000E+00
  0.00000000E+00  0.00000000E+00  0.00000000E+00
  0.00000000E+00  0.00000000E+00  0.00000000E+00
  0.00000000E+00  0.00000000E+00  0.00000000E+00
  0.00000000E+00  0.00000000E+00  0.00000000E+00
  0.00000000E+00  0.00000000E+00  0.00000000E+00
  0.00000000E+00  0.00000000E+00  0.00000000E+00
  0.00000000E+00  0.00000000E+00  0.00000000E+00
  0.00000000E+00  0.00000000E+00  0.00000000E+00
  0.00000000E+00  0.00000000E+00  0.00000000E+00
  0.00000000E+00  0.00000000E+00  0.00000000E+00
  0.00000000E+00  0.00000000E+00  0.00000000E+00
  0.00000000E+00  0.00000000E+00  0.00000000E+00
  0.00000000E+00  0.00000000E+00  0.00000000E+00
  0.00000000E+00  0.00000000E+00  0.00000000E+00
  0.00000000E+00  0.00000000E+00  0.00000000E+00
  0.00000000E+00  0.00000000E+00  0.00000000E+00
  0.00000000E+00  0.00000000E+00  0.00000000E+00
  0.00000000E+00  0.00000000E+00  0.00000000E+00
  0.00000000E+00  0.00000000E+00  0.00000000E+00
  0.00000000E+00  0.00000000E+00  0.00000000E+00
  0.00000000E+00  0.00000000E+00  0.00000000E+00
  0.00000000E+00  0.00000000E+00  0.00000000E+00
  0.00000000E+00  0.00000000E+00  0.00000000E+00
  0.00000000E+00  0.00000000E+00  0.00000000E+00
  0.00000000E+00  0.00000000E+00  0.00000000E+00
  0.00000000E+00  0.00000000E+00  0.00000000E+00
  0.00000000E+00  0.00000000E+00  0.00000000E+00
  0.00000000E+00  0.00000000E+00  0.00000000E+00
  0.00000000E+00  0.00000000E+00  0.00000000E+00
  0.00000000E+00  0.00000000E+00  0.00000000E+00
  0.00000000E+00  0.00000000E+00  0.00000000E+00
  0.00000000E+00  0.00000000E+00  0.00000000E+00
  0.00000000E+00  0.00000000E+00  0.00000000E+00
  0.00000000E+00  0.00000000E+00  0.00000000E+00
  0.00000000E+00  0.00000000E+00  0.00000000E+00
  0.00000000E+00  0.00000000E+00  0.00000000E+00
  0.00000000E+00  0.00000000E+00  0.00000000E+00
  0.00000000E+00  0.00000000E+00  0.00000000E+00
  0.00000000E+00  0.00000000E+00  0.00000000E+00
  0.00000000E+00  0.00000000E+00  0.00000000E+00
  0.00000000E+00  0.00000000E+00  0.00000000E+00
  0.00000000E+00  0.00000000E+00  0.00000000E+00
  0.00000000E+00  0.00000000E+00  0.00000000E+00
  0.00000000E+00  0.00000000E+00  0.00000000E+00
  0.00000000E+00  0.00000000E+00  0.00000000E+00
  0.00000000E+00  0.00000000E+00  0.00000000E+00
  0.00000000E+00  0.00000000E+00  0.00000000E+00
  0.00000000E+00  0.00000000E+00  0.00000000E+00
  0.00000000E+00  0.00000000E+00  0.00000000E+00
  0.00000000E+00  0.00000000E+00  0.00000000E+00
  0.00000000E+00  0.00000000E+00  0.00000000E+00
  0.00000000E+00  0.00000000E+00  0.00000000E+00
  0.00000000E+00  0.00000000E+00  0.00000000E+00
  0.00000000E+00  0.00000000E+00  0.00000000E+00
  0.00000000E+00  0.00000000E+00  0.00000000E+00
  0.00000000E+00  0.00000000E+00  0.00000000E+00
  0.00000000E+00  0.00000000E+00  0.00000000E+00
  0.00000000E+00  0.00000000E+00  0.00000000E+00
  0.00000000E+00  0.00000000E+00  0.00000000E+00
  0.00000000E+00  0.00000000E+00  0.00000000E+00
  0.00000000E+00  0.00000000E+00  0.00000000E+00
  0.00000000E+00  0.00000000E+00  0.00000000E+00
  0.00000000E+00  0.00000000E+00  0.00000000E+00
  0.00000000E+00  0.00000000E+00  0.00000000E+00
  0.00000000E+00  0.00000000E+00  0.00000000E+00
  0.00000000E+00  0.00000000E+00  0.00000000E+00
  0.00000000E+00  0.00000000E+00  0.00000000E+00
  0.00000000E+00  0.00000000E+00  0.00000000E+00
  0.00000000E+00  0.00000000E+00  0.00000000E+00
  0.00000000E+00  0.00000000E+00  0.00000000E+00
  0.00000000E+00  0.00000000E+00  0.00000000E+00
  0.00000000E+00  0.00000000E+00  0.00000000E+00
  0.00000000E+00  0.00000000E+00  0.00000000E+00
  0.00000000E+00  0.00000000E+00  0.00000000E+00
  0.00000000E+00  0.00000000E+00  0.00000000E+00
  0.00000000E+00  0.00000000E+00  0.00000000E+00
  0.00000000E+00  0.00000000E+00  0.00000000E+00
  0.00000000E+00  0.00000000E+00  0.00000000E+00
