Mg1B2                                  
   1.00000000000000     
     1.5357094241588196   -2.6599267483054190    0.0000000000000000
     1.5357094241588196    2.6599267483054190    0.0000000000000000
     0.0000000000000000    0.0000000000000000    3.5308220899090061
   Mg   B 
     1     2
Direct
 -0.0000000000000000 -0.0000000000000000  0.0000000000000000
  0.6666666666666643  0.3333333333333357  0.5000000000000000
  0.3333333333333357  0.6666666666666643  0.5000000000000000
 
  0.00000000E+00  0.00000000E+00  0.00000000E+00
  0.00000000E+00  0.00000000E+00  0.00000000E+00
  0.00000000E+00  0.00000000E+00  0.00000000E+00
