%chk=He_sto3g.chk
%nproc=2
%mem=1500MB
#p rhf/gen 

He

0 1
He  0.00000000 0.00000000 0.00000000

He     0
S    3   1.00
      0.6362421394D+01       0.1543289673D+00
      0.1158922999D+01       0.5353281423D+00
      0.3136497915D+00       0.4446345422D+00
****

--Link1--
%chk=He_sto6g.chk
%nproc=2
%mem=1500MB
#p rhf/gen 

He

0 1
He  0.00000000 0.00000000 0.00000000

He     0
S    6   1.00
      0.6598456824D+02       0.9163596281D-02
      0.1209819836D+02       0.4936149294D-01
      0.3384639924D+01       0.1685383049D+00
      0.1162715163D+01       0.3705627997D+00
      0.4515163224D+00       0.4164915298D+00
      0.1859593559D+00       0.1303340841D+00
****

--Link1--
%chk=He_631g.chk
%nproc=2
%mem=1500MB
#p rhf/gen 

He

0 1
He  0.00000000 0.00000000 0.00000000

He     0
S    3   1.00
      0.3842163400D+02       0.4013973935D-01
      0.5778030000D+01       0.2612460970D+00
      0.1241774000D+01       0.7931846246D+00
S    1   1.00
      0.2979640000D+00       1.0000000
****

--Link1--
%chk=He_6311g++g3df3pd.chk
%nproc=2
%mem=1500MB
#p rhf/gen

He

0 1
He  0.00000000 0.00000000 0.00000000

He     0
S    3   1.00
     98.12430                0.0287452
     14.76890                0.208061
      3.318830               0.837635
S    1   1.00
      0.874047               1.000000
S    1   1.00
      0.244564               1.000000
P    1   1.00
      1.5000000              1.0000000
P    1   1.00
      0.3750000              1.0000000
D    1   1.00
      2.0000                 1.000000
****

--Link1--
%chk=He_augccpv6z.chk
%nproc=2
%mem=1500MB
#p rhf/gen

He

0 1
He  0.00000000 0.00000000 0.00000000

He     0
S    1   1.00
      5.437000D+00           1.000000D+00
S    1   1.00
      2.088000D+00           1.000000D+00
S    1   1.00
      8.297000D-01           1.000000D+00
S    10   1.00
      4.785000D+03           6.000000D-07
      7.170000D+02           4.700000D-06
      1.632000D+02           2.440000D-05
      4.626000D+01           1.012000D-04
      1.510000D+01           3.486000D-04
      5.437000D+00           9.841000D-04
      2.088000D+00           2.163100D-03
      8.297000D-01           3.490500D-03
      3.366000D-01           3.466000D-03
      1.369000D-01           1.151900D-03
S    1   1.00
      3.366000D-01           1.000000D+00
S    1   1.00
      1.369000D-01           1.000000D+00
S    1   1.00
      0.04473                1.0000
P    1   1.00
      1.610400D+01           1.000000D+00
P    1   1.00
      6.342000D+00           1.000000D+00
P    1   1.00
      2.498000D+00           1.000000D+00
P    1   1.00
      9.840000D-01           1.000000D+00
P    1   1.00
      3.870000D-01           1.000000D+00
P    1   1.00
      0.1280                 1.0000
D    1   1.00
      1.249800D+01           1.000000D+00
D    1   1.00
      4.886000D+00           1.000000D+00
D    1   1.00
      1.910000D+00           1.000000D+00
D    1   1.00
      7.470000D-01           1.000000D+00
D    1   1.00
      0.2410                 1.0000
F    1   1.00
      9.276000D+00           1.000000D+00
F    1   1.00
      3.462000D+00           1.000000D+00
F    1   1.00
      1.292000D+00           1.000000D+00
F    1   1.00
      0.4070                 1.0000
G    1   1.00
      6.586000D+00           1.000000D+00
G    1   1.00
      2.236000D+00           1.000000D+00
G    1   1.00
      0.6860                 1.0000
H    1   1.00
      4.159000D+00           1.0000000
H    1   1.00
      1.0160                 1.0000
****


