       N       E                     dE             d eps       ncg     rms          rms(c)
DAV:   1    -0.217079076292E+02   -0.21708E+02   -0.82185E+03   110   0.298E+02
DAV:   2    -0.987573407647E+02   -0.77049E+02   -0.62266E+02   140   0.552E+01
DAV:   3    -0.106523262278E+03   -0.77659E+01   -0.74200E+01   148   0.142E+01
DAV:   4    -0.106767275708E+03   -0.24401E+00   -0.24176E+00   110   0.281E+00
DAV:   5    -0.106771959458E+03   -0.46837E-02   -0.46824E-02   148   0.407E-01    0.104E+00
RMM:   6    -0.106717720701E+03    0.54239E-01   -0.33173E-03   108   0.144E-01    0.684E-01
RMM:   7    -0.106682873269E+03    0.34847E-01   -0.82892E-03   110   0.246E-01    0.317E-02
RMM:   8    -0.106681757406E+03    0.11159E-02   -0.80244E-04    55   0.109E-01    0.675E-03
RMM:   9    -0.106681715921E+03    0.41485E-04   -0.10090E-04    46   0.288E-02
      1 T=   577. E= -.10242975E+03 F= -.10668172E+03 E0= -.10669718E+03  EK= 0.42520E+01 SP= 0.00E+00 SK= 0.00E+00
       N       E                     dE             d eps       ncg     rms          rms(c)
DAV:   1    -0.106657095076E+03    0.24662E-01   -0.10801E+00   110   0.243E+00    0.244E-01
RMM:   2    -0.106651878782E+03    0.52163E-02   -0.42230E-02   110   0.499E-01    0.841E-02
RMM:   3    -0.106651766496E+03    0.11229E-03   -0.92273E-03   110   0.265E-01
      2 T=   574. E= -.10242513E+03 F= -.10665177E+03 E0= -.10666737E+03  EK= 0.42266E+01 SP= 0.00E+00 SK= 0.00E+00
       N       E                     dE             d eps       ncg     rms          rms(c)
DAV:   1    -0.106560707828E+03    0.91171E-01   -0.52667E-02   140   0.613E-01    0.497E-02
RMM:   2    -0.106561115018E+03   -0.40719E-03   -0.71182E-03   110   0.211E-01
      3 T=   567. E= -.10238691E+03 F= -.10656112E+03 E0= -.10657712E+03  EK= 0.41742E+01 SP= 0.00E+00 SK= 0.00E+00
       N       E                     dE             d eps       ncg     rms          rms(c)
DAV:   1    -0.106420689896E+03    0.14002E+00   -0.58179E-02   156   0.628E-01    0.553E-02
RMM:   2    -0.106421081541E+03   -0.39165E-03   -0.80278E-03   110   0.236E-01
      4 T=   552. E= -.10235474E+03 F= -.10642108E+03 E0= -.10643763E+03  EK= 0.40663E+01 SP= 0.00E+00 SK= 0.00E+00
       N       E                     dE             d eps       ncg     rms          rms(c)
DAV:   1    -0.106230929087E+03    0.18976E+00   -0.62823E-02   148   0.651E-01    0.521E-02
RMM:   2    -0.106231308759E+03   -0.37967E-03   -0.78790E-03   110   0.231E-01
      5 T=   534. E= -.10229845E+03 F= -.10623131E+03 E0= -.10624842E+03  EK= 0.39329E+01 SP= 0.00E+00 SK= 0.00E+00
       N       E                     dE             d eps       ncg     rms          rms(c)
DAV:   1    -0.105998509363E+03    0.23242E+00   -0.60366E-02   140   0.637E-01    0.504E-02
RMM:   2    -0.105998859574E+03   -0.35021E-03   -0.70667E-03   108   0.219E-01
      6 T=   507. E= -.10226260E+03 F= -.10599886E+03 E0= -.10601628E+03  EK= 0.37363E+01 SP= 0.00E+00 SK= 0.00E+00
       N       E                     dE             d eps       ncg     rms          rms(c)
DAV:   1    -0.105733607932E+03    0.26490E+00   -0.52394E-02   140   0.601E-01    0.526E-02
RMM:   2    -0.105733887117E+03   -0.27918E-03   -0.64361E-03   108   0.211E-01
      7 T=   490. E= -.10212510E+03 F= -.10573389E+03 E0= -.10575122E+03  EK= 0.36088E+01 SP= 0.00E+00 SK= 0.00E+00
       N       E                     dE             d eps       ncg     rms          rms(c)
DAV:   1    -0.105444655658E+03    0.28895E+00   -0.57038E-02   140   0.610E-01    0.478E-02
RMM:   2    -0.105444951867E+03   -0.29621E-03   -0.60830E-03   107   0.205E-01
      8 T=   471. E= -.10197660E+03 F= -.10544495E+03 E0= -.10546153E+03  EK= 0.34684E+01 SP= 0.00E+00 SK= 0.00E+00
       N       E                     dE             d eps       ncg     rms          rms(c)
DAV:   1    -0.105132712873E+03    0.31194E+00   -0.50309E-02   140   0.576E-01    0.542E-02
RMM:   2    -0.105132842367E+03   -0.12949E-03   -0.54667E-03   106   0.193E-01
      9 T=   448. E= -.10183332E+03 F= -.10513284E+03 E0= -.10514811E+03  EK= 0.32995E+01 SP= 0.00E+00 SK= 0.00E+00
       N       E                     dE             d eps       ncg     rms          rms(c)
DAV:   1    -0.104808083591E+03    0.32463E+00   -0.45336E-02   140   0.552E-01    0.461E-02
RMM:   2    -0.104808303471E+03   -0.21988E-03   -0.51211E-03   105   0.188E-01
     10 T=   429. E= -.10164561E+03 F= -.10480830E+03 E0= -.10482175E+03  EK= 0.31627E+01 SP= 0.00E+00 SK= 0.00E+00
       N       E                     dE             d eps       ncg     rms          rms(c)
DAV:   1    -0.104478543340E+03    0.32954E+00   -0.52760E-02   140   0.583E-01    0.522E-02
RMM:   2    -0.104478608372E+03   -0.65032E-04   -0.45957E-03   106   0.176E-01
     11 T=   401. E= -.10152534E+03 F= -.10447861E+03 E0= -.10449012E+03  EK= 0.29533E+01 SP= 0.00E+00 SK= 0.00E+00
       N       E                     dE             d eps       ncg     rms          rms(c)
DAV:   1    -0.104158641269E+03    0.31990E+00   -0.59731E-02   140   0.615E-01    0.530E-02
RMM:   2    -0.104158713831E+03   -0.72562E-04   -0.47712E-03   105   0.178E-01
     12 T=   370. E= -.10142927E+03 F= -.10415871E+03 E0= -.10416844E+03  EK= 0.27294E+01 SP= 0.00E+00 SK= 0.00E+00
       N       E                     dE             d eps       ncg     rms          rms(c)
DAV:   1    -0.103873847118E+03    0.28479E+00   -0.56165E-02   140   0.592E-01    0.541E-02
RMM:   2    -0.103873843410E+03    0.37075E-05   -0.43378E-03   105   0.169E-01
     13 T=   355. E= -.10125681E+03 F= -.10387384E+03 E0= -.10388229E+03  EK= 0.26170E+01 SP= 0.00E+00 SK= 0.00E+00
       N       E                     dE             d eps       ncg     rms          rms(c)
DAV:   1    -0.103608399600E+03    0.26545E+00   -0.55708E-02   124   0.590E-01    0.519E-02
RMM:   2    -0.103608421724E+03   -0.22124E-04   -0.41564E-03   110   0.166E-01
     14 T=   345. E= -.10106299E+03 F= -.10360842E+03 E0= -.10361579E+03  EK= 0.25454E+01 SP= 0.00E+00 SK= 0.00E+00
       N       E                     dE             d eps       ncg     rms          rms(c)
DAV:   1    -0.103372915654E+03    0.23548E+00   -0.47252E-02   140   0.538E-01    0.468E-02
RMM:   2    -0.103372961941E+03   -0.46287E-04   -0.32143E-03   102   0.147E-01
     15 T=   327. E= -.10096417E+03 F= -.10337296E+03 E0= -.10337960E+03  EK= 0.24088E+01 SP= 0.00E+00 SK= 0.00E+00
       N       E                     dE             d eps       ncg     rms          rms(c)
DAV:   1    -0.103181983874E+03    0.19093E+00   -0.57768E-02   124   0.586E-01    0.631E-02
RMM:   2    -0.103181795419E+03    0.18846E-03   -0.44019E-03   110   0.167E-01
     16 T=   321. E= -.10081480E+03 F= -.10318180E+03 E0= -.10318796E+03  EK= 0.23670E+01 SP= 0.00E+00 SK= 0.00E+00
       N       E                     dE             d eps       ncg     rms          rms(c)
DAV:   1    -0.103033298645E+03    0.14869E+00   -0.63601E-02   124   0.613E-01    0.567E-02
RMM:   2    -0.103033196778E+03    0.10187E-03   -0.40702E-03   110   0.161E-01
     17 T=   330. E= -.10060125E+03 F= -.10303320E+03 E0= -.10303899E+03  EK= 0.24319E+01 SP= 0.00E+00 SK= 0.00E+00
       N       E                     dE             d eps       ncg     rms          rms(c)
DAV:   1    -0.102934270952E+03    0.99028E-01   -0.67086E-02   124   0.623E-01    0.617E-02
RMM:   2    -0.102934188263E+03    0.82689E-04   -0.46967E-03   110   0.173E-01
     18 T=   332. E= -.10048877E+03 F= -.10293419E+03 E0= -.10293962E+03  EK= 0.24454E+01 SP= 0.00E+00 SK= 0.00E+00
       N       E                     dE             d eps       ncg     rms          rms(c)
DAV:   1    -0.102867168032E+03    0.67103E-01   -0.53215E-02   124   0.568E-01    0.530E-02
RMM:   2    -0.102867193442E+03   -0.25410E-04   -0.42505E-03   109   0.166E-01
     19 T=   320. E= -.10050628E+03 F= -.10286719E+03 E0= -.10287214E+03  EK= 0.23609E+01 SP= 0.00E+00 SK= 0.00E+00
       N       E                     dE             d eps       ncg     rms          rms(c)
DAV:   1    -0.102826298908E+03    0.40869E-01   -0.52448E-02   124   0.566E-01    0.506E-02
RMM:   2    -0.102826342963E+03   -0.44055E-04   -0.41527E-03   110   0.165E-01
     20 T=   317. E= -.10049125E+03 F= -.10282634E+03 E0= -.10283075E+03  EK= 0.23351E+01 SP= 0.00E+00 SK= 0.00E+00
       N       E                     dE             d eps       ncg     rms          rms(c)
DAV:   1    -0.102805943796E+03    0.20355E-01   -0.61721E-02   124   0.612E-01    0.512E-02
RMM:   2    -0.102806024278E+03   -0.80483E-04   -0.44153E-03   110   0.171E-01
     21 T=   323. E= -.10042546E+03 F= -.10280602E+03 E0= -.10280994E+03  EK= 0.23806E+01 SP= 0.00E+00 SK= 0.00E+00
       N       E                     dE             d eps       ncg     rms          rms(c)
DAV:   1    -0.102790000086E+03    0.15944E-01   -0.57843E-02   140   0.596E-01    0.502E-02
RMM:   2    -0.102790124174E+03   -0.12409E-03   -0.47644E-03   106   0.177E-01
     22 T=   331. E= -.10034941E+03 F= -.10279012E+03 E0= -.10279371E+03  EK= 0.24407E+01 SP= 0.00E+00 SK= 0.00E+00
       N       E                     dE             d eps       ncg     rms          rms(c)
DAV:   1    -0.102777578837E+03    0.12421E-01   -0.55323E-02   124   0.579E-01    0.456E-02
RMM:   2    -0.102777731101E+03   -0.15226E-03   -0.42536E-03   110   0.169E-01
     23 T=   334. E= -.10031342E+03 F= -.10277773E+03 E0= -.10278104E+03  EK= 0.24643E+01 SP= 0.00E+00 SK= 0.00E+00
       N       E                     dE             d eps       ncg     rms          rms(c)
DAV:   1    -0.102799681202E+03   -0.22102E-01   -0.59468E-02   140   0.612E-01    0.497E-02
RMM:   2    -0.102799837325E+03   -0.15612E-03   -0.52287E-03   107   0.187E-01
     24 T=   339. E= -.10030290E+03 F= -.10279984E+03 E0= -.10280295E+03  EK= 0.24969E+01 SP= 0.00E+00 SK= 0.00E+00
       N       E                     dE             d eps       ncg     rms          rms(c)
DAV:   1    -0.102847322964E+03   -0.47642E-01   -0.53719E-02   124   0.587E-01    0.484E-02
RMM:   2    -0.102847500434E+03   -0.17747E-03   -0.49557E-03   110   0.181E-01
     25 T=   347. E= -.10029251E+03 F= -.10284750E+03 E0= -.10285056E+03  EK= 0.25550E+01 SP= 0.00E+00 SK= 0.00E+00
       N       E                     dE             d eps       ncg     rms          rms(c)
DAV:   1    -0.102905117925E+03   -0.57795E-01   -0.53603E-02   140   0.598E-01    0.533E-02
RMM:   2    -0.102905269445E+03   -0.15152E-03   -0.58629E-03   107   0.197E-01
     26 T=   368. E= -.10019195E+03 F= -.10290527E+03 E0= -.10290836E+03  EK= 0.27133E+01 SP= 0.00E+00 SK= 0.00E+00
       N       E                     dE             d eps       ncg     rms          rms(c)
DAV:   1    -0.102958202662E+03   -0.53085E-01   -0.54485E-02   132   0.611E-01    0.424E-02
RMM:   2    -0.102958549244E+03   -0.34658E-03   -0.57744E-03   108   0.197E-01
     27 T=   391. E= -.10007881E+03 F= -.10295855E+03 E0= -.10296180E+03  EK= 0.28797E+01 SP= 0.00E+00 SK= 0.00E+00
       N       E                     dE             d eps       ncg     rms          rms(c)
DAV:   1    -0.103019230644E+03   -0.61028E-01   -0.58023E-02   124   0.623E-01    0.541E-02
RMM:   2    -0.103019402428E+03   -0.17178E-03   -0.64162E-03   110   0.206E-01
     28 T=   415. E= -.99961062E+02 F= -.10301940E+03 E0= -.10302293E+03  EK= 0.30583E+01 SP= 0.00E+00 SK= 0.00E+00
       N       E                     dE             d eps       ncg     rms          rms(c)
DAV:   1    -0.103079248451E+03   -0.60018E-01   -0.65163E-02   124   0.660E-01    0.565E-02
RMM:   2    -0.103079531740E+03   -0.28329E-03   -0.71962E-03   110   0.219E-01
     29 T=   440. E= -.99841295E+02 F= -.10307953E+03 E0= -.10308357E+03  EK= 0.32382E+01 SP= 0.00E+00 SK= 0.00E+00
       N       E                     dE             d eps       ncg     rms          rms(c)
DAV:   1    -0.103132429022E+03   -0.53181E-01   -0.57039E-02   140   0.630E-01    0.536E-02
RMM:   2    -0.103132703246E+03   -0.27422E-03   -0.69058E-03   109   0.214E-01
     30 T=   461. E= -.99739156E+02 F= -.10313270E+03 E0= -.10313750E+03  EK= 0.33935E+01 SP= 0.00E+00 SK= 0.00E+00
       N       E                     dE             d eps       ncg     rms          rms(c)
DAV:   1    -0.103168096707E+03   -0.35668E-01   -0.59717E-02   124   0.648E-01    0.533E-02
RMM:   2    -0.103168395831E+03   -0.29912E-03   -0.70436E-03   110   0.219E-01
     31 T=   485. E= -.99595037E+02 F= -.10316840E+03 E0= -.10317395E+03  EK= 0.35734E+01 SP= 0.00E+00 SK= 0.00E+00
       N       E                     dE             d eps       ncg     rms          rms(c)
DAV:   1    -0.103184988571E+03   -0.16892E-01   -0.57613E-02   140   0.646E-01    0.513E-02
RMM:   2    -0.103185327322E+03   -0.33875E-03   -0.71717E-03   109   0.221E-01
     32 T=   493. E= -.99556401E+02 F= -.10318533E+03 E0= -.10319150E+03  EK= 0.36289E+01 SP= 0.00E+00 SK= 0.00E+00
       N       E                     dE             d eps       ncg     rms          rms(c)
DAV:   1    -0.103187157499E+03   -0.21689E-02   -0.53924E-02   124   0.622E-01    0.526E-02
RMM:   2    -0.103187503648E+03   -0.34615E-03   -0.70860E-03   110   0.220E-01
     33 T=   490. E= -.99580505E+02 F= -.10318750E+03 E0= -.10319391E+03  EK= 0.36070E+01 SP= 0.00E+00 SK= 0.00E+00
       N       E                     dE             d eps       ncg     rms          rms(c)
DAV:   1    -0.103158542090E+03    0.28615E-01   -0.53144E-02   140   0.611E-01    0.536E-02
RMM:   2    -0.103158810792E+03   -0.26870E-03   -0.73433E-03   109   0.223E-01
     34 T=   495. E= -.99514972E+02 F= -.10315881E+03 E0= -.10316496E+03  EK= 0.36438E+01 SP= 0.00E+00 SK= 0.00E+00
       N       E                     dE             d eps       ncg     rms          rms(c)
DAV:   1    -0.103121875007E+03    0.36667E-01   -0.60060E-02   124   0.645E-01    0.529E-02
RMM:   2    -0.103122216827E+03   -0.34182E-03   -0.74180E-03   110   0.223E-01
     35 T=   511. E= -.99360380E+02 F= -.10312222E+03 E0= -.10312780E+03  EK= 0.37618E+01 SP= 0.00E+00 SK= 0.00E+00
       N       E                     dE             d eps       ncg     rms          rms(c)
DAV:   1    -0.103062904043E+03    0.58971E-01   -0.62682E-02   124   0.657E-01    0.480E-02
RMM:   2    -0.103063316669E+03   -0.41263E-03   -0.72589E-03   110   0.223E-01
     36 T=   520. E= -.99233226E+02 F= -.10306332E+03 E0= -.10306814E+03  EK= 0.38301E+01 SP= 0.00E+00 SK= 0.00E+00
       N       E                     dE             d eps       ncg     rms          rms(c)
DAV:   1    -0.102994562915E+03    0.68341E-01   -0.57555E-02   124   0.637E-01    0.504E-02
RMM:   2    -0.102995003376E+03   -0.44046E-03   -0.78449E-03   110   0.232E-01
     37 T=   518. E= -.99175321E+02 F= -.10299500E+03 E0= -.10299904E+03  EK= 0.38197E+01 SP= 0.00E+00 SK= 0.00E+00
       N       E                     dE             d eps       ncg     rms          rms(c)
DAV:   1    -0.102908106186E+03    0.86457E-01   -0.54296E-02   140   0.633E-01    0.431E-02
RMM:   2    -0.102908598242E+03   -0.49206E-03   -0.74557E-03   109   0.225E-01
     38 T=   502. E= -.99212487E+02 F= -.10290860E+03 E0= -.10291209E+03  EK= 0.36961E+01 SP= 0.00E+00 SK= 0.00E+00
       N       E                     dE             d eps       ncg     rms          rms(c)
DAV:   1    -0.102823008766E+03    0.85097E-01   -0.62530E-02   124   0.667E-01    0.554E-02
RMM:   2    -0.102823371410E+03   -0.36264E-03   -0.82855E-03   110   0.234E-01
     39 T=   500. E= -.99140802E+02 F= -.10282337E+03 E0= -.10282648E+03  EK= 0.36826E+01 SP= 0.00E+00 SK= 0.00E+00
       N       E                     dE             d eps       ncg     rms          rms(c)
DAV:   1    -0.102748087868E+03    0.74921E-01   -0.51464E-02   140   0.614E-01    0.429E-02
RMM:   2    -0.102748588499E+03   -0.50063E-03   -0.75598E-03   109   0.225E-01
     40 T=   504. E= -.99031971E+02 F= -.10274859E+03 E0= -.10275143E+03  EK= 0.37166E+01 SP= 0.00E+00 SK= 0.00E+00
       N       E                     dE             d eps       ncg     rms          rms(c)
DAV:   1    -0.102683333123E+03    0.64755E-01   -0.53345E-02   124   0.630E-01    0.477E-02
RMM:   2    -0.102683826259E+03   -0.49314E-03   -0.76784E-03   110   0.227E-01
     41 T=   504. E= -.98972753E+02 F= -.10268383E+03 E0= -.10268647E+03  EK= 0.37111E+01 SP= 0.00E+00 SK= 0.00E+00
       N       E                     dE             d eps       ncg     rms          rms(c)
DAV:   1    -0.102620340536E+03    0.62993E-01   -0.45650E-02   140   0.600E-01    0.433E-02
RMM:   2    -0.102620865830E+03   -0.52529E-03   -0.78176E-03   110   0.230E-01
     42 T=   496. E= -.98969565E+02 F= -.10262087E+03 E0= -.10262337E+03  EK= 0.36513E+01 SP= 0.00E+00 SK= 0.00E+00
       N       E                     dE             d eps       ncg     rms          rms(c)
DAV:   1    -0.102573657200E+03    0.46683E-01   -0.56095E-02   124   0.645E-01    0.554E-02
RMM:   2    -0.102574002905E+03   -0.34570E-03   -0.81488E-03   110   0.234E-01
     43 T=   496. E= -.98916485E+02 F= -.10257400E+03 E0= -.10257637E+03  EK= 0.36575E+01 SP= 0.00E+00 SK= 0.00E+00
       N       E                     dE             d eps       ncg     rms          rms(c)
DAV:   1    -0.102533125738E+03    0.40531E-01   -0.50340E-02   140   0.621E-01    0.522E-02
RMM:   2    -0.102533540929E+03   -0.41519E-03   -0.84404E-03   110   0.237E-01
     44 T=   490. E= -.98926864E+02 F= -.10253354E+03 E0= -.10253581E+03  EK= 0.36067E+01 SP= 0.00E+00 SK= 0.00E+00
       N       E                     dE             d eps       ncg     rms          rms(c)
DAV:   1    -0.102493852787E+03    0.39273E-01   -0.52625E-02   124   0.620E-01    0.464E-02
RMM:   2    -0.102494282745E+03   -0.42996E-03   -0.72131E-03   110   0.221E-01
     45 T=   475. E= -.98993763E+02 F= -.10249428E+03 E0= -.10249648E+03  EK= 0.35005E+01 SP= 0.00E+00 SK= 0.00E+00
       N       E                     dE             d eps       ncg     rms          rms(c)
DAV:   1    -0.102479963602E+03    0.13889E-01   -0.55086E-02   124   0.625E-01    0.504E-02
RMM:   2    -0.102480330629E+03   -0.36703E-03   -0.74163E-03   110   0.222E-01
     46 T=   482. E= -.98932509E+02 F= -.10248033E+03 E0= -.10248250E+03  EK= 0.35478E+01 SP= 0.00E+00 SK= 0.00E+00
       N       E                     dE             d eps       ncg     rms          rms(c)
DAV:   1    -0.102465489876E+03    0.14474E-01   -0.50640E-02   140   0.610E-01    0.484E-02
RMM:   2    -0.102465893777E+03   -0.40390E-03   -0.74609E-03   109   0.223E-01
     47 T=   500. E= -.98784608E+02 F= -.10246589E+03 E0= -.10246806E+03  EK= 0.36813E+01 SP= 0.00E+00 SK= 0.00E+00
       N       E                     dE             d eps       ncg     rms          rms(c)
DAV:   1    -0.102468955314E+03   -0.34654E-02   -0.60562E-02   124   0.643E-01    0.601E-02
RMM:   2    -0.102469191955E+03   -0.23664E-03   -0.78477E-03   110   0.226E-01
     48 T=   526. E= -.98592401E+02 F= -.10246919E+03 E0= -.10247136E+03  EK= 0.38768E+01 SP= 0.00E+00 SK= 0.00E+00
       N       E                     dE             d eps       ncg     rms          rms(c)
DAV:   1    -0.102473962967E+03   -0.50077E-02   -0.52099E-02   140   0.614E-01    0.481E-02
RMM:   2    -0.102474376911E+03   -0.41394E-03   -0.70412E-03   109   0.218E-01
     49 T=   552. E= -.98406799E+02 F= -.10247438E+03 E0= -.10247655E+03  EK= 0.40676E+01 SP= 0.00E+00 SK= 0.00E+00
       N       E                     dE             d eps       ncg     rms          rms(c)
DAV:   1    -0.102457446080E+03    0.16517E-01   -0.54760E-02   117   0.630E-01    0.456E-02
RMM:   2    -0.102457939791E+03   -0.49371E-03   -0.78360E-03   110   0.229E-01
     50 T=   559. E= -.98340006E+02 F= -.10245794E+03 E0= -.10246013E+03  EK= 0.41179E+01 SP= 0.00E+00 SK= 0.00E+00
