Li 
 1.0000000000000000
    10.3179373595008652    0.0000000000000000    0.0000000000000006
     0.0000000000000018   10.3179373595008652    0.0000000000000006
     0.0000000000000000    0.0000000000000000   10.3179373595008652
 Li 
  54
Cartesian
  0.0000000000000000  0.0000000000000000  0.0000000000000000
  1.7196562265834778  1.7196562265834776  1.7196562265834778
  0.0000000000000000  0.0000000000000000  3.4393124531669552
  1.7196562265834778  1.7196562265834776  5.1589686797504335
  0.0000000000000000  0.0000000000000000  6.8786249063339104
  1.7196562265834778  1.7196562265834776  8.5982811329173892
  0.0000000000000006  3.4393124531669552  0.0000000000000002
  1.7196562265834785  5.1589686797504326  1.7196562265834781
  0.0000000000000006  3.4393124531669552  3.4393124531669552
  1.7196562265834785  5.1589686797504326  5.1589686797504335
  0.0000000000000006  3.4393124531669552  6.8786249063339104
  1.7196562265834785  5.1589686797504326  8.5982811329173892
  0.0000000000000012  6.8786249063339104  0.0000000000000004
  1.7196562265834789  8.5982811329173874  1.7196562265834783
  0.0000000000000012  6.8786249063339104  3.4393124531669557
  1.7196562265834789  8.5982811329173874  5.1589686797504335
  0.0000000000000012  6.8786249063339104  6.8786249063339104
  1.7196562265834789  8.5982811329173874  8.5982811329173892
  3.4393124531669552  0.0000000000000000  0.0000000000000002
  5.1589686797504335  1.7196562265834776  1.7196562265834781
  3.4393124531669552  0.0000000000000000  3.4393124531669552
  5.1589686797504335  1.7196562265834776  5.1589686797504335
  3.4393124531669552  0.0000000000000000  6.8786249063339104
  5.1589686797504335  1.7196562265834776  8.5982811329173892
  3.4393124531669557  3.4393124531669552  0.0000000000000004
  5.1589686797504335  5.1589686797504326  1.7196562265834783
  3.4393124531669557  3.4393124531669552  3.4393124531669557
  5.1589686797504335  5.1589686797504326  5.1589686797504335
  3.4393124531669557  3.4393124531669552  6.8786249063339104
  5.1589686797504335  5.1589686797504326  8.5982811329173892
  3.4393124531669566  6.8786249063339104  0.0000000000000006
  5.1589686797504344  8.5982811329173874  1.7196562265834785
  3.4393124531669566  6.8786249063339104  3.4393124531669557
  5.1589686797504344  8.5982811329173874  5.1589686797504335
  3.4393124531669566  6.8786249063339104  6.8786249063339113
  5.1589686797504344  8.5982811329173874  8.5982811329173892
  6.8786249063339104  0.0000000000000000  0.0000000000000004
  8.5982811329173892  1.7196562265834776  1.7196562265834783
  6.8786249063339104  0.0000000000000000  3.4393124531669557
  8.5982811329173892  1.7196562265834776  5.1589686797504335
  6.8786249063339104  0.0000000000000000  6.8786249063339104
  8.5982811329173892  1.7196562265834776  8.5982811329173892
  6.8786249063339113  3.4393124531669552  0.0000000000000006
  8.5982811329173892  5.1589686797504326  1.7196562265834785
  6.8786249063339113  3.4393124531669552  3.4393124531669557
  8.5982811329173892  5.1589686797504326  5.1589686797504335
  6.8786249063339113  3.4393124531669552  6.8786249063339113
  8.5982811329173892  5.1589686797504326  8.5982811329173892
  6.8786249063339113  6.8786249063339104  0.0000000000000008
  8.5982811329173892  8.5982811329173874  1.7196562265834787
  6.8786249063339113  6.8786249063339104  3.4393124531669561
  8.5982811329173892  8.5982811329173874  5.1589686797504335
  6.8786249063339113  6.8786249063339104  6.8786249063339113
  8.5982811329173892  8.5982811329173874  8.5982811329173892
