unknown system                          
           1
    10.317937    0.000000    0.000000
     0.000000   10.317937    0.000000
     0.000000    0.000000   10.317937
   Li
    54
Direct configuration=           1
   0.00000000  0.00000000  0.00000000
   0.16666667  0.16666667  0.16666667
   0.00000000  0.00000000  0.33333333
   0.16666667  0.16666667  0.50000000
   0.00000000  0.00000000  0.66666667
   0.16666667  0.16666667  0.83333333
   0.00000000  0.33333333  0.00000000
   0.16666667  0.50000000  0.16666667
   0.00000000  0.33333333  0.33333333
   0.16666667  0.50000000  0.50000000
   0.00000000  0.33333333  0.66666667
   0.16666667  0.50000000  0.83333333
   0.00000000  0.66666667  0.00000000
   0.16666667  0.83333333  0.16666667
   0.00000000  0.66666667  0.33333333
   0.16666667  0.83333333  0.50000000
   0.00000000  0.66666667  0.66666667
   0.16666667  0.83333333  0.83333333
   0.33333333  0.00000000  0.00000000
   0.50000000  0.16666667  0.16666667
   0.33333333  0.00000000  0.33333333
   0.50000000  0.16666667  0.50000000
   0.33333333  0.00000000  0.66666667
   0.50000000  0.16666667  0.83333333
   0.33333333  0.33333333  0.00000000
   0.50000000  0.50000000  0.16666667
   0.33333333  0.33333333  0.33333333
   0.50000000  0.50000000  0.50000000
   0.33333333  0.33333333  0.66666667
   0.50000000  0.50000000  0.83333333
   0.33333333  0.66666667  0.00000000
   0.50000000  0.83333333  0.16666667
   0.33333333  0.66666667  0.33333333
   0.50000000  0.83333333  0.50000000
   0.33333333  0.66666667  0.66666667
   0.50000000  0.83333333  0.83333333
   0.66666667  0.00000000  0.00000000
   0.83333333  0.16666667  0.16666667
   0.66666667  0.00000000  0.33333333
   0.83333333  0.16666667  0.50000000
   0.66666667  0.00000000  0.66666667
   0.83333333  0.16666667  0.83333333
   0.66666667  0.33333333  0.00000000
   0.83333333  0.50000000  0.16666667
   0.66666667  0.33333333  0.33333333
   0.83333333  0.50000000  0.50000000
   0.66666667  0.33333333  0.66666667
   0.83333333  0.50000000  0.83333333
   0.66666667  0.66666667  0.00000000
   0.83333333  0.83333333  0.16666667
   0.66666667  0.66666667  0.33333333
   0.83333333  0.83333333  0.50000000
   0.66666667  0.66666667  0.66666667
   0.83333333  0.83333333  0.83333333
unknown system                          
           1
    10.321860   -0.002895    0.000514
     0.000000   10.318642   -0.002626
     0.000000    0.000000   10.311004
   Li
    54
Direct configuration=           2
  -0.00090441 -0.00135018  0.00300731
   0.16678342  0.16875073  0.16437991
   0.00128404 -0.00054894  0.33253039
   0.16771083  0.16631278  0.50151148
  -0.00014416  0.00041489  0.66621783
   0.16719087  0.16608856  0.83339268
   0.00228776  0.33370170  0.00237684
   0.17011244  0.49841988  0.16940578
  -0.00141994  0.33243605  0.33314430
   0.16635565  0.49899001  0.50131729
  -0.00177276  0.33239293  0.66655011
   0.16652572  0.49793866  0.83095460
  -0.00034613  0.67011675  0.00113569
   0.16755689  0.83209027  0.16809397
  -0.00203589  0.66620748  0.33169143
   0.16728706  0.83239158  0.49772255
  -0.00060363  0.66529870  0.66846453
   0.16672724  0.83037314  0.83319102
   0.33332920 -0.00074307  0.00066073
   0.49902047  0.16653072  0.16823201
   0.33308350  0.00115990  0.33293199
   0.50015939  0.16682586  0.50052522
   0.33664317  0.00187938  0.66480267
   0.49836499  0.16546969  0.83418521
   0.33432421  0.33574474 -0.00053475
   0.50193425  0.49957845  0.17037753
   0.33288703  0.33256136  0.33371562
   0.50217207  0.50144707  0.49743168
   0.33527768  0.33392911  0.66537521
   0.49982804  0.49594090  0.83207024
   0.33294736  0.66537348  0.00039439
   0.50213423  0.83187328  0.16629817
   0.33596635  0.66612558  0.33497124
   0.49877285  0.83225313  0.49739336
   0.33229044  0.66706048  0.66475182
   0.50080092  0.83258535  0.83760970
   0.66439311 -0.00248235  0.00088584
   0.83409281  0.16805140  0.16619180
   0.66774160  0.00240793  0.33262015
   0.83455685  0.16658939  0.49948012
   0.66762523 -0.00133352  0.66789273
   0.83243980  0.16634439  0.83366718
   0.66852657  0.33102676  0.00126804
   0.83206117  0.50146404  0.16639840
   0.66735797  0.33250423  0.33626718
   0.83140722  0.50127855  0.50046402
   0.66551467  0.33416578  0.66710952
   0.83500775  0.50062386  0.83646119
   0.66880275  0.66791017 -0.00090525
   0.83164810  0.83531693  0.16704024
   0.66880867  0.66342493  0.33474678
   0.83150480  0.83440272  0.49863833
   0.66911287  0.66695391  0.66599594
   0.82870090  0.83611432  0.83310687
unknown system                          
           1
    10.324882   -0.005532   -0.000435
     0.000000   10.320367   -0.005580
     0.000000    0.000000   10.305288
   Li
    54
Direct configuration=           3
  -0.00168392 -0.00268154  0.00594436
   0.16675037  0.17074062  0.16203499
   0.00284982 -0.00082508  0.33183478
   0.16883022  0.16627043  0.50275257
   0.00034529  0.00075406  0.66639076
   0.16745002  0.16536694  0.83359979
   0.00399639  0.33412329  0.00473822
   0.17389827  0.49725429  0.17245206
  -0.00266741  0.33192215  0.33281743
   0.16631676  0.49798281  0.50325359
  -0.00349553  0.33162590  0.66659474
   0.16636453  0.49516487  0.82831809
  -0.00081322  0.67390142  0.00229091
   0.16835143  0.83067055  0.16965898
  -0.00444122  0.66581160  0.32990834
   0.16784215  0.83186437  0.49535243
  -0.00115595  0.66311352  0.67058294
   0.16696697  0.82715145  0.83324389
   0.33390983 -0.00168650  0.00165699
   0.49749624  0.16641217  0.16990222
   0.33292481  0.00205740  0.33260549
   0.50068859  0.16676503  0.50165429
   0.33986336  0.00344964  0.66300314
   0.49725244  0.16445037  0.83482463
   0.33532593  0.33801517 -0.00077493
   0.50382172  0.49933503  0.17421258
   0.33236449  0.33218399  0.33441769
   0.50429251  0.50264003  0.49485138
   0.33735786  0.33423160  0.66387861
   0.49982891  0.49157868  0.83084522
   0.33284027  0.66386508 -0.00004106
   0.50386697  0.83081353  0.16648614
   0.33880565  0.66556019  0.33605584
   0.49765964  0.83098454  0.49471421
   0.33144385  0.66744086  0.66294400
   0.50120270  0.83217105  0.84153767
   0.66158976 -0.00507899  0.00215220
   0.83457607  0.16959300  0.16538041
   0.66905750  0.00459481  0.33144155
   0.83551688  0.16670665  0.49866343
   0.66880385 -0.00289980  0.66885030
   0.83201738  0.16627083  0.83424998
   0.67024298  0.32890738  0.00239249
   0.83094366  0.50250734  0.16588474
   0.66800804  0.33123712  0.33891841
   0.82926186  0.50245943  0.50089058
   0.66422959  0.33465282  0.66770738
   0.83644469  0.50159902  0.83914618
   0.67124044  0.66907861 -0.00203973
   0.82981971  0.83747641  0.16746305
   0.67117331  0.66020053  0.33609525
   0.83069942  0.83492138  0.49744156
   0.67173362  0.66673974  0.66573102
   0.82392785  0.83878118  0.83282073
unknown system                          
           1
    10.327606   -0.006991   -0.002691
     0.000000   10.321376   -0.008936
    -0.000000   -0.000000   10.298202
   Li
    54
Direct configuration=           4
  -0.00195467 -0.00342033  0.00844790
   0.16695994  0.17270857  0.15941926
   0.00419566 -0.00089240  0.33147565
   0.17059572  0.16607848  0.50453816
   0.00078221  0.00101963  0.66651299
   0.16764369  0.16522107  0.83377821
   0.00542081  0.33472055  0.00714164
   0.17775614  0.49576309  0.17533197
  -0.00395093  0.33155145  0.33274252
   0.16638119  0.49706766  0.50567285
  -0.00531643  0.33130452  0.66658763
   0.16594310  0.49206837  0.82592501
  -0.00125019  0.67747168  0.00396029
   0.16927217  0.82966299  0.17176640
  -0.00689997  0.66531581  0.32771594
   0.16870958  0.83134862  0.49279067
  -0.00190273  0.66066804  0.67274460
   0.16726698  0.82434997  0.83315964
   0.33440312 -0.00261190  0.00318650
   0.49604415  0.16572881  0.17108260
   0.33282512  0.00308580  0.33234395
   0.50106746  0.16621861  0.50253790
   0.34281055  0.00462090  0.66060769
   0.49616261  0.16348888  0.83573872
   0.33611694  0.34006266 -0.00027310
   0.50504293  0.49885121  0.17816214
   0.33254008  0.33160097  0.33527130
   0.50653935  0.50321030  0.49275922
   0.33966682  0.33492317  0.66162647
   0.49992766  0.48736521  0.83026378
   0.33289578  0.66197266 -0.00059615
   0.50545908  0.82980571  0.16663903
   0.34154145  0.66547038  0.33661307
   0.49688988  0.82951650  0.49218799
   0.33088734  0.66759859  0.66136496
   0.50139907  0.83138974  0.84518078
   0.65840612 -0.00749384  0.00371891
   0.83537588  0.17130101  0.16480281
   0.67044466  0.00659509  0.33035020
   0.83666608  0.16711288  0.49813887
   0.67021009 -0.00443160  0.66916552
   0.83114999  0.16608746  0.83486815
   0.67124039  0.32706713  0.00363171
   0.83009064  0.50300568  0.16548701
   0.66880972  0.32966707  0.34114484
   0.82699783  0.50362736  0.50158355
   0.66274065  0.33475375  0.66762812
   0.83781694  0.50220548  0.84162904
   0.67285981  0.67024058 -0.00359256
   0.82855356  0.83975961  0.16810545
   0.67380587  0.65759414  0.33727297
   0.83041162  0.83511723  0.49635087
   0.67411952  0.66659898  0.66530713
   0.81927203  0.84102889  0.83283497
unknown system                          
           1
    10.330618   -0.008941   -0.002852
     0.000000   10.322639   -0.012296
    -0.000000   -0.000000   10.291998
   Li
    54
Direct configuration=           5
  -0.00228513 -0.00392115  0.01099813
   0.16700657  0.17470144  0.15749367
   0.00576616 -0.00106547  0.33082292
   0.17221019  0.16613931  0.50604167
   0.00111425  0.00143555  0.66645821
   0.16792287  0.16512680  0.83375723
   0.00650145  0.33538545  0.00923125
   0.18149422  0.49435508  0.17802457
  -0.00534059  0.33119560  0.33279988
   0.16677454  0.49640891  0.50829392
  -0.00734156  0.33146509  0.66684761
   0.16599801  0.48930568  0.82430980
  -0.00224361  0.68050472  0.00606737
   0.17014109  0.82901375  0.17344723
  -0.00967599  0.66472370  0.32608962
   0.16981122  0.83086688  0.48978500
  -0.00298892  0.65753663  0.67496128
   0.16810052  0.82178777  0.83289915
   0.33513200 -0.00346897  0.00448010
   0.49470101  0.16440793  0.17177640
   0.33242776  0.00399896  0.33169792
   0.50150596  0.16577634  0.50316945
   0.34593640  0.00613045  0.65797129
   0.49536122  0.16243541  0.83696413
   0.33751717  0.34157245  0.00045315
   0.50677947  0.49775573  0.18214236
   0.33240264  0.33097544  0.33640690
   0.50838700  0.50373852  0.49136913
   0.34196162  0.33606134  0.65992034
   0.49964554  0.48288140  0.82934766
   0.33326946  0.65992734 -0.00112656
   0.50701818  0.82844544  0.16677093
   0.34378451  0.66526640  0.33694650
   0.49616736  0.82854852  0.49037854
   0.33035520  0.66781907  0.65993290
   0.50197206  0.83111973  0.84899466
   0.65569123 -0.00964050  0.00566650
   0.83694977  0.17308274  0.16398104
   0.67188818  0.00846617  0.32903580
   0.83774511  0.16776203  0.49799009
   0.67217206 -0.00521991  0.66961843
   0.83016994  0.16596172  0.83552399
   0.67240481  0.32511435  0.00431681
   0.82993469  0.50319273  0.16442563
   0.67000436  0.32801952  0.34291619
   0.82408569  0.50462981  0.50258084
   0.66161679  0.33415352  0.66735032
   0.83930997  0.50266059  0.84419162
   0.67456167  0.67129788 -0.00524854
   0.82753889  0.84202086  0.16870497
   0.67678661  0.65487676  0.33795709
   0.83009040  0.83564122  0.49438209
   0.67649072  0.66711949  0.66464819
   0.81491370  0.84384733  0.83315142
unknown system                          
           1
    10.332658   -0.010960   -0.001526
     0.000000   10.323520   -0.016721
    -0.000000   -0.000000   10.286966
   Li
    54
Direct configuration=           6
  -0.00201972 -0.00441460  0.01348039
   0.16739916  0.17639859  0.15600425
   0.00714871 -0.00089706  0.33035767
   0.17375323  0.16621654  0.50785066
   0.00101553  0.00154030  0.66601084
   0.16820742  0.16545025  0.83363528
   0.00704747  0.33619535  0.01134236
   0.18525006  0.49329593  0.18079348
  -0.00652954  0.33019781  0.33250580
   0.16705346  0.49564875  0.51046507
  -0.00938540  0.33209483  0.66695191
   0.16555401  0.48636991  0.82283469
  -0.00305360  0.68330231  0.00851938
   0.17052223  0.82854681  0.17521682
  -0.01194438  0.66384242  0.32449172
   0.17070068  0.83023669  0.48654399
  -0.00398836  0.65466396  0.67746245
   0.16876303  0.81941750  0.83264549
   0.33577510 -0.00466052  0.00551714
   0.49334371  0.16262704  0.17213469
   0.33185768  0.00455395  0.33097151
   0.50152690  0.16548628  0.50443847
   0.34808694  0.00744114  0.65583985
   0.49520418  0.16089136  0.83834885
   0.33895088  0.34245092  0.00139841
   0.50812947  0.49626275  0.18612212
   0.33196907  0.33051225  0.33757165
   0.51006301  0.50484937  0.49059214
   0.34474061  0.33705630  0.65891098
   0.49955356  0.47804434  0.82887914
   0.33334044  0.65826132 -0.00174733
   0.50856392  0.82703450  0.16689918
   0.34598989  0.66518312  0.33712869
   0.49497108  0.82782827  0.48864621
   0.32941521  0.66776823  0.65839142
   0.50262218  0.83119574  0.85271314
   0.65315865 -0.01186604  0.00724374
   0.83890005  0.17501190  0.16360178
   0.67373461  0.01056867  0.32764991
   0.83875174  0.16810509  0.49746754
   0.67401500 -0.00647292  0.66992888
   0.82912585  0.16614955  0.83598753
   0.67330381  0.32372443  0.00508213
   0.82962046  0.50319049  0.16411582
   0.67163026  0.32570896  0.34466453
   0.82215249  0.50616633  0.50345427
   0.66051962  0.33335987  0.66742546
   0.84113915  0.50253095  0.84683950
   0.67585111  0.67283574 -0.00658068
   0.82669356  0.84456297  0.16962350
   0.67920198  0.65236549  0.33872795
   0.82939004  0.83611081  0.49215647
   0.67910439  0.66783432  0.66416009
   0.81149392  0.84648285  0.83438156
unknown system                          
           1
    10.335013   -0.013135    0.000110
     0.000000   10.324665   -0.020927
    -0.000000   -0.000000   10.281893
   Li
    54
Direct configuration=           7
  -0.00180419 -0.00449492  0.01553440
   0.16803242  0.17803234  0.15426036
   0.00809009 -0.00023895  0.33083082
   0.17494598  0.16692311  0.51004162
   0.00108218  0.00163027  0.66560433
   0.16843536  0.16554198  0.83336464
   0.00715010  0.33678814  0.01341749
   0.18826191  0.49305230  0.18306109
  -0.00794293  0.32903329  0.33174730
   0.16743773  0.49482145  0.51243256
  -0.01150017  0.33255633  0.66751001
   0.16527747  0.48305608  0.82170193
  -0.00374066  0.68644299  0.01104236
   0.17053591  0.82816292  0.17681525
  -0.01409033  0.66313903  0.32249882
   0.17113252  0.82991722  0.48316697
  -0.00478191  0.65198099  0.67995308
   0.16958990  0.81707477  0.83239436
   0.33638391 -0.00637568  0.00684120
   0.49211895  0.16130672  0.17302040
   0.33162033  0.00494709  0.33023204
   0.50169744  0.16494552  0.50608598
   0.35027064  0.00873524  0.65368009
   0.49542156  0.15887961  0.83966836
   0.34062195  0.34343200  0.00252254
   0.50975825  0.49467641  0.18956294
   0.33200204  0.32975783  0.33850032
   0.51142026  0.50581455  0.49005509
   0.34779148  0.33781311  0.65843434
   0.49992438  0.47314948  0.82879290
   0.33342625  0.65660244 -0.00206656
   0.51043160  0.82564958  0.16706833
   0.34759159  0.66495275  0.33762463
   0.49366863  0.82768570  0.48723189
   0.32822003  0.66761568  0.65668424
   0.50358846  0.83066968  0.85639913
   0.65092612 -0.01393027  0.00821431
   0.84038170  0.17706372  0.16336050
   0.67540101  0.01268629  0.32621387
   0.83971696  0.16877449  0.49759392
   0.67549857 -0.00811587  0.66967853
   0.82797968  0.16630004  0.83710324
   0.67431568  0.32242789  0.00598386
   0.82912557  0.50321013  0.16344283
   0.67310947  0.32358329  0.34644059
   0.82070839  0.50747001  0.50491028
   0.65954379  0.33205951  0.66718718
   0.84280597  0.50206418  0.84931913
   0.67619980  0.67466356 -0.00792727
   0.82551978  0.84702668  0.17022124
   0.68192452  0.64991321  0.33971905
   0.82863868  0.83652081  0.49037730
   0.68198920  0.66835043  0.66372920
   0.80904710  0.84917124  0.83511530
unknown system                          
           1
    10.338000   -0.015485    0.002184
    -0.000000   10.325304   -0.024615
    -0.000000   -0.000000   10.277162
   Li
    54
Direct configuration=           8
  -0.00170348 -0.00412904  0.01727578
   0.16913099  0.17972847  0.15267587
   0.00985945  0.00043533  0.33152387
   0.17685025  0.16793449  0.51209663
   0.00155167  0.00144788  0.66497471
   0.16879506  0.16538627  0.83302980
   0.00707626  0.33770420  0.01565247
   0.19165514  0.49332100  0.18520900
  -0.00901767  0.32742693  0.33071087
   0.16789875  0.49458506  0.51392929
  -0.01388304  0.33290238  0.66887216
   0.16497172  0.47880265  0.82051781
  -0.00436977  0.68905645  0.01356454
   0.17059524  0.82736882  0.17845752
  -0.01621813  0.66266890  0.32101382
   0.17157096  0.82963751  0.48002124
  -0.00574853  0.64917708  0.68247203
   0.17029938  0.81464153  0.83235002
   0.33722563 -0.00862197  0.00793726
   0.49032355  0.15990205  0.17358128
   0.33183211  0.00488545  0.32897713
   0.50244806  0.16432125  0.50813685
   0.35179857  0.01015247  0.65154452
   0.49610955  0.15671445  0.84081466
   0.34186485  0.34425421  0.00338261
   0.51131394  0.49279931  0.19255128
   0.33240186  0.32900348  0.33935293
   0.51263099  0.50648105  0.48942462
   0.35132951  0.33787275  0.65751939
   0.49991364  0.46849580  0.82905998
   0.33381921  0.65477908 -0.00239282
   0.51202789  0.82469050  0.16762421
   0.34946108  0.66460299  0.33791855
   0.49281974  0.82743677  0.48647409
   0.32733430  0.66778782  0.65469419
   0.50444740  0.82998072  0.85919497
   0.64900489 -0.01591988  0.00874836
   0.84207552  0.17912319  0.16308302
   0.67756166  0.01455678  0.32450882
   0.84076652  0.16903163  0.49810054
   0.67663485 -0.00986883  0.66920155
   0.82691658  0.16663159  0.83791643
   0.67514428  0.32165458  0.00709855
   0.82937157  0.50361863  0.16247551
   0.67449946  0.32211787  0.34841385
   0.81947699  0.50834454  0.50646703
   0.65868798  0.33117660  0.66682146
   0.84510567  0.50096929  0.85186190
   0.67624127  0.67655598 -0.00859083
   0.82460725  0.84975778  0.17073849
   0.68479508  0.64790468  0.34068466
   0.82799124  0.83696244  0.48928555
   0.68482723  0.66846824  0.66320455
   0.80713833  0.85145670  0.83563698
unknown system                          
           1
    10.342013   -0.019611    0.002992
    -0.000000   10.325402   -0.027118
    -0.000000   -0.000000   10.271979
   Li
    54
Direct configuration=           9
  -0.00177429 -0.00444500  0.01921030
   0.16968770  0.18124032  0.15124221
   0.01127009  0.00113463  0.33224899
   0.17873414  0.16912355  0.51335668
   0.00234302  0.00142953  0.66445740
   0.16888479  0.16523760  0.83293353
   0.00709213  0.33874144  0.01781528
   0.19505464  0.49351488  0.18695411
  -0.00943834  0.32560919  0.32988893
   0.16877973  0.49444658  0.51584386
  -0.01620682  0.33346735  0.67012798
   0.16425088  0.47469512  0.81966752
  -0.00462570  0.69127600  0.01507536
   0.17040795  0.82695444  0.17970652
  -0.01891875  0.66223975  0.31957244
   0.17201102  0.82934925  0.47697408
  -0.00630578  0.64655889  0.68462607
   0.17150507  0.81218697  0.83260325
   0.33808187 -0.01099869  0.00895843
   0.48872342  0.15848571  0.17326186
   0.33206979  0.00502692  0.32853623
   0.50316740  0.16392254  0.50979739
   0.35308788  0.01086769  0.64948772
   0.49712572  0.15477398  0.84243721
   0.34274155  0.34527742  0.00412878
   0.51278366  0.49070710  0.19551439
   0.33232971  0.32812408  0.34007161
   0.51431684  0.50684599  0.48868417
   0.35437401  0.33729467  0.65664548
   0.49921827  0.46421037  0.82913305
   0.33470348  0.65290321 -0.00330934
   0.51330906  0.82372313  0.16848464
   0.35104733  0.66451523  0.33842751
   0.49270607  0.82712824  0.48627587
   0.32627667  0.66836303  0.65270842
   0.50540014  0.82893981  0.86209748
   0.64679693 -0.01741490  0.00925050
   0.84408403  0.18117729  0.16239027
   0.67993450  0.01625878  0.32304613
   0.84142590  0.16929822  0.49872245
   0.67757528 -0.01131099  0.66873531
   0.82577963  0.16708763  0.83829205
   0.67575642  0.32104927  0.00799545
   0.82952734  0.50360553  0.16074283
   0.67597657  0.32089962  0.35030928
   0.81886977  0.50937781  0.50790996
   0.65833266  0.33081324  0.66663470
   0.84728541  0.49959741  0.85409111
   0.67636235  0.67879224 -0.00909239
   0.82388618  0.85244459  0.17169104
   0.68793098  0.64578427  0.34172289
   0.82766837  0.83692895  0.48808100
   0.68729176  0.66889588  0.66242494
   0.80540852  0.85321121  0.83618756
unknown system                          
           1
    10.346281   -0.023607    0.004534
     0.000000   10.326194   -0.031668
    -0.000000   -0.000000   10.265059
   Li
    54
Direct configuration=          10
  -0.00185115 -0.00454431  0.02085040
   0.17013965  0.18232083  0.14977280
   0.01253267  0.00176259  0.33276563
   0.18041726  0.17012361  0.51421857
   0.00332633  0.00166369  0.66415630
   0.16900168  0.16511526  0.83274481
   0.00672190  0.33981914  0.01979293
   0.19792436  0.49391534  0.18861914
  -0.01035975  0.32371306  0.32892449
   0.16963997  0.49417655  0.51783052
  -0.01880421  0.33426368  0.67099132
   0.16319185  0.47072807  0.81953513
  -0.00509439  0.69374031  0.01668651
   0.17001194  0.82702728  0.18116748
  -0.02164889  0.66189433  0.31833286
   0.17213557  0.82921065  0.47427949
  -0.00732503  0.64374345  0.68630152
   0.17314118  0.81000054  0.83293918
   0.33897692 -0.01361015  0.01018157
   0.48769631  0.15748304  0.17290749
   0.33225113  0.00490683  0.32812204
   0.50408152  0.16395193  0.51125946
   0.35418674  0.01118508  0.64722533
   0.49805064  0.15249104  0.84407034
   0.34381017  0.34645526  0.00472578
   0.51417469  0.48887592  0.19880630
   0.33244463  0.32691469  0.34073926
   0.51600073  0.50640287  0.48818933
   0.35699561  0.33610665  0.65602059
   0.49857758  0.46053926  0.82902681
   0.33556933  0.65048413 -0.00454872
   0.51441549  0.82312954  0.16915324
   0.35240872  0.66495012  0.33901687
   0.49265252  0.82656900  0.48603587
   0.32539546  0.66896770  0.65053574
   0.50613178  0.82750543  0.86476136
   0.64498104 -0.01869114  0.00944578
   0.84629235  0.18280081  0.16165850
   0.68210288  0.01840826  0.32216079
   0.84182667  0.16920260  0.49935739
   0.67817948 -0.01253915  0.66824974
   0.82536462  0.16748066  0.83885152
   0.67591151  0.31970988  0.00857146
   0.83051018  0.50336044  0.15879269
   0.67785797  0.31982964  0.35228184
   0.81859637  0.51037419  0.50954890
   0.65733148  0.33056046  0.66652806
   0.84915128  0.49833894  0.85601670
   0.67642479  0.68052187 -0.00970688
   0.82282301  0.85517525  0.17262810
   0.69117817  0.64366419  0.34218584
   0.82781804  0.83701710  0.48704814
   0.69024949  0.66958167  0.66188884
   0.80412617  0.85444370  0.83593311
unknown system                          
           1
    10.351887   -0.027270    0.005430
     0.000000   10.328124   -0.036390
    -0.000000   -0.000000   10.257622
   Li
    54
Direct configuration=          11
  -0.00155729 -0.00468098  0.02211740
   0.17082050  0.18345951  0.14841911
   0.01416640  0.00195777  0.33370713
   0.18188343  0.17083194  0.51505635
   0.00426963  0.00177236  0.66390608
   0.16881170  0.16579000  0.83276679
   0.00603772  0.34080050  0.02122706
   0.20019781  0.49497514  0.19037487
  -0.01119487  0.32255181  0.32764831
   0.17071055  0.49320389  0.51991478
  -0.02042449  0.33483767  0.67218688
   0.16212280  0.46643331  0.81930983
  -0.00631486  0.69620314  0.01843435
   0.16954334  0.82691425  0.18251470
  -0.02401208  0.66145231  0.31748569
   0.17222028  0.82925573  0.47138262
  -0.00805350  0.64125457  0.68774869
   0.17451046  0.80862943  0.83319093
   0.33943245 -0.01587253  0.01118128
   0.48656570  0.15677929  0.17211068
   0.33194445  0.00429162  0.32780384
   0.50518276  0.16374888  0.51279394
   0.35509416  0.01095400  0.64529520
   0.49914032  0.15047849  0.84537740
   0.34416455  0.34767817  0.00536790
   0.51614547  0.48699765  0.20224579
   0.33262277  0.32525844  0.34141257
   0.51718592  0.50650068  0.48718423
   0.35954241  0.33485768  0.65536283
   0.49807607  0.45713769  0.82910906
   0.33603294  0.64760297 -0.00631105
   0.51546105  0.82214559  0.17069811
   0.35351455  0.66595879  0.33951578
   0.49289645  0.82591640  0.48557030
   0.32427390  0.66903809  0.64846155
   0.50645294  0.82582609  0.86752705
   0.64334946 -0.02039446  0.00949298
   0.84817657  0.18448797  0.16121102
   0.68408681  0.02042251  0.32112478
   0.84230346  0.16914546  0.50026308
   0.67868440 -0.01396472  0.66752821
   0.82502876  0.16840104  0.83958487
   0.67587938  0.31828428  0.00879345
   0.83159517  0.50359342  0.15681757
   0.67930869  0.31861055  0.35380507
   0.81849089  0.51127019  0.51119481
   0.65660305  0.32989441  0.66650539
   0.85065711  0.49734705  0.85807049
   0.67673705  0.68175310 -0.01029382
   0.82165578  0.85806810  0.17318727
   0.69454026  0.64218994  0.34273168
   0.82822309  0.83646159  0.48587529
   0.69311125  0.67000874  0.66153353
   0.80290524  0.85517704  0.83591827
unknown system                          
           1
    10.357328   -0.029448    0.005136
     0.000000   10.330664   -0.043297
    -0.000000   -0.000000   10.251439
   Li
    54
Direct configuration=          12
  -0.00164217 -0.00476939  0.02305738
   0.17177411  0.18407570  0.14693209
   0.01503940  0.00179727  0.33486758
   0.18313195  0.17160795  0.51519300
   0.00606995  0.00266186  0.66329568
   0.16832134  0.16663854  0.83270374
   0.00554941  0.34200898  0.02224337
   0.20263843  0.49614216  0.19166880
  -0.01194024  0.32182967  0.32637569
   0.17173326  0.49233813  0.52208414
  -0.02168383  0.33514842  0.67376436
   0.16092483  0.46186526  0.81879249
  -0.00777341  0.69875247  0.02018810
   0.16918475  0.82752762  0.18398994
  -0.02576381  0.66100853  0.31669806
   0.17267082  0.82995328  0.46853226
  -0.00885882  0.63966045  0.68877384
   0.17627238  0.80744792  0.83282323
   0.33963849 -0.01772149  0.01237052
   0.48538712  0.15671940  0.17122143
   0.33127142  0.00363110  0.32715598
   0.50641793  0.16384326  0.51374601
   0.35596796  0.01043310  0.64351214
   0.49927789  0.14895947  0.84664601
   0.34428885  0.34915847  0.00637084
   0.51833349  0.48576022  0.20527359
   0.33203138  0.32400054  0.34252090
   0.51868706  0.50642321  0.48686699
   0.36227657  0.33379114  0.65496943
   0.49770636  0.45368766  0.82893216
   0.33633746  0.64518693 -0.00862130
   0.51671855  0.82082766  0.17238119
   0.35475768  0.66704858  0.33978793
   0.49362394  0.82493015  0.48559286
   0.32374130  0.66934564  0.64651600
   0.50697916  0.82395107  0.87021602
   0.64190391 -0.02133040  0.00956651
   0.85002550  0.18594952  0.16075859
   0.68541089  0.02315040  0.32065726
   0.84255704  0.16853515  0.50172116
   0.67905173 -0.01511763  0.66663890
   0.82488873  0.16875496  0.84021497
   0.67564353  0.31740720  0.00917530
   0.83287833  0.50403105  0.15558692
   0.68047405  0.31824152  0.35562518
   0.81801465  0.51204256  0.51269722
   0.65619671  0.32893774  0.66608741
   0.85188838  0.49617410  0.85977952
   0.67679821  0.68254031 -0.01021205
   0.82036335  0.86038418  0.17346553
   0.69809559  0.64060152  0.34321446
   0.82862888  0.83618648  0.48485430
   0.69584407  0.67111842  0.66096331
   0.80222160  0.85593486  0.83626759
unknown system                          
           1
    10.363398   -0.032776    0.006710
     0.000000   10.332468   -0.050216
    -0.000000   -0.000000   10.245164
   Li
    54
Direct configuration=          13
  -0.00186638 -0.00458721  0.02347945
   0.17331761  0.18454312  0.14536884
   0.01610595  0.00186425  0.33657314
   0.18435988  0.17235654  0.51538133
   0.00800235  0.00357047  0.66255710
   0.16762114  0.16734227  0.83236521
   0.00529399  0.34322670  0.02304399
   0.20439557  0.49738996  0.19255690
  -0.01312988  0.32118542  0.32561300
   0.17282688  0.49177659  0.52300833
  -0.02203275  0.33578888  0.67534297
   0.16036644  0.45734177  0.81878351
  -0.00930211  0.70118843  0.02227223
   0.16896280  0.82858023  0.18557514
  -0.02725573  0.66037846  0.31651681
   0.17305164  0.83075717  0.46618641
  -0.00944128  0.63860193  0.68941155
   0.17781662  0.80618832  0.83279819
   0.33960831 -0.01931612  0.01324854
   0.48480778  0.15610281  0.17032728
   0.33016595  0.00361114  0.32693170
   0.50762853  0.16353855  0.51399414
   0.35633278  0.00982691  0.64169404
   0.49901766  0.14775048  0.84792607
   0.34434199  0.35088108  0.00707462
   0.52038846  0.48497228  0.20767832
   0.33183323  0.32263901  0.34386536
   0.52026585  0.50621789  0.48700335
   0.36541164  0.33272804  0.65389045
   0.49792614  0.45109967  0.82852039
   0.33656372  0.64284286 -0.01100164
   0.51802935  0.81900226  0.17437153
   0.35511873  0.66851779  0.34033601
   0.49445159  0.82388753  0.48564281
   0.32328055  0.66996162  0.64469549
   0.50738114  0.82145829  0.87240385
   0.64043185 -0.02193769  0.00949162
   0.85138401  0.18749398  0.16052854
   0.68664341  0.02578392  0.31981134
   0.84268773  0.16745809  0.50317477
   0.67940724 -0.01627936  0.66591407
   0.82466445  0.16955050  0.84101533
   0.67521842  0.31694032  0.00986079
   0.83327170  0.50436352  0.15483516
   0.68202190  0.31815561  0.35720948
   0.81822434  0.51226939  0.51425519
   0.65608195  0.32808891  0.66557651
   0.85300979  0.49519776  0.86162607
   0.67642248  0.68353327 -0.01041530
   0.81928364  0.86298534  0.17452441
   0.70141454  0.63918106  0.34355705
   0.82983557  0.83571305  0.48379011
   0.69810749  0.67230452  0.66073826
   0.80214927  0.85672462  0.83678883
unknown system                          
           1
    10.371934   -0.036484    0.009311
     0.000000   10.333895   -0.058424
    -0.000000   -0.000000   10.239845
   Li
    54
Direct configuration=          14
  -0.00211064 -0.00413794  0.02369594
   0.17453452  0.18559100  0.14439810
   0.01711351  0.00207098  0.33854791
   0.18539969  0.17359327  0.51588293
   0.01001786  0.00456579  0.66227926
   0.16665083  0.16787036  0.83256234
   0.00502609  0.34428174  0.02373343
   0.20644576  0.49905326  0.19330179
  -0.01392373  0.32062391  0.32534915
   0.17370246  0.49139537  0.52372799
  -0.02251768  0.33572636  0.67663393
   0.16031594  0.45247695  0.81898284
  -0.01113484  0.70353653  0.02371590
   0.16910091  0.82912929  0.18741663
  -0.02885087  0.65940248  0.31654167
   0.17316821  0.83112967  0.46413032
  -0.00961545  0.63743878  0.68998727
   0.17918284  0.80541743  0.83289642
   0.33912248 -0.02135065  0.01453850
   0.48383785  0.15536031  0.16931972
   0.32933638  0.00438894  0.32690432
   0.50950116  0.16353065  0.51420836
   0.35659420  0.00906880  0.63995268
   0.49905203  0.14593764  0.84878104
   0.34414359  0.35243156  0.00796131
   0.52246388  0.48404590  0.20970643
   0.33180662  0.32136184  0.34599911
   0.52185693  0.50598552  0.48791193
   0.36738004  0.33179232  0.65194668
   0.49807990  0.44919464  0.82824315
   0.33660610  0.64060531 -0.01343432
   0.51958199  0.81699434  0.17684711
   0.35524146  0.66952111  0.34091834
   0.49503048  0.82320245  0.48593944
   0.32291435  0.67037525  0.64292093
   0.50746163  0.81960392  0.87414791
   0.63872989 -0.02273686  0.00983948
   0.85238641  0.18931645  0.16073510
   0.68769447  0.02787137  0.31917480
   0.84255266  0.16614515  0.50485066
   0.68006396 -0.01803907  0.66488683
   0.82473749  0.17038444  0.84149885
   0.67459334  0.31654646  0.01106637
   0.83340374  0.50439077  0.15375602
   0.68338937  0.31806796  0.35886495
   0.81832980  0.51231531  0.51526275
   0.65645428  0.32698847  0.66536712
   0.85420726  0.49390470  0.86311855
   0.67633539  0.68441622 -0.01036215
   0.81861528  0.86571888  0.17480733
   0.70488828  0.63804966  0.34396558
   0.83160807  0.83539994  0.48323422
   0.70032744  0.67400440  0.66069170
   0.80225009  0.85719205  0.83735070
unknown system                          
           1
    10.380257   -0.040164    0.009924
     0.000000   10.336245   -0.065989
    -0.000000   -0.000000   10.236898
   Li
    54
Direct configuration=          15
  -0.00264124 -0.00386245  0.02377043
   0.17586824  0.18611352  0.14359328
   0.01812642  0.00245615  0.34009470
   0.18638956  0.17523878  0.51633096
   0.01192544  0.00561102  0.66232527
   0.16590798  0.16852068  0.83255983
   0.00487097  0.34573105  0.02394014
   0.20833858  0.50110849  0.19419843
  -0.01492710  0.32103090  0.32533522
   0.17397445  0.49076161  0.52402870
  -0.02292170  0.33605649  0.67749694
   0.16034244  0.44805862  0.81869823
  -0.01329358  0.70584090  0.02498108
   0.16892546  0.82908294  0.18939571
  -0.03055307  0.65809826  0.31630392
   0.17326562  0.83155926  0.46274824
  -0.00990484  0.63634080  0.69074075
   0.18050825  0.80441229  0.83263838
   0.33842382 -0.02334712  0.01605091
   0.48273864  0.15461970  0.16843994
   0.32917010  0.00554717  0.32685838
   0.51150560  0.16385570  0.51395386
   0.35659035  0.00806836  0.63868146
   0.49839841  0.14426041  0.84972226
   0.34375263  0.35388079  0.00896660
   0.52420708  0.48312882  0.21160251
   0.33165337  0.31972002  0.34801717
   0.52355925  0.50566103  0.48939979
   0.36934211  0.33088078  0.65016556
   0.49813755  0.44774726  0.82793286
   0.33686883  0.63822145 -0.01584682
   0.52133065  0.81471362  0.17954518
   0.35559408  0.67072120  0.34084502
   0.49562586  0.82215918  0.48644872
   0.32296442  0.67087855  0.64158532
   0.50734364  0.81773557  0.87494128
   0.63680077 -0.02308496  0.00976613
   0.85321902  0.19085343  0.16015943
   0.68870771  0.02962110  0.31859944
   0.84188729  0.16489178  0.50675976
   0.68060522 -0.01991564  0.66415670
   0.82466265  0.17078242  0.84228201
   0.67348467  0.31593226  0.01214946
   0.83348748  0.50461294  0.15238952
   0.68460765  0.31816795  0.36092402
   0.81856025  0.51234256  0.51625939
   0.65659263  0.32603036  0.66534588
   0.85578802  0.49263733  0.86470763
   0.67613874  0.68561898 -0.00975669
   0.81786301  0.86826023  0.17510139
   0.70788945  0.63706757  0.34381333
   0.83349944  0.83551585  0.48280585
   0.70217563  0.67558228  0.66116488
   0.80244409  0.85696966  0.83784548
unknown system                          
           1
    10.389019   -0.043187    0.011553
     0.000000   10.337704   -0.075008
    -0.000000   -0.000000   10.234862
   Li
    54
Direct configuration=          16
  -0.00286065 -0.00340008  0.02412781
   0.17700133  0.18620453  0.14237607
   0.01929090  0.00239396  0.34099675
   0.18722159  0.17627995  0.51714156
   0.01388429  0.00694269  0.66236184
   0.16517069  0.16960567  0.83239688
   0.00533127  0.34666644  0.02353056
   0.20994597  0.50308817  0.19510593
  -0.01580465  0.32156387  0.32515959
   0.17391841  0.49039930  0.52456141
  -0.02329602  0.33650857  0.67836303
   0.16075328  0.44419022  0.81898787
  -0.01563099  0.70772753  0.02641610
   0.16903066  0.82893605  0.19142004
  -0.03120505  0.65661950  0.31554685
   0.17325321  0.83151266  0.46121275
  -0.00958643  0.63555308  0.69205153
   0.18197717  0.80338237  0.83242719
   0.33748577 -0.02564765  0.01751451
   0.48130133  0.15402075  0.16835607
   0.32897757  0.00706842  0.32728873
   0.51363450  0.16473510  0.51353616
   0.35631937  0.00692994  0.63764469
   0.49831791  0.14246032  0.85023919
   0.34302591  0.35438913  0.00997393
   0.52617179  0.48245035  0.21292106
   0.33129322  0.31812585  0.35015966
   0.52553472  0.50555577  0.49103058
   0.37102277  0.32992222  0.64828709
   0.49831271  0.44704376  0.82804916
   0.33716903  0.63539302 -0.01787597
   0.52253264  0.81237659  0.18173217
   0.35545220  0.67235407  0.34139032
   0.49655240  0.82155050  0.48696515
   0.32332927  0.67145415  0.64024930
   0.50700198  0.81557486  0.87515400
   0.63457742 -0.02300334  0.00959841
   0.85362389  0.19212321  0.15976592
   0.68941859  0.03136960  0.31884512
   0.84113684  0.16369972  0.50895484
   0.68093441 -0.02140993  0.66313971
   0.82500904  0.17173425  0.84301293
   0.67246746  0.31553017  0.01336180
   0.83325412  0.50511201  0.15062165
   0.68558929  0.31823273  0.36331222
   0.81861149  0.51201677  0.51691403
   0.65674165  0.32517711  0.66506258
   0.85720478  0.49173054  0.86638551
   0.67569523  0.68654099 -0.00889954
   0.81775980  0.87017847  0.17532021
   0.71073564  0.63721019  0.34384362
   0.83530601  0.83577631  0.48254698
   0.70357445  0.67774121  0.66187060
   0.80295395  0.85703110  0.83853489
unknown system                          
           1
    10.397910   -0.047036    0.013413
    -0.000000   10.338225   -0.084959
    -0.000000   -0.000000   10.231651
   Li
    54
Direct configuration=          17
  -0.00313242 -0.00274416  0.02478756
   0.17787629  0.18565326  0.14126447
   0.01983683  0.00314825  0.34187971
   0.18798520  0.17706368  0.51792865
   0.01607532  0.00794516  0.66276181
   0.16455613  0.17051243  0.83232159
   0.00590992  0.34727610  0.02319772
   0.21148495  0.50509447  0.19576371
  -0.01649520  0.32235753  0.32508706
   0.17380534  0.49061545  0.52524480
  -0.02363990  0.33696597  0.67900502
   0.16204079  0.44029479  0.81885262
  -0.01791014  0.70896590  0.02756414
   0.16887790  0.82897819  0.19293461
  -0.03193055  0.65455727  0.31517094
   0.17342863  0.83159074  0.46013602
  -0.00929089  0.63452887  0.69322521
   0.18297060  0.80181366  0.83199824
   0.33626255 -0.02750033  0.01888561
   0.47959104  0.15305499  0.16782069
   0.32906217  0.00856587  0.32831682
   0.51553931  0.16549023  0.51296846
   0.35601893  0.00576980  0.63707712
   0.49800036  0.14043598  0.85111931
   0.34264227  0.35461837  0.01188946
   0.52821211  0.48183816  0.21421902
   0.33054378  0.31622056  0.35232547
   0.52746511  0.50497129  0.49291121
   0.37228427  0.32850295  0.64658671
   0.49831378  0.44699555  0.82821412
   0.33753776  0.63222476 -0.02015366
   0.52323251  0.81061376  0.18399124
   0.35525950  0.67410860  0.34138661
   0.49745172  0.82110894  0.48748377
   0.32344849  0.67166055  0.63960098
   0.50707670  0.81259454  0.87469449
   0.63254372 -0.02249977  0.00947148
   0.85342492  0.19344806  0.15932432
   0.68980935  0.03306275  0.31913875
   0.84113255  0.16255352  0.51135197
   0.68083763 -0.02289963  0.66194021
   0.82487453  0.17296393  0.84392220
   0.67173179  0.31531783  0.01526075
   0.83307620  0.50541015  0.14912929
   0.68713602  0.31819592  0.36496761
   0.81935582  0.51195591  0.51734811
   0.65726589  0.32468864  0.66506432
   0.85816532  0.49043910  0.86784066
   0.67584954  0.68698839 -0.00724343
   0.81724209  0.87206883  0.17582651
   0.71302601  0.63780698  0.34345087
   0.83747018  0.83634486  0.48211701
   0.70448872  0.67940673  0.66238312
   0.80410872  0.85687069  0.83940886
unknown system                          
           1
    10.407138   -0.052844    0.015786
    -0.000000   10.339505   -0.096917
    -0.000000   -0.000000   10.228917
   Li
    54
Direct configuration=          18
  -0.00291361 -0.00249839  0.02517073
   0.17847505  0.18533610  0.14022084
   0.02088554  0.00385447  0.34299661
   0.18863774  0.17787510  0.51809753
   0.01823485  0.00909264  0.66349044
   0.16442556  0.17167001  0.83205770
   0.00665068  0.34857314  0.02302337
   0.21266053  0.50753762  0.19639551
  -0.01671690  0.32365638  0.32536312
   0.17248408  0.49125454  0.52548869
  -0.02412828  0.33732428  0.67914980
   0.16318380  0.43605007  0.81815896
  -0.01966093  0.71050443  0.02825890
   0.16850817  0.82819460  0.19414593
  -0.03249981  0.65260307  0.31537836
   0.17378819  0.83137736  0.45944819
  -0.00874835  0.63411887  0.69402351
   0.18387877  0.80125537  0.83167468
   0.33503962 -0.02882873  0.01932688
   0.47802486  0.15232603  0.16721495
   0.32870298  0.00958055  0.32930215
   0.51738784  0.16705216  0.51252186
   0.35535136  0.00412913  0.63685081
   0.49745451  0.13820317  0.85154631
   0.34221323  0.35471533  0.01382058
   0.53032643  0.48116807  0.21511569
   0.32983108  0.31464989  0.35434770
   0.52889714  0.50458881  0.49473811
   0.37365976  0.32691649  0.64404346
   0.49824463  0.44738456  0.82847782
   0.33773729  0.62940060 -0.02239096
   0.52403922  0.80860187  0.18627352
   0.35463973  0.67523750  0.34135329
   0.49892424  0.82038368  0.48839257
   0.32314203  0.67180741  0.63899420
   0.50704712  0.80948778  0.87343548
   0.63104556 -0.02161692  0.00957779
   0.85308258  0.19477687  0.15915583
   0.68965869  0.03518499  0.31945403
   0.84111491  0.16160877  0.51342361
   0.68062606 -0.02440131  0.66059403
   0.82509892  0.17432906  0.84420204
   0.67093867  0.31524941  0.01741413
   0.83223867  0.50572073  0.14731769
   0.68808039  0.31803892  0.36686737
   0.82091907  0.51187469  0.51744699
   0.65839113  0.32397201  0.66530983
   0.85916112  0.48924320  0.86890168
   0.67635610  0.68668425 -0.00560268
   0.81637984  0.87374378  0.17679675
   0.71472831  0.63886439  0.34296877
   0.83991374  0.83696068  0.48129892
   0.70501509  0.68103568  0.66298678
   0.80529269  0.85703788  0.84059061
unknown system                          
           1
    10.416137   -0.059748    0.018668
    -0.000000   10.340447   -0.107393
    -0.000000   -0.000000   10.226304
   Li
    54
Direct configuration=          19
  -0.00296945 -0.00225084  0.02561433
   0.17954476  0.18465676  0.13943899
   0.02154055  0.00501267  0.34393312
   0.18930803  0.17872246  0.51795032
   0.02020865  0.00974225  0.66392767
   0.16379886  0.17282371  0.83192707
   0.00715866  0.34960490  0.02342166
   0.21413037  0.50995291  0.19651159
  -0.01701932  0.32491525  0.32609363
   0.17075018  0.49221982  0.52539472
  -0.02441703  0.33811324  0.67942859
   0.16421838  0.43259799  0.81779387
  -0.02137447  0.71152735  0.02877243
   0.16810442  0.82769168  0.19533257
  -0.03270085  0.65058255  0.31562089
   0.17355492  0.83093553  0.45920021
  -0.00851818  0.63394146  0.69500816
   0.18505280  0.80141745  0.83169011
   0.33365914 -0.03059789  0.02002873
   0.47667583  0.15189218  0.16641769
   0.32807891  0.01053608  0.33046551
   0.51916634  0.16880626  0.51140905
   0.35487937  0.00208689  0.63656676
   0.49690438  0.13634063  0.85178615
   0.34194067  0.35466710  0.01532832
   0.53194109  0.48033193  0.21555842
   0.32945494  0.31297247  0.35598920
   0.53022229  0.50394715  0.49610912
   0.37445123  0.32580829  0.64137656
   0.49834375  0.44862389  0.82967066
   0.33777625  0.62652054 -0.02426355
   0.52446905  0.80694892  0.18882819
   0.35384507  0.67609670  0.34152933
   0.50036370  0.81994421  0.48924173
   0.32279570  0.67194450  0.63834199
   0.50642024  0.80650184  0.87129192
   0.62969689 -0.02063263  0.00960969
   0.85256080  0.19610037  0.15880528
   0.68919094  0.03695811  0.31937730
   0.84162279  0.16070156  0.51532547
   0.67989597 -0.02582530  0.65957584
   0.82589484  0.17553387  0.84483850
   0.66980128  0.31517490  0.01956026
   0.83214204  0.50607300  0.14556668
   0.68901929  0.31727597  0.36823404
   0.82270846  0.51191961  0.51762765
   0.65984581  0.32319855  0.66492193
   0.85986954  0.48850182  0.86994375
   0.67713468  0.68633214 -0.00356941
   0.81561935  0.87560786  0.17816791
   0.71609503  0.64084365  0.34256752
   0.84200590  0.83816686  0.48065721
   0.70579921  0.68243377  0.66323857
   0.80647934  0.85735587  0.84187811
unknown system                          
           1
    10.424915   -0.068600    0.020029
    -0.000000   10.340638   -0.115925
    -0.000000   -0.000000   10.223473
   Li
    54
Direct configuration=          20
  -0.00302945 -0.00200553  0.02588225
   0.18045088  0.18442976  0.13850438
   0.02180089  0.00599202  0.34494456
   0.18987819  0.17926669  0.51795745
   0.02190340  0.00952492  0.66508647
   0.16324422  0.17407645  0.83236053
   0.00811926  0.35034102  0.02349619
   0.21556758  0.51192460  0.19620626
  -0.01685252  0.32624278  0.32674316
   0.16885394  0.49291782  0.52541579
  -0.02478031  0.33848298  0.67961837
   0.16559570  0.42978380  0.81771752
  -0.02272280  0.71174550  0.02964937
   0.16799822  0.82720698  0.19578685
  -0.03244983  0.64839181  0.31581753
   0.17364070  0.83056868  0.45954851
  -0.00861406  0.63410340  0.69608312
   0.18533313  0.80130127  0.83221903
   0.33232843 -0.03235367  0.02095541
   0.47522868  0.15079064  0.16622755
   0.32723791  0.01140986  0.33124070
   0.52108853  0.17079643  0.50959555
   0.35455862 -0.00033228  0.63632631
   0.49628209  0.13432606  0.85212020
   0.34204995  0.35461972  0.01708740
   0.53335704  0.47945940  0.21603265
   0.32928556  0.31091660  0.35711294
   0.53128050  0.50331206  0.49736777
   0.37526881  0.32552524  0.63914950
   0.49854347  0.44997303  0.83076242
   0.33687727  0.62393640 -0.02611693
   0.52456308  0.80524544  0.19154300
   0.35342151  0.67633483  0.34157835
   0.50236956  0.81952419  0.49033234
   0.32227487  0.67218528  0.63754794
   0.50505975  0.80351628  0.86918397
   0.62888277 -0.01944325  0.00981221
   0.85212667  0.19718851  0.15822873
   0.68874392  0.03826857  0.31922483
   0.84269352  0.16027023  0.51686556
   0.67900522 -0.02713248  0.65828428
   0.82654870  0.17701823  0.84542130
   0.66868108  0.31546525  0.02218192
   0.83185672  0.50632127  0.14436369
   0.69015848  0.31692424  0.36936870
   0.82523527  0.51178213  0.51775422
   0.66119426  0.32308965  0.66479672
   0.85986680  0.48796674  0.87135795
   0.67840047  0.68564895 -0.00138820
   0.81523045  0.87770348  0.17951018
   0.71713225  0.64280826  0.34248379
   0.84353750  0.83937800  0.48028800
   0.70690646  0.68385414  0.66378999
   0.80777951  0.85752310  0.84338751
unknown system                          
           1
    10.434357   -0.075708    0.020551
    -0.000000   10.341254   -0.122117
    -0.000000   -0.000000   10.221166
   Li
    54
Direct configuration=          21
  -0.00256050 -0.00167874  0.02555702
   0.18133001  0.18421485  0.13657131
   0.02144849  0.00749693  0.34602062
   0.19054381  0.17994304  0.51792566
   0.02348654  0.00886132  0.66640715
   0.16194044  0.17551655  0.83253491
   0.00973623  0.35120329  0.02435001
   0.21679811  0.51370253  0.19603752
  -0.01657449  0.32741462  0.32768008
   0.16706687  0.49375433  0.52532652
  -0.02513630  0.33851947  0.67993705
   0.16717947  0.42776551  0.81766421
  -0.02367667  0.71163753  0.03053632
   0.16755031  0.82643091  0.19604579
  -0.03157392  0.64653548  0.31674945
   0.17401035  0.82971997  0.46015885
  -0.00899920  0.63449114  0.69702246
   0.18593585  0.80101498  0.83259231
   0.33072200 -0.03387734  0.02179333
   0.47342751  0.14958347  0.16552459
   0.32663128  0.01208987  0.33235923
   0.52233863  0.17257767  0.50757726
   0.35442869 -0.00279865  0.63613743
   0.49571494  0.13258358  0.85237348
   0.34256834  0.35436791  0.01873573
   0.53479175  0.47817632  0.21610728
   0.32871921  0.30881755  0.35885603
   0.53240804  0.50234291  0.49827544
   0.37595691  0.32464567  0.63757200
   0.49868309  0.45187577  0.83184315
   0.33590010  0.62149845 -0.02782715
   0.52462402  0.80397449  0.19415181
   0.35307262  0.67651804  0.34113884
   0.50444304  0.81868368  0.49228493
   0.32216636  0.67238903  0.63656771
   0.50350598  0.80126792  0.86623750
   0.62782291 -0.01838951  0.00953821
   0.85167005  0.19825012  0.15789729
   0.68776715  0.03899973  0.31890995
   0.84388356  0.16020591  0.51864723
   0.67781130 -0.02832127  0.65705743
   0.82724690  0.17846865  0.84611977
   0.66756982  0.31607741  0.02428878
   0.83114847  0.50696934  0.14285363
   0.69231747  0.31712703  0.37040470
   0.82761475  0.51196865  0.51815906
   0.66267544  0.32239953  0.66515790
   0.85932700  0.48814336  0.87214896
   0.67980894  0.68488704  0.00106193
   0.81492911  0.87908014  0.18047714
   0.71794780  0.64467554  0.34164040
   0.84538791  0.84027548  0.48024853
   0.70780817  0.68508025  0.66440736
   0.80869453  0.85765945  0.84510043
unknown system                          
           1
    10.442278   -0.080986    0.018136
    -0.000000   10.340962   -0.128040
    -0.000000   -0.000000   10.219400
   Li
    54
Direct configuration=          22
  -0.00180013 -0.00142795  0.02540684
   0.18217507  0.18444678  0.13504140
   0.02108511  0.00883245  0.34693522
   0.19128716  0.18045773  0.51773792
   0.02563940  0.00886752  0.66813630
   0.16077101  0.17663767  0.83306741
   0.01127487  0.35275220  0.02489336
   0.21785085  0.51514274  0.19523406
  -0.01553351  0.32879903  0.32874753
   0.16519408  0.49479151  0.52481524
  -0.02552695  0.33847008  0.68027549
   0.16871763  0.42605710  0.81732579
  -0.02450398  0.71141525  0.03077746
   0.16750197  0.82593486  0.19586246
  -0.03064592  0.64492257  0.31801850
   0.17423615  0.82930700  0.46047423
  -0.00959257  0.63531907  0.69861858
   0.18649588  0.80091045  0.83301260
   0.32908822 -0.03504330  0.02237509
   0.47151721  0.14848474  0.16437836
   0.32575670  0.01307860  0.33389840
   0.52393187  0.17362200  0.50608064
   0.35385730 -0.00506483  0.63589814
   0.49553750  0.13090182  0.85304608
   0.34304714  0.35347184  0.02019599
   0.53648017  0.47733013  0.21632367
   0.32853009  0.30701934  0.36023427
   0.53338875  0.50144328  0.49883144
   0.37674032  0.32431010  0.63570849
   0.49929673  0.45444520  0.83294235
   0.33486519  0.61945273 -0.02938554
   0.52553236  0.80243964  0.19644057
   0.35203981  0.67679734  0.34103639
   0.50684420  0.81777326  0.49365011
   0.32211281  0.67260261  0.63539258
   0.50168071  0.79834147  0.86281693
   0.62640677 -0.01726239  0.00953509
   0.85076410  0.19928603  0.15682358
   0.68646137  0.03997129  0.31872091
   0.84521363  0.15988892  0.52053357
   0.67692497 -0.02897624  0.65638657
   0.82781909  0.18013811  0.84679840
   0.66630471  0.31645849  0.02664359
   0.83035326  0.50779779  0.14227780
   0.69450141  0.31763245  0.37135980
   0.82978651  0.51178433  0.51858852
   0.66451702  0.32188268  0.66556258
   0.85827863  0.48799238  0.87238197
   0.68143832  0.68377009  0.00336783
   0.81425826  0.88101151  0.18125091
   0.71873200  0.64586683  0.34049242
   0.84705254  0.84138068  0.48019257
   0.70860871  0.68595076  0.66547525
   0.81000135  0.85766553  0.84701778
unknown system                          
           1
    10.449489   -0.085947    0.015359
    -0.000000   10.339956   -0.133951
    -0.000000   -0.000000   10.218139
   Li
    54
Direct configuration=          23
  -0.00069580 -0.00084693  0.02505729
   0.18335758  0.18445983  0.13304610
   0.02091274  0.01036335  0.34736800
   0.19177920  0.18087148  0.51841298
   0.02847791  0.00923374  0.66976335
   0.15983331  0.17775270  0.83341372
   0.01256750  0.35404215  0.02485765
   0.21886957  0.51660467  0.19409515
  -0.01429823  0.33035186  0.32954451
   0.16360996  0.49567801  0.52429873
  -0.02562845  0.33838576  0.68022153
   0.17064014  0.42494899  0.81670827
  -0.02513553  0.71103654  0.03088230
   0.16772322  0.82566475  0.19544560
  -0.02971370  0.64340171  0.31921196
   0.17421367  0.82877563  0.46083934
  -0.01058324  0.63591656  0.70040016
   0.18713009  0.80062000  0.83335294
   0.32749284 -0.03635868  0.02336334
   0.46990182  0.14762977  0.16341325
   0.32484048  0.01402115  0.33536813
   0.52530917  0.17451391  0.50461819
   0.35358913 -0.00717218  0.63570814
   0.49580178  0.12963168  0.85320243
   0.34384041  0.35192399  0.02158972
   0.53757632  0.47680697  0.21619747
   0.32856769  0.30492107  0.36110581
   0.53375162  0.50037621  0.49851340
   0.37794025  0.32469681  0.63384390
   0.49995513  0.45686954  0.83339376
   0.33373507  0.61811558 -0.03030891
   0.52663833  0.80082876  0.19888941
   0.35070405  0.67746817  0.34119190
   0.50960282  0.81705112  0.49529410
   0.32216586  0.67258844  0.63465847
   0.49965175  0.79605011  0.85933976
   0.62509456 -0.01638565  0.00901047
   0.84968570  0.20020478  0.15591007
   0.68480113  0.04162409  0.31869520
   0.84643430  0.15917198  0.52216483
   0.67521907 -0.02972512  0.65577283
   0.82816515  0.18182347  0.84737955
   0.66472758  0.31702574  0.02921485
   0.82928399  0.50855669  0.14182829
   0.69664113  0.31836314  0.37207802
   0.83242712  0.51163887  0.51803225
   0.66668946  0.32190636  0.66654493
   0.85703650  0.48775000  0.87291653
   0.68279679  0.68281456  0.00551646
   0.81414701  0.88288549  0.18206403
   0.71943735  0.64660649  0.33914817
   0.84926069  0.84291354  0.47995709
   0.70939665  0.68679890  0.66596382
   0.81189773  0.85708704  0.84929684
unknown system                          
           1
    10.456190   -0.090849    0.015146
    -0.000000   10.337464   -0.139219
    -0.000000   -0.000000   10.217458
   Li
    54
Direct configuration=          24
   0.00083403 -0.00016666  0.02512926
   0.18418467  0.18391448  0.13111854
   0.02076709  0.01188400  0.34757617
   0.19182288  0.18165868  0.51909247
   0.03119245  0.00911788  0.67141801
   0.15872288  0.17862027  0.83350709
   0.01401826  0.35585093  0.02459386
   0.21942957  0.51744213  0.19299539
  -0.01305300  0.33144974  0.33011023
   0.16190039  0.49660886  0.52334891
  -0.02551679  0.33788836  0.67992353
   0.17213494  0.42433188  0.81641343
  -0.02528347  0.71046601  0.03083413
   0.16792388  0.82605298  0.19482119
  -0.02789144  0.64189760  0.32057387
   0.17439124  0.82837870  0.46221197
  -0.01122508  0.63665245  0.70214561
   0.18748948  0.80074887  0.83429801
   0.32592386 -0.03807699  0.02478094
   0.46876555  0.14676154  0.16238070
   0.32426746  0.01464011  0.33695725
   0.52662861  0.17505108  0.50385358
   0.35334947 -0.00919230  0.63605154
   0.49582431  0.12889769  0.85317357
   0.34460532  0.35045984  0.02327330
   0.53822684  0.47644604  0.21600033
   0.32866769  0.30330070  0.36179249
   0.53353369  0.49924659  0.49812048
   0.37863780  0.32496898  0.63251581
   0.50078885  0.45953957  0.83421956
   0.33247599  0.61779050 -0.03130467
   0.52797208  0.79870113  0.20120199
   0.34923745  0.67820164  0.34127077
   0.51245349  0.81631529  0.49649670
   0.32245904  0.67210991  0.63444242
   0.49751588  0.79430777  0.85591289
   0.62354755 -0.01528840  0.00849435
   0.84912680  0.20177426  0.15490401
   0.68306473  0.04327709  0.31918356
   0.84809142  0.15862633  0.52396097
   0.67319290 -0.03003991  0.65456356
   0.82854432  0.18272056  0.84865459
   0.66307253  0.31782556  0.03160077
   0.82863605  0.50840150  0.14137438
   0.69891428  0.31947198  0.37290107
   0.83462936  0.51102325  0.51730010
   0.66897151  0.32273804  0.66734355
   0.85534027  0.48727342  0.87338261
   0.68412619  0.68168557  0.00807096
   0.81472575  0.88446963  0.18285906
   0.72025793  0.64710821  0.33847374
   0.85189784  0.84470355  0.47935401
   0.70953021  0.68761480  0.66713460
   0.81392321  0.85589068  0.85122865
unknown system                          
           1
    10.463294   -0.094086    0.015966
    -0.000000   10.335183   -0.143584
    -0.000000   -0.000000   10.217597
   Li
    54
Direct configuration=          25
   0.00284883  0.00066472  0.02534954
   0.18462320  0.18346253  0.12911328
   0.02053934  0.01338756  0.34793492
   0.19125158  0.18216099  0.52024151
   0.03383297  0.00949797  0.67315577
   0.15804459  0.17896879  0.83355424
   0.01547617  0.35754700  0.02411601
   0.21961033  0.51821195  0.19165194
  -0.01169073  0.33259151  0.33053936
   0.15991009  0.49775512  0.52268795
  -0.02521637  0.33741272  0.67943459
   0.17399131  0.42422592  0.81655574
  -0.02540458  0.70985712  0.03095581
   0.16780659  0.82647127  0.19409283
  -0.02571997  0.64006980  0.32168095
   0.17429256  0.82809249  0.46421711
  -0.01174686  0.63733947  0.70393646
   0.18772135  0.80133902  0.83524361
   0.32422123 -0.04010212  0.02608765
   0.46802958  0.14570028  0.16163106
   0.32384720  0.01541143  0.33857500
   0.52731406  0.17574044  0.50272421
   0.35293307 -0.01155202  0.63619414
   0.49578355  0.12811383  0.85237633
   0.34536789  0.34896400  0.02545401
   0.53864916  0.47552324  0.21622111
   0.32888930  0.30226455  0.36197244
   0.53368372  0.49792042  0.49841179
   0.37936920  0.32464653  0.63184046
   0.50240011  0.46194313  0.83429162
   0.33120187  0.61756612 -0.03193339
   0.52871903  0.79696707  0.20346931
   0.34792893  0.67891964  0.34195089
   0.51491774  0.81493773  0.49747804
   0.32267963  0.67140938  0.63399455
   0.49592873  0.79288614  0.85218553
   0.62230241 -0.01456775  0.00797921
   0.84851139  0.20351601  0.15413231
   0.68126989  0.04500111  0.31938473
   0.84939604  0.15793120  0.52573291
   0.67084989 -0.02958741  0.65358927
   0.82858638  0.18363406  0.85014754
   0.66120652  0.31858330  0.03432667
   0.82771638  0.50843000  0.14124400
   0.70121798  0.32111769  0.37345380
   0.83707203  0.51038239  0.51655755
   0.67088403  0.32368219  0.66839420
   0.85316796  0.48751253  0.87369316
   0.68468835  0.68032788  0.01050301
   0.81572972  0.88610186  0.18293119
   0.72067519  0.64809513  0.33788863
   0.85409948  0.84658613  0.47945083
   0.70917987  0.68779473  0.66814310
   0.81615881  0.85446356  0.85299987
unknown system                          
           1
    10.471086   -0.097647    0.015257
    -0.000000   10.333021   -0.145462
    -0.000000   -0.000000   10.217717
   Li
    54
Direct configuration=          26
   0.00539766  0.00134303  0.02552234
   0.18503044  0.18284245  0.12755895
   0.02030583  0.01464968  0.34823494
   0.19073664  0.18203090  0.52142515
   0.03648001  0.00894311  0.67486892
   0.15755841  0.17954229  0.83364045
   0.01651849  0.35995938  0.02345647
   0.21949142  0.51895824  0.19090403
  -0.00991310  0.33394873  0.33083409
   0.15805580  0.49914109  0.52254508
  -0.02507321  0.33710792  0.67876376
   0.17549250  0.42460499  0.81630481
  -0.02495246  0.70821087  0.03152975
   0.16797063  0.82703118  0.19298060
  -0.02322982  0.63802397  0.32257119
   0.17391322  0.82814818  0.46635217
  -0.01215776  0.63790851  0.70600341
   0.18831373  0.80230258  0.83595995
   0.32243268 -0.04199774  0.02655218
   0.46716909  0.14517257  0.16124438
   0.32320032  0.01652013  0.34031957
   0.52775606  0.17584125  0.50183384
   0.35256172 -0.01451192  0.63620501
   0.49540489  0.12815044  0.85144599
   0.34575631  0.34708639  0.02774238
   0.53853465  0.47503732  0.21593399
   0.32891707  0.30139234  0.36196850
   0.53311720  0.49657077  0.49869446
   0.37942203  0.32470506  0.63115118
   0.50469653  0.46421014  0.83430996
   0.33050621  0.61675719 -0.03283523
   0.52956135  0.79600275  0.20584956
   0.34672959  0.67990322  0.34258512
   0.51734338  0.81350928  0.49848866
   0.32289757  0.67087210  0.63378885
   0.49429486  0.79147932  0.84847284
   0.62095752 -0.01420071  0.00712216
   0.84760629  0.20499465  0.15318315
   0.67941135  0.04648024  0.31942460
   0.85074234  0.15724469  0.52773140
   0.66902834 -0.02859056  0.65275963
   0.82833458  0.18458869  0.85158820
   0.65919507  0.31903873  0.03677162
   0.82635316  0.50858576  0.14172026
   0.70318834  0.32298740  0.37341862
   0.84024846  0.50999759  0.51645795
   0.67313578  0.32474340  0.66944915
   0.85129869  0.48798896  0.87389538
   0.68543726  0.67891496  0.01281415
   0.81669625  0.88762467  0.18307548
   0.72075376  0.64946434  0.33759472
   0.85583493  0.84812070  0.47995937
   0.70941400  0.68789553  0.66903691
   0.81877670  0.85313909  0.85476478
unknown system                          
           1
    10.479503   -0.101453    0.014516
    -0.000000   10.332309   -0.147413
    -0.000000   -0.000000   10.217280
   Li
    54
Direct configuration=          27
   0.00827738  0.00198202  0.02565271
   0.18518123  0.18198296  0.12591488
   0.02073771  0.01562525  0.34835362
   0.18950959  0.18245473  0.52263192
   0.03914583  0.00908520  0.67586259
   0.15655785  0.18036177  0.83370279
   0.01808622  0.36246691  0.02205736
   0.21906099  0.51971052  0.19076504
  -0.00851729  0.33545812  0.33082441
   0.15668067  0.50023681  0.52181532
  -0.02471092  0.33716912  0.67755849
   0.17728555  0.42565812  0.81649943
  -0.02452899  0.70628672  0.03149704
   0.16850373  0.82795237  0.19211513
  -0.02047387  0.63557723  0.32305620
   0.17311524  0.82765566  0.46887673
  -0.01289431  0.63812755  0.70781043
   0.18886875  0.80378659  0.83704601
   0.32052112 -0.04421191  0.02664191
   0.46644555  0.14480095  0.16081523
   0.32264935  0.01774359  0.34192915
   0.52809180  0.17566016  0.50110952
   0.35214629 -0.01768957  0.63598168
   0.49520352  0.12801421  0.85000305
   0.34648511  0.34591460  0.03012843
   0.53825252  0.47469248  0.21545171
   0.32892206  0.30030644  0.36173048
   0.53239714  0.49580009  0.49848690
   0.37972697  0.32480527  0.63048090
   0.50709528  0.46696876  0.83399300
   0.32997038  0.61610631 -0.03373332
   0.53047258  0.79533902  0.20811664
   0.34593814  0.68051471  0.34331092
   0.51994805  0.81185555  0.49903977
   0.32324571  0.67001887  0.63402238
   0.49284393  0.78993995  0.84412773
   0.62011192 -0.01380617  0.00611813
   0.84624472  0.20635683  0.15196098
   0.67699768  0.04721920  0.31964753
   0.85155453  0.15668851  0.52968286
   0.66683709 -0.02737776  0.65235900
   0.82813804  0.18548376  0.85335283
   0.65758678  0.31953255  0.03874259
   0.82484698  0.50792231  0.14225301
   0.70543992  0.32466806  0.37322828
   0.84307973  0.50931405  0.51624785
   0.67558579  0.32598890  0.67023163
   0.84945478  0.48837115  0.87391188
   0.68696863  0.67757765  0.01510704
   0.81766109  0.88867016  0.18295074
   0.72066819  0.65107888  0.33718957
   0.85789686  0.84980339  0.48050786
   0.70936077  0.68803006  0.66947877
   0.82113665  0.85219012  0.85726167
unknown system                          
           1
    10.487901   -0.105713    0.013349
    -0.000000   10.333014   -0.148282
    -0.000000   -0.000000   10.216408
   Li
    54
Direct configuration=          28
   0.01057849  0.00279885  0.02563215
   0.18572476  0.18065884  0.12444832
   0.02124444  0.01650825  0.34893669
   0.18733896  0.18303144  0.52349961
   0.04171435  0.00896589  0.67640672
   0.15552892  0.18171114  0.83352131
   0.01960772  0.36501794  0.02113173
   0.21848752  0.52005030  0.19024891
  -0.00677551  0.33704720  0.33084587
   0.15499136  0.50115439  0.52126791
  -0.02408032  0.33716596  0.67618458
   0.17895715  0.42732021  0.81633094
  -0.02352389  0.70404010  0.03143405
   0.16915837  0.82855388  0.19099962
  -0.01724042  0.63304000  0.32300392
   0.17206761  0.82685778  0.47173509
  -0.01360581  0.63837335  0.70988804
   0.18992512  0.80527071  0.83755449
   0.31916627 -0.04641484  0.02691077
   0.46640243  0.14455729  0.16028645
   0.32221878  0.01829137  0.34352832
   0.52818803  0.17525456  0.50094735
   0.35212531 -0.02076809  0.63647221
   0.49500934  0.12838407  0.84858009
   0.34730502  0.34490342  0.03228635
   0.53810689  0.47390423  0.21474383
   0.32930194  0.29975870  0.36136958
   0.53178388  0.49538237  0.49819864
   0.38008817  0.32519203  0.63036425
   0.50898466  0.47052542  0.83334090
   0.32907720  0.61543420 -0.03460874
   0.53074708  0.79458681  0.21008786
   0.34532474  0.68159966  0.34375777
   0.52256381  0.81099529  0.49988547
   0.32356846  0.66855717  0.63451371
   0.49152439  0.78887821  0.83987107
   0.61944183 -0.01315220  0.00558146
   0.84523762  0.20752751  0.15079413
   0.67450199  0.04789169  0.31978694
   0.85204147  0.15634388  0.53126395
   0.66377435 -0.02575440  0.65158307
   0.82770182  0.18582152  0.85551243
   0.65585931  0.31928272  0.04066892
   0.82317462  0.50696900  0.14279208
   0.70783834  0.32569054  0.37235439
   0.84589187  0.50828108  0.51574930
   0.67784812  0.32698784  0.67080691
   0.84741577  0.48898599  0.87324333
   0.68782999  0.67595366  0.01758866
   0.81858861  0.88944011  0.18276144
   0.72045650  0.65313806  0.33632407
   0.85993596  0.85150949  0.48094309
   0.70924708  0.68838571  0.67022591
   0.82324533  0.85178613  0.85972869
unknown system                          
           1
    10.497409   -0.109415    0.011195
    -0.000000   10.334416   -0.151247
    -0.000000   -0.000000   10.214987
   Li
    54
Direct configuration=          29
   0.01289874  0.00382206  0.02528188
   0.18633931  0.17946573  0.12292227
   0.02131535  0.01760623  0.34933507
   0.18529160  0.18380190  0.52409625
   0.04446005  0.00864671  0.67701622
   0.15446084  0.18251202  0.83354732
   0.02133971  0.36786186  0.02041221
   0.21776088  0.51975550  0.18989832
  -0.00438232  0.33917613  0.33115986
   0.15410492  0.50165914  0.52088416
  -0.02339635  0.33687850  0.67523198
   0.18147185  0.42974764  0.81601354
  -0.02264103  0.70205551  0.03066344
   0.16985449  0.82968150  0.18996093
  -0.01393483  0.63016796  0.32286878
   0.17096041  0.82660113  0.47462090
  -0.01435676  0.63906746  0.71235940
   0.19050704  0.80661398  0.83806376
   0.31846057 -0.04804798  0.02676766
   0.46651131  0.14462984  0.15987108
   0.32148347  0.01865044  0.34471655
   0.52850110  0.17515521  0.50031395
   0.35269157 -0.02349932  0.63703461
   0.49410963  0.12868556  0.84714955
   0.34816978  0.34399757  0.03416820
   0.53801771  0.47374568  0.21436067
   0.32979445  0.29963910  0.36069337
   0.53087954  0.49532260  0.49751807
   0.37938647  0.32586310  0.63011073
   0.51096129  0.47523731  0.83295026
   0.32810370  0.61488650 -0.03487743
   0.53119520  0.79395934  0.21142495
   0.34520317  0.68308691  0.34477103
   0.52486678  0.81066746  0.50038279
   0.32372488  0.66647205  0.63486947
   0.49012445  0.78823559  0.83514508
   0.61851626 -0.01165260  0.00481548
   0.84404292  0.20840780  0.14945207
   0.67201023  0.04815043  0.31942134
   0.85292693  0.15585423  0.53315930
   0.66048375 -0.02408095  0.65126633
   0.82736302  0.18585343  0.85702032
   0.65453583  0.31891011  0.04211064
   0.82195621  0.50648030  0.14385919
   0.71021519  0.32651935  0.37172192
   0.84925559  0.50690754  0.51549622
   0.68060744  0.32817833  0.67145820
   0.84513487  0.48971025  0.87247031
   0.68865356  0.67376458  0.01962363
   0.81981371  0.88975313  0.18242047
   0.71985957  0.65547551  0.33542221
   0.86153656  0.85301290  0.48111021
   0.70890450  0.68839722  0.67068696
   0.82513985  0.85170459  0.86228742
unknown system                          
           1
    10.507466   -0.110590    0.010938
    -0.000000   10.335135   -0.155455
    -0.000000   -0.000000   10.213297
   Li
    54
Direct configuration=          30
   0.01526440  0.00498667  0.02478575
   0.18702540  0.17831214  0.12203644
   0.02167064  0.01859445  0.34916055
   0.18371500  0.18427088  0.52503670
   0.04717803  0.00872064  0.67768909
   0.15307336  0.18282141  0.83371223
   0.02323247  0.37054562  0.01959261
   0.21729318  0.51929547  0.18973399
  -0.00151252  0.34150112  0.33110985
   0.15328455  0.50263835  0.52025595
  -0.02287621  0.33659700  0.67475628
   0.18401053  0.43254832  0.81520053
  -0.02172037  0.70028337  0.03008005
   0.17006213  0.83046224  0.18927542
  -0.00983097  0.62715106  0.32269841
   0.16992809  0.82626349  0.47799076
  -0.01484438  0.63963698  0.71519625
   0.19114060  0.80791763  0.83862588
   0.31759653 -0.04979469  0.02699513
   0.46738633  0.14505012  0.16006924
   0.32027961  0.01882759  0.34568470
   0.52881300  0.17512830  0.49992890
   0.35260530 -0.02583281  0.63712514
   0.49271733  0.12899744  0.84524560
   0.34944476  0.34342878  0.03485249
   0.53791616  0.47377894  0.21426565
   0.33057321  0.29942783  0.35932794
   0.53035416  0.49518267  0.49720330
   0.37881457  0.32669280  0.63008367
   0.51271991  0.47992493  0.83308765
   0.32721033  0.61440354 -0.03498057
   0.53166509  0.79298786  0.21261941
   0.34556341  0.68416084  0.34591824
   0.52689713  0.81059027  0.50061625
   0.32455163  0.66442799  0.63574549
   0.48892085  0.78774973  0.83047935
   0.61784940 -0.01053116  0.00435843
   0.84310899  0.20831222  0.14825411
   0.66995791  0.04882640  0.31882722
   0.85377860  0.15524866  0.53564894
   0.65718256 -0.02257133  0.65084589
   0.82712791  0.18531782  0.85859890
   0.65300716  0.31890521  0.04343982
   0.82045550  0.50541146  0.14509511
   0.71240593  0.32757533  0.37118369
   0.85242805  0.50600375  0.51562425
   0.68364672  0.32909809  0.67252543
   0.84274132  0.49019448  0.87107647
   0.68941343  0.67168852  0.02147370
   0.82130538  0.88996398  0.18170046
   0.71859435  0.65745590  0.33438772
   0.86320246  0.85411326  0.48103761
   0.70873628  0.68859407  0.67085620
   0.82688137  0.85199516  0.86481284
unknown system                          
           1
    10.519228   -0.112123    0.011559
    -0.000000   10.335167   -0.160398
    -0.000000   -0.000000   10.210617
   Li
    54
Direct configuration=          31
   0.01707237  0.00579202  0.02428867
   0.18752422  0.17701886  0.12138548
   0.02206054  0.01954545  0.34889791
   0.18222785  0.18453604  0.52585761
   0.05058694  0.00874011  0.67873462
   0.15137900  0.18265814  0.83353344
   0.02480971  0.37304461  0.01888414
   0.21663645  0.51812527  0.19014282
   0.00133883  0.34422904  0.33027969
   0.15246940  0.50435641  0.51954632
  -0.02261024  0.33642513  0.67438085
   0.18659933  0.43541948  0.81503166
  -0.02063201  0.69862728  0.02940486
   0.17040119  0.83141740  0.18824440
  -0.00532598  0.62410160  0.32257580
   0.16847200  0.82628617  0.48104005
  -0.01464484  0.64049122  0.71799895
   0.19166199  0.80937932  0.83900015
   0.31675104 -0.05149841  0.02736074
   0.46856364  0.14596698  0.15957363
   0.31920649  0.01864410  0.34695398
   0.52874850  0.17506154  0.49944410
   0.35252519 -0.02794273  0.63675623
   0.49076953  0.12956154  0.84306355
   0.35067021  0.34289410  0.03532741
   0.53778740  0.47332413  0.21461616
   0.33128717  0.29937187  0.35732928
   0.52994052  0.49496380  0.49684970
   0.37796742  0.32757472  0.63078861
   0.51429781  0.48479158  0.83392000
   0.32674193  0.61416030 -0.03500592
   0.53199327  0.79202242  0.21326973
   0.34579931  0.68533142  0.34719553
   0.52891947  0.81086241  0.50083616
   0.32527554  0.66248698  0.63659006
   0.48801255  0.78735944  0.82597294
   0.61724754 -0.00987449  0.00408717
   0.84239276  0.20811975  0.14703151
   0.66844620  0.04858789  0.31841610
   0.85508717  0.15400261  0.53752016
   0.65408599 -0.02060327  0.65087648
   0.82805738  0.18471551  0.86007827
   0.65129484  0.31868067  0.04481445
   0.81887477  0.50352790  0.14684589
   0.71555359  0.32929930  0.37078810
   0.85594635  0.50521760  0.51545927
   0.68641763  0.32918654  0.67364612
   0.84018473  0.49068617  0.86955706
   0.68991105  0.66961921  0.02317916
   0.82273245  0.89051215  0.18155077
   0.71689726  0.65940610  0.33398586
   0.86425383  0.85503738  0.48169604
   0.70871861  0.68849903  0.67158279
   0.82833960  0.85271018  0.86732253
unknown system                          
           1
    10.531650   -0.114367    0.012036
    -0.000000   10.336045   -0.164461
    -0.000000   -0.000000   10.208273
   Li
    54
Direct configuration=          32
   0.01891901  0.00617694  0.02360337
   0.18698966  0.17562034  0.12078447
   0.02183161  0.02084885  0.34869947
   0.18049404  0.18501039  0.52758117
   0.05355479  0.00853125  0.67968231
   0.15007276  0.18227580  0.83381312
   0.02684303  0.37550630  0.01826576
   0.21587215  0.51692087  0.19042335
   0.00408756  0.34640748  0.32924916
   0.15186148  0.50549655  0.51926988
  -0.02222200  0.33648786  0.67407187
   0.19024752  0.43839284  0.81485269
  -0.01951481  0.69722597  0.02890864
   0.17026661  0.83213557  0.18760049
  -0.00095851  0.62149882  0.32221797
   0.16727628  0.82572132  0.48426661
  -0.01417102  0.64104517  0.72045641
   0.19163293  0.81089568  0.83943514
   0.31622759 -0.05331721  0.02773776
   0.46993795  0.14704576  0.15909877
   0.31842240  0.01891096  0.34814799
   0.52851071  0.17427353  0.49910283
   0.35262874 -0.03040544  0.63646203
   0.48901038  0.13027942  0.84064868
   0.35155680  0.34274696  0.03639922
   0.53767052  0.47353167  0.21540631
   0.33226304  0.29971884  0.35491680
   0.52950461  0.49460695  0.49565480
   0.37757614  0.32868210  0.63178358
   0.51559780  0.48933451  0.83509071
   0.32602615  0.61424898 -0.03516731
   0.53229868  0.79088002  0.21350083
   0.34520600  0.68630443  0.34831069
   0.53131979  0.81122316  0.50108937
   0.32580878  0.66079140  0.63783959
   0.48740098  0.78665000  0.82108293
   0.61666669 -0.00915262  0.00399430
   0.84194551  0.20725257  0.14595098
   0.66694540  0.04819426  0.31828196
   0.85623385  0.15242183  0.53891205
   0.65075856 -0.01821405  0.65113193
   0.82817988  0.18423044  0.86195966
   0.64935863  0.31833605  0.04601854
   0.81729815  0.50147572  0.14890246
   0.71820689  0.33112814  0.37054770
   0.85993747  0.50422200  0.51466432
   0.68896609  0.32955874  0.67496906
   0.83775162  0.49127024  0.86795673
   0.69027419  0.66770084  0.02434104
   0.82428801  0.89090563  0.18127950
   0.71523463  0.66111558  0.33362540
   0.86500206  0.85591270  0.48230881
   0.70876125  0.68797462  0.67243271
   0.82972046  0.85370592  0.86982956
unknown system                          
           1
    10.542571   -0.116097    0.010637
    -0.000000   10.336712   -0.167797
    -0.000000   -0.000000   10.207119
   Li
    54
Direct configuration=          33
   0.02121739  0.00637271  0.02267577
   0.18621032  0.17403276  0.12016831
   0.02156362  0.02201142  0.34815347
   0.17811374  0.18607767  0.52948610
   0.05605536  0.00815743  0.68061090
   0.14879431  0.18201464  0.83353400
   0.02870029  0.37817199  0.01791732
   0.21497542  0.51647569  0.19054411
   0.00651281  0.34787073  0.32844678
   0.15120335  0.50675503  0.51898618
  -0.02141104  0.33668899  0.67384848
   0.19408708  0.44108329  0.81457512
  -0.01860438  0.69538315  0.02736656
   0.17029049  0.83269761  0.18681590
   0.00367487  0.61947058  0.32153518
   0.16569840  0.82542217  0.48761547
  -0.01322513  0.64152585  0.72301311
   0.19149435  0.81230776  0.83999831
   0.31555379 -0.05494815  0.02788304
   0.47184692  0.14785998  0.15891736
   0.31764457  0.01877129  0.34907199
   0.52819128  0.17337599  0.49830002
   0.35254282 -0.03318692  0.63611045
   0.48690234  0.13129402  0.83805809
   0.35251178  0.34286277  0.03745705
   0.53727878  0.47351227  0.21672988
   0.33312097  0.30007787  0.35201547
   0.52950480  0.49448421  0.49462078
   0.37717952  0.32986801  0.63312706
   0.51641457  0.49367147  0.83638725
   0.32597645  0.61471252 -0.03564330
   0.53282299  0.79022807  0.21339259
   0.34450409  0.68710634  0.34920076
   0.53366441  0.81148495  0.50089095
   0.32642993  0.65881593  0.63891614
   0.48688278  0.78638614  0.81634022
   0.61604035 -0.00867744  0.00463992
   0.84231443  0.20591188  0.14461371
   0.66543642  0.04773894  0.31738603
   0.85753808  0.15074427  0.54059837
   0.64787808 -0.01576427  0.65147116
   0.82829512  0.18352794  0.86343714
   0.64772861  0.31776346  0.04675241
   0.81629488  0.49949159  0.15136435
   0.72081109  0.33309024  0.37045983
   0.86374140  0.50302654  0.51429998
   0.69139175  0.33015310  0.67651227
   0.83494886  0.49196394  0.86630598
   0.69071492  0.66590086  0.02557059
   0.82584943  0.89075955  0.18108473
   0.71430019  0.66294417  0.33339265
   0.86585766  0.85672580  0.48292008
   0.70799259  0.68693149  0.67308933
   0.83143965  0.85468884  0.87194915
unknown system                          
           1
    10.553370   -0.115126    0.008763
    -0.000000   10.338780   -0.170552
    -0.000000   -0.000000   10.206774
   Li
    54
Direct configuration=          34
   0.02340974  0.00593095  0.02147247
   0.18513924  0.17244462  0.11970255
   0.02139082  0.02299889  0.34780492
   0.17523369  0.18754975  0.53149143
   0.05835463  0.00746316  0.68218023
   0.14742463  0.18168870  0.83340108
   0.03053511  0.38015806  0.01834092
   0.21426812  0.51647201  0.19026265
   0.00893935  0.34928205  0.32747134
   0.15076830  0.50815984  0.51831739
  -0.02033617  0.33660991  0.67405099
   0.19860276  0.44385006  0.81417012
  -0.01784750  0.69328160  0.02562436
   0.17053583  0.83300090  0.18587952
   0.00846636  0.61809977  0.32102036
   0.16401113  0.82447536  0.49071129
  -0.01231274  0.64233283  0.72519307
   0.19177658  0.81398934  0.84061553
   0.31503749 -0.05720982  0.02799547
   0.47344392  0.14893602  0.15890046
   0.31715583  0.01851791  0.34964360
   0.52818100  0.17241991  0.49785937
   0.35249522 -0.03563257  0.63603764
   0.48525165  0.13218490  0.83544964
   0.35356280  0.34309161  0.03873399
   0.53692520  0.47349387  0.21820764
   0.33368341  0.30045037  0.34915005
   0.52965660  0.49470544  0.49375135
   0.37644980  0.33153398  0.63472997
   0.51746550  0.49735438  0.83785670
   0.32625379  0.61519955 -0.03586866
   0.53341644  0.78882162  0.21321575
   0.34413723  0.68806539  0.35003487
   0.53608780  0.81168836  0.50095565
   0.32639732  0.65702683  0.64047614
   0.48699393  0.78637231  0.81204168
   0.61551636 -0.00810823  0.00538453
   0.84247681  0.20406493  0.14292133
   0.66368424  0.04714077  0.31595493
   0.85915098  0.14877809  0.54228014
   0.64498780 -0.01349589  0.65212127
   0.82884618  0.18263672  0.86456080
   0.64611177  0.31674752  0.04743985
   0.81552486  0.49796302  0.15348380
   0.72297904  0.33478675  0.37053360
   0.86726083  0.50227189  0.51375268
   0.69263903  0.33013062  0.67789170
   0.83167778  0.49221508  0.86491510
   0.69083170  0.66424001  0.02686969
   0.82716621  0.89004729  0.18134555
   0.71361778  0.66505102  0.33341085
   0.86630739  0.85747286  0.48420126
   0.70690859  0.68599593  0.67328824
   0.83290372  0.85606437  0.87361822
unknown system                          
           1
    10.565149   -0.113214    0.007417
    -0.000000   10.342328   -0.172689
    -0.000000   -0.000000   10.206212
   Li
    54
Direct configuration=          35
   0.02573811  0.00545158  0.02048268
   0.18399667  0.17069865  0.11959633
   0.02084252  0.02442004  0.34772187
   0.17225266  0.18896008  0.53410002
   0.06054374  0.00652302  0.68391679
   0.14595171  0.18088459  0.83344632
   0.03278307  0.38236549  0.01848642
   0.21305500  0.51682792  0.18955609
   0.01161263  0.35077404  0.32607815
   0.15050707  0.50951404  0.51769163
  -0.01899216  0.33630833  0.67447503
   0.20310569  0.44679909  0.81360872
  -0.01694145  0.69076003  0.02372368
   0.17017425  0.83304926  0.18492203
   0.01297431  0.61690710  0.32024483
   0.16241591  0.82366507  0.49401252
  -0.01142515  0.64333178  0.72716717
   0.19189130  0.81571919  0.84121074
   0.31451143 -0.05937913  0.02805611
   0.47525627  0.14944433  0.15876384
   0.31708004  0.01814811  0.35010656
   0.52809886  0.17111533  0.49752547
   0.35205867 -0.03756644  0.63594920
   0.48327023  0.13356558  0.83295060
   0.35479708  0.34348759  0.03964549
   0.53656229  0.47395698  0.22010314
   0.33403151  0.30151073  0.34655714
   0.53077193  0.49483634  0.49239380
   0.37572187  0.33305399  0.63720624
   0.51869538  0.50070991  0.83903324
   0.32625645  0.61618718 -0.03625859
   0.53452820  0.78798170  0.21295880
   0.34412583  0.68916715  0.35110020
   0.53860180  0.81156845  0.50056277
   0.32653283  0.65525440  0.64178734
   0.48708015  0.78731432  0.80826001
   0.61461591 -0.00775397  0.00550681
   0.84212661  0.20187248  0.14170623
   0.66208866  0.04685615  0.31457597
   0.86024963  0.14625041  0.54407305
   0.64292657 -0.01128771  0.65277030
   0.82938381  0.18163351  0.86581528
   0.64452856  0.31598751  0.04757893
   0.81496920  0.49650985  0.15521491
   0.72543246  0.33633195  0.37068981
   0.87089192  0.50182769  0.51268346
   0.69323738  0.32993725  0.67874806
   0.82847312  0.49238707  0.86347733
   0.69074395  0.66337307  0.02759476
   0.82851400  0.88922003  0.18191207
   0.71251618  0.66686906  0.33395724
   0.86718085  0.85769140  0.48578877
   0.70547598  0.68514957  0.67368868
   0.83516986  0.85798115  0.87421359
unknown system                          
           1
    10.576833   -0.107879    0.005498
    -0.000000   10.346524   -0.174685
    -0.000000   -0.000000   10.205811
   Li
    54
Direct configuration=          36
   0.02785877  0.00485325  0.02004219
   0.18211778  0.16920767  0.12015720
   0.01992671  0.02597666  0.34764418
   0.16931016  0.19043427  0.53718754
   0.06242532  0.00563377  0.68580604
   0.14491249  0.18013169  0.83344539
   0.03466189  0.38479334  0.01921920
   0.21215919  0.51700272  0.18843262
   0.01434434  0.35193209  0.32457521
   0.15064819  0.51087753  0.51696871
  -0.01745431  0.33562319  0.67505711
   0.20680215  0.44975337  0.81307080
  -0.01594775  0.68822224  0.02219051
   0.16902271  0.83268313  0.18366509
   0.01780578  0.61561683  0.31977021
   0.16134151  0.82192386  0.49688011
  -0.01074994  0.64502791  0.72937232
   0.19209046  0.81728467  0.84211132
   0.31409829 -0.06121796  0.02792504
   0.47688724  0.15023109  0.15901868
   0.31678386  0.01791720  0.35107940
   0.52878577  0.16987058  0.49680531
   0.35149476 -0.03933414  0.63590069
   0.48079323  0.13513140  0.83003208
   0.35632826  0.34403684  0.03956197
   0.53590399  0.47499278  0.22236850
   0.33486634  0.30243237  0.34420120
   0.53163998  0.49471350  0.49126551
   0.37506744  0.33434327  0.64000668
   0.51988156  0.50413909  0.84030329
   0.32609687  0.61810534 -0.03647234
   0.53526685  0.78696316  0.21250792
   0.34433356  0.69095724  0.35253374
   0.54143146  0.81134046  0.49988291
   0.32677124  0.65347202  0.64322544
   0.48737335  0.78805716  0.80556741
   0.61394927 -0.00757680  0.00598094
   0.84219154  0.19989081  0.14086018
   0.66096772  0.04642697  0.31341299
   0.86106922  0.14396604  0.54543248
   0.64078853 -0.00921933  0.65337924
   0.82929269  0.18011044  0.86704956
   0.64329333  0.31540314  0.04746600
   0.81458129  0.49554973  0.15713738
   0.72743633  0.33811272  0.37116181
   0.87475872  0.50170804  0.51135678
   0.69419165  0.33012390  0.67931707
   0.82492524  0.49204424  0.86153614
   0.69034548  0.66250343  0.02805777
   0.83062682  0.88795107  0.18263288
   0.71204495  0.66883758  0.33421079
   0.86776075  0.85792626  0.48716903
   0.70369551  0.68397512  0.67388896
   0.83718608  0.86009799  0.87450489
unknown system                          
           1
    10.587916   -0.102539    0.005237
    -0.000000   10.350563   -0.178677
    -0.000000   -0.000000   10.206682
   Li
    54
Direct configuration=          37
   0.03029775  0.00455780  0.01965395
   0.18071197  0.16842390  0.12088706
   0.01854497  0.02727131  0.34697553
   0.16579454  0.19229862  0.54083537
   0.06379557  0.00423394  0.68733112
   0.14404598  0.17948143  0.83283575
   0.03652458  0.38733844  0.02004798
   0.21149578  0.51746734  0.18670435
   0.01739118  0.35213611  0.32301698
   0.15097720  0.51146635  0.51621007
  -0.01592169  0.33443983  0.67566409
   0.21031156  0.45279902  0.81266831
  -0.01499656  0.68521269  0.02082961
   0.16754215  0.83271592  0.18309707
   0.02222508  0.61473001  0.31939869
   0.16091330  0.82063289  0.49943637
  -0.00976044  0.64717552  0.73155484
   0.19205773  0.81903208  0.84251181
   0.31349263 -0.06229082  0.02764094
   0.47861068  0.15071993  0.15942183
   0.31646967  0.01759166  0.35180252
   0.52955509  0.16861814  0.49610404
   0.35079666 -0.04093456  0.63597122
   0.47831106  0.13691689  0.82719102
   0.35747455  0.34504260  0.03909709
   0.53487491  0.47643551  0.22410953
   0.33562707  0.30374269  0.34215119
   0.53225444  0.49508761  0.49035971
   0.37362298  0.33524635  0.64313877
   0.52076494  0.50711125  0.84150115
   0.32608025  0.62024443 -0.03654547
   0.53560778  0.78578001  0.21141227
   0.34422680  0.69301432  0.35426094
   0.54429327  0.81125946  0.49887874
   0.32730583  0.65161605  0.64434686
   0.48727902  0.78913536  0.80275941
   0.61291568 -0.00745063  0.00683682
   0.84240517  0.19752585  0.13998719
   0.65943744  0.04560417  0.31260121
   0.86191029  0.14145953  0.54614441
   0.63910404 -0.00754850  0.65432166
   0.82948951  0.17904857  0.86793072
   0.64212381  0.31482268  0.04719874
   0.81506352  0.49431008  0.15879237
   0.72883666  0.33994435  0.37134776
   0.87876848  0.50185989  0.51042677
   0.69522396  0.33047749  0.68017030
   0.82121356  0.49142319  0.85946307
   0.68975999  0.66189199  0.02818869
   0.83288394  0.88682308  0.18310018
   0.71177918  0.67071707  0.33506840
   0.86855513  0.85824453  0.48853297
   0.70191853  0.68230095  0.67415536
   0.83909588  0.86212553  0.87452929
unknown system                          
           1
    10.597337   -0.095671    0.005853
    -0.000000   10.353600   -0.182298
    -0.000000   -0.000000   10.207091
   Li
    54
Direct configuration=          38
   0.03229990  0.00444024  0.01911852
   0.17938528  0.16764605  0.12150764
   0.01721486  0.02842358  0.34588577
   0.16256830  0.19360738  0.54375332
   0.06464654  0.00274162  0.68840218
   0.14299335  0.17853407  0.83258168
   0.03784964  0.38957612  0.02042280
   0.21071712  0.51780395  0.18574240
   0.02069352  0.35205815  0.32138547
   0.15199372  0.51202481  0.51522998
  -0.01382552  0.33336117  0.67613813
   0.21409721  0.45617463  0.81236658
  -0.01355419  0.68241266  0.01953983
   0.16598039  0.83238330  0.18249847
   0.02707373  0.61365387  0.31872720
   0.16044354  0.81944073  0.50204448
  -0.00917593  0.64929553  0.73341334
   0.19202251  0.82073592  0.84260438
   0.31324171 -0.06329605  0.02757144
   0.47987749  0.15133848  0.16039457
   0.31607448  0.01692515  0.35265014
   0.53029183  0.16760194  0.49482435
   0.35058680 -0.04239837  0.63568453
   0.47636258  0.13873289  0.82410528
   0.35855141  0.34602254  0.03832046
   0.53353471  0.47791903  0.22592611
   0.33622388  0.30517070  0.34007999
   0.53299072  0.49539063  0.48963982
   0.37226978  0.33611959  0.64686451
   0.52143556  0.50968513  0.84291589
   0.32646144  0.62214922 -0.03587590
   0.53574076  0.78472074  0.21016509
   0.34425858  0.69563325  0.35584477
   0.54674293  0.81110442  0.49799953
   0.32805035  0.64976007  0.64561969
   0.48764891  0.79110326  0.80067663
   0.61237946 -0.00719732  0.00821666
   0.84260308  0.19492211  0.13937544
   0.65838323  0.04446455  0.31243473
   0.86248381  0.13885818  0.54704384
   0.63772694 -0.00587390  0.65531141
   0.82970123  0.17756766  0.86801342
   0.64078743  0.31420075  0.04716128
   0.81565246  0.49337541  0.16105831
   0.73077836  0.34145851  0.37191282
   0.88255818  0.50242636  0.50975951
   0.69579703  0.33116583  0.68134390
   0.81783841  0.49070142  0.85694405
   0.68901979  0.66130688  0.02852817
   0.83524819  0.88515785  0.18372261
   0.71163888  0.67226246  0.33594229
   0.86980265  0.85838578  0.48999258
   0.70012251  0.68093535  0.67418176
   0.84103972  0.86436850  0.87447472
unknown system                          
           1
    10.606674   -0.087960    0.008349
    -0.000000   10.357226   -0.184413
    -0.000000   -0.000000   10.208920
   Li
    54
Direct configuration=          39
   0.03322044  0.00445404  0.01817861
   0.17816927  0.16629456  0.12256138
   0.01625366  0.02951383  0.34484920
   0.15992178  0.19460234  0.54677441
   0.06494770  0.00108126  0.68915560
   0.14235975  0.17792281  0.83248443
   0.03864342  0.39231571  0.02098558
   0.21008652  0.51786337  0.18398479
   0.02424250  0.35203400  0.31957932
   0.15364745  0.51234386  0.51427712
  -0.01261408  0.33204345  0.67702146
   0.21716656  0.45878902  0.81222241
  -0.01236418  0.67965758  0.01819018
   0.16470057  0.83186991  0.18218513
   0.03176496  0.61265735  0.31769305
   0.15914450  0.81766034  0.50422227
  -0.00866053  0.65183293  0.73507864
   0.19234111  0.82218481  0.84313428
   0.31347047 -0.06429261  0.02735656
   0.48132336  0.15170876  0.16122733
   0.31554343  0.01652312  0.35295141
   0.53146638  0.16653098  0.49389406
   0.35046268 -0.04400814  0.63579506
   0.47406759  0.14060337  0.82141275
   0.35979537  0.34772835  0.03728576
   0.53222682  0.47914623  0.22757469
   0.33647338  0.30726162  0.33808822
   0.53457566  0.49587976  0.48893886
   0.37122908  0.33692416  0.65059112
   0.52153030  0.51202576  0.84426884
   0.32692328  0.62448750 -0.03452697
   0.53578468  0.78375753  0.20899949
   0.34516523  0.69817694  0.35711122
   0.54929289  0.81082915  0.49689014
   0.32874572  0.64835573  0.64656952
   0.48789658  0.79347499  0.79864127
   0.61238051 -0.00719080  0.00900545
   0.84313353  0.19208608  0.13925686
   0.65782138  0.04284049  0.31281661
   0.86248132  0.13628687  0.54798547
   0.63701167 -0.00424338  0.65596278
   0.82994240  0.17598999  0.86804031
   0.63941933  0.31373312  0.04682379
   0.81629936  0.49223146  0.16351422
   0.73238194  0.34260312  0.37217395
   0.88677846  0.50325624  0.50939647
   0.69589283  0.33176700  0.68229802
   0.81554372  0.49033148  0.85466023
   0.68863742  0.66072145  0.02894283
   0.83765465  0.88310065  0.18447894
   0.71152728  0.67378523  0.33731382
   0.87069247  0.85856549  0.49139062
   0.69880806  0.67987782  0.67359800
   0.84326216  0.86645438  0.87379263
unknown system                          
           1
    10.614270   -0.079462    0.011512
    -0.000000   10.359864   -0.186170
    -0.000000   -0.000000   10.209736
   Li
    54
Direct configuration=          40
   0.03405969  0.00452391  0.01662950
   0.17700955  0.16526434  0.12405429
   0.01479807  0.03089033  0.34379013
   0.15766258  0.19546608  0.54930472
   0.06491701 -0.00052694  0.68950222
   0.14151953  0.17783161  0.83285006
   0.03952629  0.39543116  0.02141231
   0.20990472  0.51744212  0.18271198
   0.02811755  0.35147521  0.31768823
   0.15543612  0.51239131  0.51322578
  -0.01145714  0.33089951  0.67798703
   0.21973951  0.46114071  0.81219689
  -0.01154137  0.67718572  0.01711388
   0.16330811  0.83095086  0.18214490
   0.03652919  0.61168517  0.31619684
   0.15785834  0.81595622  0.50644216
  -0.00770418  0.65458875  0.73615883
   0.19297614  0.82366046  0.84381650
   0.31393729 -0.06508073  0.02712639
   0.48238453  0.15226527  0.16194458
   0.31518025  0.01600965  0.35316824
   0.53213091  0.16539682  0.49319594
   0.35045019 -0.04515970  0.63603147
   0.47176408  0.14232937  0.81898527
   0.36079891  0.34958081  0.03555466
   0.53031853  0.48051988  0.22883400
   0.33636118  0.30946543  0.33564702
   0.53640767  0.49650647  0.48830865
   0.37048126  0.33814198  0.65424759
   0.52122618  0.51395661  0.84543025
   0.32755046  0.62752817 -0.03231396
   0.53546228  0.78312122  0.20728671
   0.34591210  0.70059423  0.35821910
   0.55239271  0.81053488  0.49532624
   0.32954059  0.64706622  0.64758740
   0.48890298  0.79595456  0.79645648
   0.61234964 -0.00715564  0.00916601
   0.84365930  0.18957212  0.13928015
   0.65799065  0.04153560  0.31333089
   0.86213592  0.13347939  0.54949488
   0.63590532 -0.00268468  0.65701812
   0.83037368  0.17459073  0.86794155
   0.63794997  0.31295785  0.04592199
   0.81703630  0.49103847  0.16570236
   0.73412811  0.34286018  0.37244861
   0.89085461  0.50437809  0.50895754
   0.69535235  0.33290242  0.68333581
   0.81361395  0.48971424  0.85223048
   0.68815898  0.66080437  0.02942816
   0.84016896  0.88033982  0.18499197
   0.71163625  0.67481882  0.33854422
   0.87129344  0.85841301  0.49263877
   0.69687231  0.67890156  0.67324396
   0.84543277  0.86855140  0.87290225
unknown system                          
           1
    10.620520   -0.070107    0.015433
    -0.000000   10.362495   -0.187728
    -0.000000   -0.000000   10.211034
   Li
    54
Direct configuration=          41
   0.03452509  0.00420514  0.01431893
   0.17613132  0.16421313  0.12580860
   0.01360881  0.03240697  0.34249269
   0.15524984  0.19649811  0.55146076
   0.06475916 -0.00221657  0.68966138
   0.14090210  0.17792892  0.83337993
   0.04028488  0.39880042  0.02204758
   0.21014717  0.51688306  0.18165378
   0.03194245  0.34993392  0.31559708
   0.15769401  0.51211842  0.51209848
  -0.01033749  0.33055890  0.67925484
   0.22190172  0.46314835  0.81207161
  -0.01024911  0.67494774  0.01640963
   0.16140576  0.82993983  0.18269274
   0.04140236  0.61119305  0.31410135
   0.15637872  0.81399688  0.50871669
  -0.00666474  0.65753481  0.73631227
   0.19385116  0.82446177  0.84487357
   0.31484772 -0.06567453  0.02675047
   0.48293500  0.15328211  0.16236979
   0.31523639  0.01550014  0.35279810
   0.53267126  0.16443487  0.49235243
   0.35023446 -0.04644731  0.63628963
   0.46948980  0.14401462  0.81667472
   0.36209157  0.35145091  0.03320246
   0.52860999  0.48171543  0.22945587
   0.33635583  0.31144448  0.33431939
   0.53829650  0.49716250  0.48745276
   0.36984457  0.33897975  0.65740350
   0.52106457  0.51549107  0.84684362
   0.32810722  0.63071420 -0.03043385
   0.53464524  0.78241037  0.20551660
   0.34622694  0.70326425  0.35910086
   0.55525993  0.80989593  0.49448334
   0.33015999  0.64600702  0.64890133
   0.49012628  0.79836167  0.79459247
   0.61245270 -0.00724947  0.00893397
   0.84451261  0.18669049  0.13932725
   0.65803919  0.04046645  0.31390430
   0.86160322  0.13082114  0.55108724
   0.63519001 -0.00199957  0.65809965
   0.83111699  0.17307412  0.86848624
   0.63633480  0.31303774  0.04492419
   0.81819785  0.49036556  0.16844498
   0.73596154  0.34310670  0.37274691
   0.89490227  0.50503875  0.50931133
   0.69469306  0.33398474  0.68382879
   0.81191569  0.48907818  0.84976297
   0.68846375  0.66071628  0.02972119
   0.84249770  0.87755438  0.18485333
   0.71198624  0.67550917  0.33968457
   0.87177408  0.85815065  0.49377524
   0.69503949  0.67797714  0.67312689
   0.84790678  0.87078845  0.87177951
unknown system                          
           1
    10.627758   -0.060432    0.019897
    -0.000000   10.365368   -0.188493
    -0.000000   -0.000000   10.213088
   Li
    54
Direct configuration=          42
   0.03536888  0.00357624  0.01237234
   0.17546334  0.16392419  0.12769194
   0.01231190  0.03415002  0.34134200
   0.15270324  0.19730264  0.55334356
   0.06431403 -0.00399712  0.68988112
   0.14023202  0.17809017  0.83393178
   0.04071902  0.40245078  0.02254388
   0.21062559  0.51671266  0.18069882
   0.03599573  0.34817202  0.31391115
   0.16035070  0.51157803  0.51124749
  -0.00958326  0.33037406  0.68088155
   0.22413051  0.46536555  0.81262786
  -0.00882754  0.67286601  0.01532469
   0.15918403  0.82889025  0.18332169
   0.04613514  0.61139708  0.31177985
   0.15498027  0.81208262  0.51046518
  -0.00506965  0.66061311  0.73591245
   0.19478199  0.82516508  0.84554109
   0.31630788 -0.06610443  0.02635476
   0.48332772  0.15401589  0.16321462
   0.31581458  0.01498453  0.35215707
   0.53275576  0.16321602  0.49227362
   0.35041357 -0.04739679  0.63676122
   0.46736972  0.14570488  0.81431606
   0.36314321  0.35313322  0.03085402
   0.52692926  0.48261209  0.22977191
   0.33642947  0.31391330  0.33323701
   0.53993288  0.49824249  0.48677360
   0.36913320  0.33988767  0.66081378
   0.52069169  0.51714423  0.84840346
   0.32913083  0.63438725 -0.02862311
   0.53357648  0.78227533  0.20376972
   0.34577454  0.70568509  0.36049148
   0.55761774  0.80904878  0.49336742
   0.33096664  0.64489290  0.64997327
   0.49110784  0.80088496  0.79310274
   0.61228526 -0.00757840  0.00899539
   0.84508076  0.18411649  0.13947414
   0.65797733  0.03938339  0.31526495
   0.86098865  0.12852021  0.55260692
   0.63482372 -0.00141330  0.65925256
   0.83226531  0.17199725  0.86891365
   0.63471448  0.31312900  0.04380817
   0.82003544  0.48987974  0.17134803
   0.73728330  0.34320795  0.37287003
   0.89849003  0.50527888  0.50998341
   0.69392596  0.33462681  0.68434899
   0.81025102  0.48885180  0.84733142
   0.68873180  0.66068604  0.02975796
   0.84393953  0.87509757  0.18501268
   0.71261782  0.67666828  0.34065757
   0.87193774  0.85743444  0.49474305
   0.69369150  0.67706019  0.67318909
   0.85074824  0.87307113  0.87096291
unknown system                          
           1
    10.634766   -0.050748    0.021542
    -0.000000   10.367884   -0.188008
    -0.000000   -0.000000   10.215010
   Li
    54
Direct configuration=          43
   0.03588820  0.00283346  0.01029629
   0.17490573  0.16344059  0.12966197
   0.01076118  0.03600727  0.34022732
   0.15065788  0.19771171  0.55494809
   0.06349173 -0.00590602  0.69013330
   0.13951803  0.17831025  0.83520479
   0.04106853  0.40576168  0.02292870
   0.21131966  0.51616959  0.17965133
   0.03998366  0.34620882  0.31203127
   0.16261913  0.51117916  0.51040040
  -0.00901115  0.33054846  0.68340985
   0.22565092  0.46725034  0.81310366
  -0.00766988  0.67102685  0.01427849
   0.15587502  0.82703508  0.18339812
   0.05078405  0.61190833  0.30978235
   0.15324191  0.81066143  0.51195869
  -0.00311082  0.66320419  0.73536696
   0.19548249  0.82573656  0.84614125
   0.31787046 -0.06620410  0.02551485
   0.48336054  0.15449946  0.16470933
   0.31640376  0.01448979  0.35180880
   0.53258926  0.16275229  0.49239472
   0.35082287 -0.04826152  0.63732531
   0.46540323  0.14699407  0.81196625
   0.36416360  0.35488892  0.02845108
   0.52521969  0.48369414  0.23024385
   0.33637070  0.31653222  0.33248141
   0.54169963  0.49930340  0.48542971
   0.36839685  0.34105246  0.66386069
   0.52019113  0.51771815  0.84932904
   0.32989030  0.63782290 -0.02607016
   0.53239656  0.78264111  0.20169956
   0.34499562  0.70771396  0.36174067
   0.56001428  0.80868351  0.49242150
   0.33155128  0.64404396  0.65059492
   0.49255315  0.80346346  0.79207897
   0.61230733 -0.00793490  0.00823593
   0.84590717  0.18138603  0.13998365
   0.65823952  0.03811863  0.31665296
   0.86019984  0.12573344  0.55356772
   0.63446902 -0.00081065  0.66055396
   0.83404428  0.17121651  0.86874257
   0.63277667  0.31339163  0.04257695
   0.82195175  0.48957376  0.17407477
   0.73812602  0.34292697  0.37301143
   0.90161200  0.50531048  0.51048279
   0.69233642  0.33536516  0.68501978
   0.80873952  0.48869273  0.84518613
   0.68897866  0.66077354  0.03002272
   0.84553544  0.87345124  0.18552371
   0.71404632  0.67756762  0.34197590
   0.87183859  0.85644371  0.49554120
   0.69255975  0.67615977  0.67314360
   0.85354640  0.87508104  0.86994379
unknown system                          
           1
    10.642596   -0.043303    0.024788
    -0.000000   10.371136   -0.188420
    -0.000000   -0.000000   10.217898
   Li
    54
Direct configuration=          44
   0.03667176  0.00200608  0.00788582
   0.17386018  0.16310280  0.13156522
   0.00892846  0.03765668  0.33934014
   0.14875727  0.19848408  0.55572552
   0.06232051 -0.00871686  0.69057675
   0.13931118  0.17920338  0.83665844
   0.04106538  0.40883343  0.02287450
   0.21228299  0.51546325  0.17852224
   0.04401716  0.34389655  0.30984471
   0.16473264  0.50988414  0.50911766
  -0.00883552  0.33049661  0.68572512
   0.22682557  0.46958430  0.81382908
  -0.00626450  0.66927592  0.01258904
   0.15238180  0.82539491  0.18320257
   0.05507325  0.61299040  0.30834367
   0.15143897  0.80927563  0.51322509
  -0.00092217  0.66550246  0.73447166
   0.19618560  0.82612324  0.84639283
   0.31999387 -0.06611578  0.02422679
   0.48272534  0.15463917  0.16591756
   0.31671159  0.01429617  0.35131202
   0.53242616  0.16254494  0.49256855
   0.35093902 -0.04851586  0.63833046
   0.46331660  0.14811276  0.80998209
   0.36496285  0.35713244  0.02596299
   0.52352780  0.48467234  0.23034857
   0.33668895  0.31919540  0.33213846
   0.54352339  0.50059984  0.48432342
   0.36716994  0.34236459  0.66660075
   0.51941604  0.51844762  0.84995599
   0.33023155  0.64151776 -0.02350922
   0.53090490  0.78305902  0.19942865
   0.34417910  0.70937806  0.36300353
   0.56240174  0.80855899  0.49150162
   0.33215941  0.64326648  0.65110194
   0.49339669  0.80599737  0.79152052
   0.61214863 -0.00826276  0.00746561
   0.84647324  0.17906607  0.14085477
   0.65904327  0.03647670  0.31772139
   0.85953450  0.12264218  0.55407840
   0.63463083 -0.00073345  0.66160696
   0.83579643  0.17054465  0.86896898
   0.63049332  0.31344773  0.04150482
   0.82417542  0.48918908  0.17709949
   0.73908907  0.34265725  0.37312119
   0.90467641  0.50576246  0.51127081
   0.69090289  0.33636501  0.68559835
   0.80764026  0.48848335  0.84329653
   0.68881175  0.66110326  0.02983602
   0.84684963  0.87157012  0.18625213
   0.71578911  0.67835782  0.34316556
   0.87182271  0.85552134  0.49716524
   0.69198773  0.67536991  0.67326656
   0.85585581  0.87713782  0.86870802
unknown system                          
           1
    10.650713   -0.036595    0.026518
    -0.000000   10.374149   -0.186679
    -0.000000   -0.000000   10.220705
   Li
    54
Direct configuration=          45
   0.03692514  0.00143919  0.00586824
   0.17336210  0.16214433  0.13405148
   0.00732861  0.03990281  0.33895665
   0.14679209  0.19843680  0.55624578
   0.06067786 -0.01126296  0.69160888
   0.13959702  0.18017860  0.83839971
   0.04082157  0.41157668  0.02326906
   0.21408221  0.51446732  0.17753691
   0.04797326  0.34102057  0.30792877
   0.16711313  0.50867321  0.50829154
  -0.00886664  0.33079514  0.68799523
   0.22762728  0.47200742  0.81478890
  -0.00493890  0.66830670  0.01075285
   0.14925147  0.82394868  0.18305727
   0.05857436  0.61393812  0.30745490
   0.14959457  0.80806318  0.51389745
   0.00103933  0.66758952  0.73313799
   0.19736979  0.82693449  0.84631824
   0.32206841 -0.06564937  0.02310889
   0.48187799  0.15460469  0.16723918
   0.31688199  0.01414114  0.35089010
   0.53234891  0.16236351  0.49266307
   0.35116164 -0.04834121  0.63956476
   0.46187977  0.14910533  0.80753439
   0.36582366  0.35940215  0.02308086
   0.52186586  0.48529336  0.23039759
   0.33667388  0.32211028  0.33228155
   0.54504504  0.50243909  0.48377873
   0.36623453  0.34363449  0.66878027
   0.51866408  0.51904200  0.85055267
   0.33086517  0.64541869 -0.02141342
   0.52966455  0.78345448  0.19728256
   0.34303749  0.71158690  0.36386750
   0.56428767  0.80879747  0.49093015
   0.33336116  0.64254853  0.65197777
   0.49417583  0.80858827  0.79065149
   0.61223477 -0.00861899  0.00713955
   0.84677051  0.17687603  0.14139112
   0.65967283  0.03485155  0.31851938
   0.85848793  0.11966864  0.55443797
   0.63491849 -0.00124087  0.66281322
   0.83733677  0.17031366  0.86928830
   0.62841227  0.31357519  0.04024206
   0.82596017  0.48893996  0.17939240
   0.74033931  0.34174694  0.37315593
   0.90756625  0.50644360  0.51206918
   0.68925076  0.33748388  0.68621191
   0.80663423  0.48815020  0.84171182
   0.68835783  0.66112576  0.02992696
   0.84829643  0.86948704  0.18686733
   0.71746868  0.67897418  0.34457493
   0.87142431  0.85412574  0.49827241
   0.69146666  0.67491797  0.67339918
   0.85781815  0.87951586  0.86733246
unknown system                          
           1
    10.658972   -0.030451    0.029495
    -0.000000   10.376476   -0.183343
    -0.000000   -0.000000   10.223589
   Li
    54
Direct configuration=          46
   0.03749913  0.00100735  0.00385190
   0.17327126  0.16133761  0.13649040
   0.00537221  0.04206055  0.33837298
   0.14540890  0.19818432  0.55648103
   0.05851065 -0.01379203  0.69279671
   0.14031214  0.18075562  0.83982970
   0.04061945  0.41409535  0.02299002
   0.21641038  0.51350691  0.17687479
   0.05149254  0.33779013  0.30692656
   0.16931274  0.50717976  0.50741934
  -0.00872803  0.33167621  0.69054656
   0.22820581  0.47447005  0.81582482
  -0.00362132  0.66681089  0.00876228
   0.14605976  0.82305076  0.18285545
   0.06109042  0.61496177  0.30713919
   0.14762488  0.80655399  0.51447585
   0.00260175  0.66949953  0.73150348
   0.19876266  0.82758091  0.84618428
   0.32436522 -0.06476841  0.02189725
   0.48040425  0.15430225  0.16855134
   0.31704329  0.01384778  0.35090027
   0.53227762  0.16239448  0.49267011
   0.35151193 -0.04810191  0.64092901
   0.46030370  0.14999230  0.80516742
   0.36621072  0.36180092  0.01995000
   0.52029946  0.48668852  0.23011907
   0.33640929  0.32514970  0.33236155
   0.54678060  0.50421095  0.48328580
   0.36550496  0.34432261  0.67082463
   0.51799868  0.51922898  0.85101883
   0.33163721  0.64910729 -0.01951922
   0.52839169  0.78445928  0.19465600
   0.34197291  0.71341613  0.36553890
   0.56562059  0.81014653  0.49008092
   0.33481806  0.64239787  0.65341199
   0.49503077  0.81137492  0.79016535
   0.61227365 -0.00862532  0.00673133
   0.84664985  0.17465727  0.14201356
   0.66019777  0.03270386  0.31923414
   0.85689017  0.11701827  0.55492398
   0.63579798 -0.00188873  0.66412599
   0.83854372  0.17066247  0.86937304
   0.62698147  0.31340319  0.03923646
   0.82767590  0.48881211  0.18220410
   0.74161434  0.34077048  0.37311504
   0.91032044  0.50709003  0.51347112
   0.68725808  0.33834460  0.68669760
   0.80583256  0.48814306  0.84025238
   0.68814615  0.66185716  0.02999249
   0.84906268  0.86740097  0.18743165
   0.71919996  0.67992456  0.34599335
   0.87087815  0.85298592  0.49909330
   0.69171293  0.67431740  0.67349582
   0.85972596  0.88137609  0.86574645
unknown system                          
           1
    10.669076   -0.025595    0.033720
    -0.000000   10.379470   -0.180024
    -0.000000   -0.000000   10.226320
   Li
    54
Direct configuration=          47
   0.03780922  0.00048884  0.00226411
   0.17368689  0.16117535  0.13919040
   0.00332336  0.04408902  0.33785683
   0.14462656  0.19826261  0.55569200
   0.05663863 -0.01630714  0.69437435
   0.14159996  0.18161138  0.84109208
   0.04069017  0.41695496  0.02297045
   0.21918017  0.51205165  0.17593309
   0.05484624  0.33417640  0.30637052
   0.17090167  0.50547436  0.50635277
  -0.00903080  0.33288748  0.69255395
   0.22761956  0.47695096  0.81668018
  -0.00222351  0.66572426  0.00697500
   0.14308926  0.82259341  0.18257757
   0.06360310  0.61645802  0.30720613
   0.14583355  0.80472372  0.51450447
   0.00442805  0.67180825  0.72980988
   0.20031369  0.82829768  0.84592499
   0.32661384 -0.06381052  0.02080224
   0.47839475  0.15445191  0.17012829
   0.31695422  0.01332117  0.35122285
   0.53225043  0.16261698  0.49304867
   0.35148409 -0.04807518  0.64216880
   0.45901517  0.15057552  0.80265365
   0.36617420  0.36365747  0.01741981
   0.51902884  0.48810707  0.23005747
   0.33598158  0.32820731  0.33305015
   0.54850098  0.50550094  0.48266545
   0.36459880  0.34487097  0.67289012
   0.51750756  0.51978372  0.85135544
   0.33230943  0.65283257 -0.01727903
   0.52712276  0.78537465  0.19167154
   0.34099626  0.71544712  0.36706779
   0.56702801  0.81126111  0.48911071
   0.33642126  0.64208866  0.65479563
   0.49567820  0.81385783  0.78997944
   0.61231337 -0.00883148  0.00582885
   0.84664462  0.17218305  0.14275510
   0.66038661  0.03049316  0.32010178
   0.85510910  0.11386637  0.55543411
   0.63682916 -0.00224738  0.66580275
   0.83953271  0.17099221  0.86962860
   0.62547810  0.31372126  0.03805767
   0.82977436  0.48847908  0.18475281
   0.74306091  0.33949928  0.37357282
   0.91253676  0.50775992  0.51491818
   0.68526492  0.33894353  0.68677813
   0.80510166  0.48856493  0.83926975
   0.68786839  0.66272274  0.03008839
   0.84950875  0.86535842  0.18807945
   0.72148833  0.68124139  0.34749774
   0.87024731  0.85148067  0.49978910
   0.69147097  0.67367878  0.67368153
   0.86070013  0.88305506  0.86391498
unknown system                          
           1
    10.679392   -0.021586    0.036805
    -0.000000   10.383254   -0.176327
    -0.000000   -0.000000   10.230256
   Li
    54
Direct configuration=          48
   0.03810239 -0.00019447  0.00076698
   0.17417114  0.16108656  0.14203940
   0.00144761  0.04623903  0.33778945
   0.14417607  0.19831123  0.55469553
   0.05454107 -0.01973285  0.69580852
   0.14282522  0.18259293  0.84244854
   0.04062602  0.41909685  0.02241703
   0.22260078  0.51039465  0.17467287
   0.05786366  0.33079071  0.30592668
   0.17271361  0.50326995  0.50549704
  -0.00956773  0.33403974  0.69457698
   0.22649047  0.47869900  0.81745484
  -0.00129506  0.66392286  0.00518733
   0.14026558  0.82285043  0.18224097
   0.06516776  0.61820524  0.30773645
   0.14431020  0.80306127  0.51447548
   0.00569112  0.67412004  0.72838564
   0.20160361  0.82879559  0.84577524
   0.32930622 -0.06263701  0.02012080
   0.47623669  0.15478942  0.17211066
   0.31679618  0.01286877  0.35168956
   0.53265622  0.16329073  0.49341452
   0.35180109 -0.04800737  0.64333094
   0.45750322  0.15100035  0.80020399
   0.36617823  0.36506360  0.01459491
   0.51779820  0.48980987  0.23016027
   0.33545458  0.33053180  0.33397933
   0.54985944  0.50616517  0.48268667
   0.36389192  0.34541646  0.67485035
   0.51744094  0.52016669  0.85214739
   0.33306503  0.65686298 -0.01462719
   0.52582211  0.78666206  0.18813647
   0.33996363  0.71760579  0.36817829
   0.56850387  0.81316181  0.48787828
   0.33817979  0.64214034  0.65630283
   0.49655199  0.81608435  0.79034789
   0.61245751 -0.00876112  0.00445595
   0.84626448  0.16959166  0.14382753
   0.65995432  0.02785072  0.32113034
   0.85296360  0.11087842  0.55609129
   0.63802462 -0.00217074  0.66741636
   0.84126959  0.17202752  0.87001365
   0.62452110  0.31437960  0.03605409
   0.83166795  0.48821120  0.18705548
   0.74399804  0.33828158  0.37459238
   0.91457406  0.50871912  0.51613702
   0.68322727  0.33985649  0.68634053
   0.80446767  0.48833861  0.83879102
   0.68700506  0.66344866  0.02985843
   0.84981258  0.86280033  0.18863837
   0.72434255  0.68200485  0.34837704
   0.86962603  0.85009106  0.50087718
   0.69103765  0.67340416  0.67400123
   0.86139355  0.88487101  0.86204177
unknown system                          
           1
    10.689370   -0.017576    0.041060
    -0.000000   10.387044   -0.173281
    -0.000000   -0.000000   10.235301
   Li
    54
Direct configuration=          49
   0.03830005 -0.00077103 -0.00051533
   0.17466225  0.16105178  0.14493468
  -0.00006433  0.04845205  0.33794228
   0.14369182  0.19827586  0.55314456
   0.05191927 -0.02326228  0.69724188
   0.14455637  0.18370438  0.84373088
   0.04055986  0.42105278  0.02196890
   0.22641936  0.50870809  0.17391014
   0.06076873  0.32733522  0.30516590
   0.17473964  0.50094532  0.50475655
  -0.00976396  0.33474646  0.69772650
   0.22435805  0.48044121  0.81834975
  -0.00043157  0.66174105  0.00363928
   0.13765824  0.82342562  0.18198506
   0.06641675  0.61956468  0.30847047
   0.14272552  0.80187560  0.51403066
   0.00711002  0.67601116  0.72649657
   0.20294667  0.82896897  0.84514071
   0.33211440 -0.06146950  0.01958265
   0.47426954  0.15543298  0.17361014
   0.31680116  0.01167073  0.35253544
   0.53297613  0.16417464  0.49376496
   0.35163185 -0.04798132  0.64423004
   0.45633458  0.15142422  0.79838977
   0.36563621  0.36624992  0.01162094
   0.51639247  0.49173724  0.22957995
   0.33491833  0.33256302  0.33487498
   0.55127654  0.50687687  0.48309501
   0.36368142  0.34571611  0.67617723
   0.51764246  0.52017951  0.85261169
   0.33404070  0.66099542 -0.01168940
   0.52467568  0.78778455  0.18415137
   0.33921592  0.71930877  0.36939904
   0.57009737  0.81515983  0.48642548
   0.34003351  0.64167994  0.65765105
   0.49745391  0.81779751  0.79107618
   0.61297815 -0.00852247  0.00337285
   0.84564120  0.16719449  0.14473255
   0.65925859  0.02546691  0.32182700
   0.85077732  0.10805372  0.55698391
   0.63941171 -0.00231514  0.66905795
   0.84267209  0.17328556  0.86989518
   0.62379507  0.31469692  0.03420077
   0.83418109  0.48788914  0.18931236
   0.74515344  0.33641636  0.37630982
   0.91634669  0.50972973  0.51728868
   0.68091089  0.34064866  0.68538961
   0.80393509  0.48841767  0.83876842
   0.68603234  0.66442861  0.02951499
   0.85016702  0.85999699  0.18933521
   0.72710728  0.68265042  0.34936930
   0.86895321  0.84787058  0.50126836
   0.69065678  0.67252375  0.67425610
   0.86219605  0.88643584  0.86027157
unknown system                          
           1
    10.699618   -0.013287    0.044633
    -0.000000   10.392531   -0.167906
    -0.000000   -0.000000   10.240408
   Li
    54
Direct configuration=          50
   0.03859955 -0.00149025 -0.00123618
   0.17526004  0.16134065  0.14763988
  -0.00117183  0.05079506  0.33840975
   0.14314518  0.19845065  0.55149815
   0.04956008 -0.02657314  0.69851169
   0.14666632  0.18413160  0.84448136
   0.04065084  0.42282953  0.02125123
   0.23049917  0.50651870  0.17330791
   0.06381042  0.32375282  0.30444925
   0.17721507  0.49861151  0.50399126
  -0.01032706  0.33573875  0.70091033
   0.22187542  0.48266295  0.81925472
   0.00076591  0.66002843  0.00141507
   0.13506038  0.82333032  0.18190942
   0.06726344  0.62089807  0.30951940
   0.14125950  0.80012017  0.51296269
   0.00838553  0.67813012  0.72494833
   0.20422075  0.82843455  0.84451136
   0.33530611 -0.06065971  0.01951462
   0.47177181  0.15620964  0.17487823
   0.31692645  0.01045295  0.35369074
   0.53313084  0.16504565  0.49392113
   0.35145778 -0.04785237  0.64526187
   0.45524543  0.15153893  0.79688858
   0.36468800  0.36679977  0.00863680
   0.51464704  0.49367765  0.22921336
   0.33412858  0.33412399  0.33537975
   0.55236726  0.50748646  0.48337213
   0.36374550  0.34544477  0.67702616
   0.51784065  0.52018482  0.85338529
   0.33470636  0.66472479 -0.00871441
   0.52361167  0.78895311  0.17985328
   0.33810936  0.72093572  0.37035825
   0.57103406  0.81708761  0.48543611
   0.34267187  0.64111105  0.65909864
   0.49828803  0.81868996  0.79247220
   0.61319064 -0.00835869  0.00279166
   0.84481967  0.16430034  0.14516632
   0.65838814  0.02285947  0.32193839
   0.84871999  0.10621055  0.55808671
   0.64114152 -0.00242214  0.67085786
   0.84431303  0.17438369  0.86999849
   0.62286965  0.31464948  0.03264468
   0.83700250  0.48812500  0.19179204
   0.74668048  0.33459705  0.37768786
   0.91795066  0.51095813  0.51833271
   0.67845398  0.34126235  0.68447206
   0.80382689  0.48814638  0.83941213
   0.68485803  0.66542666  0.02867181
   0.85066523  0.85641007  0.18954193
   0.72983877  0.68296665  0.35025611
   0.86784755  0.84549673  0.50203687
   0.69077620  0.67206190  0.67465408
   0.86295823  0.88772615  0.85852118
