Mg1B2                                   
   1.00000000000000     
     1.5323129637770179   -2.6540439063582437   -0.0000000000000000
     1.5323129637770179    2.6540439063582437    0.0000000000000000
     0.0000000000000000    0.0000000000000000    3.5101189801770074
   Mg   B 
     1     2
Direct
  0.0000000000000000  0.0000000000000000 -0.0000000000000000
  0.6666666666666643  0.3333333333333357  0.5000000000000000
  0.3333333333333357  0.6666666666666643  0.5000000000000000
 
  0.00000000E+00  0.00000000E+00  0.00000000E+00
  0.00000000E+00  0.00000000E+00  0.00000000E+00
  0.00000000E+00  0.00000000E+00  0.00000000E+00
