PROCAR lm decomposed
# of k-points:  210         # of bands:    8         # of ions:    3

 k-point     1 :    0.04166667 0.04166667 0.00000000     weight = 0.00154321

band     1 # energy   -7.04522126 # occ.  2.00000000
 
ion      s     py     pz     px    dxy    dyz    dz2    dxz  x2-y2    tot
    1  0.061  0.000  0.000  0.001  0.000  0.000  0.000  0.000  0.000  0.062
    2  0.215  0.000  0.000  0.002  0.000  0.000  0.000  0.000  0.000  0.217
    3  0.215  0.000  0.000  0.002  0.000  0.000  0.000  0.000  0.000  0.217
tot    0.491  0.000  0.000  0.004  0.000  0.000  0.000  0.000  0.000  0.495
 
band     2 # energy    2.47477637 # occ.  2.00000000
 
ion      s     py     pz     px    dxy    dyz    dz2    dxz  x2-y2    tot
    1  0.000  0.000  0.063  0.000  0.000  0.000  0.000  0.001  0.000  0.064
    2  0.000  0.000  0.206  0.000  0.000  0.000  0.000  0.000  0.000  0.206
    3  0.000  0.000  0.206  0.000  0.000  0.000  0.000  0.000  0.000  0.206
tot    0.000  0.000  0.474  0.000  0.000  0.000  0.000  0.001  0.000  0.475
 
band     3 # energy    5.32039759 # occ.  1.70036532
 
ion      s     py     pz     px    dxy    dyz    dz2    dxz  x2-y2    tot
    1  0.000  0.003  0.000  0.000  0.012  0.000  0.000  0.000  0.000  0.015
    2  0.016  0.008  0.000  0.305  0.000  0.000  0.000  0.000  0.000  0.330
    3  0.016  0.008  0.000  0.305  0.000  0.000  0.000  0.000  0.000  0.330
tot    0.032  0.020  0.000  0.611  0.012  0.000  0.000  0.000  0.000  0.675
 
band     4 # energy    5.53901505 # occ. -0.03525525
 
ion      s     py     pz     px    dxy    dyz    dz2    dxz  x2-y2    tot
    1  0.000  0.000  0.000  0.004  0.000  0.000  0.000  0.000  0.011  0.015
    2  0.000  0.322  0.000  0.010  0.000  0.000  0.000  0.000  0.000  0.332
    3  0.000  0.322  0.000  0.010  0.000  0.000  0.000  0.000  0.000  0.332
tot    0.000  0.644  0.000  0.024  0.000  0.000  0.000  0.000  0.011  0.679
 
band     5 # energy    7.11525924 # occ. -0.00000000
 
ion      s     py     pz     px    dxy    dyz    dz2    dxz  x2-y2    tot
    1  0.135  0.000  0.000  0.004  0.000  0.000  0.042  0.000  0.000  0.180
    2  0.072  0.001  0.000  0.002  0.000  0.000  0.000  0.000  0.000  0.075
    3  0.072  0.001  0.000  0.002  0.000  0.000  0.000  0.000  0.000  0.075
tot    0.278  0.002  0.000  0.009  0.000  0.000  0.042  0.000  0.000  0.330
 
band     6 # energy   11.78118544 # occ.  0.00000000
 
ion      s     py     pz     px    dxy    dyz    dz2    dxz  x2-y2    tot
    1  0.021  0.000  0.000  0.062  0.000  0.000  0.002  0.000  0.002  0.086
    2  0.014  0.016  0.000  0.151  0.000  0.000  0.000  0.000  0.000  0.181
    3  0.014  0.016  0.000  0.151  0.000  0.000  0.000  0.000  0.000  0.181
tot    0.049  0.032  0.000  0.363  0.000  0.000  0.002  0.000  0.002  0.448
 
band     7 # energy   12.14896435 # occ.  0.00000000
 
ion      s     py     pz     px    dxy    dyz    dz2    dxz  x2-y2    tot
    1  0.000  0.069  0.000  0.000  0.002  0.000  0.000  0.000  0.000  0.072
    2  0.009  0.172  0.000  0.008  0.000  0.000  0.000  0.000  0.000  0.188
    3  0.009  0.172  0.000  0.008  0.000  0.000  0.000  0.000  0.000  0.188
tot    0.017  0.413  0.000  0.016  0.002  0.000  0.000  0.000  0.000  0.448
 
band     8 # energy   13.88802664 # occ.  0.00000000
 
ion      s     py     pz     px    dxy    dyz    dz2    dxz  x2-y2    tot
    1  0.000  0.002  0.000  0.000  0.002  0.000  0.000  0.000  0.000  0.005
    2  0.229  0.003  0.000  0.032  0.000  0.000  0.000  0.000  0.000  0.264
    3  0.229  0.003  0.000  0.032  0.000  0.000  0.000  0.000  0.000  0.264
tot    0.458  0.008  0.000  0.064  0.002  0.000  0.000  0.000  0.000  0.532
 

 k-point     2 :    0.12500000 0.04166667 0.00000000     weight = 0.00308642

band     1 # energy   -6.74105028 # occ.  2.00000000
 
ion      s     py     pz     px    dxy    dyz    dz2    dxz  x2-y2    tot
    1  0.058  0.000  0.000  0.002  0.000  0.000  0.000  0.000  0.000  0.061
    2  0.212  0.001  0.000  0.006  0.000  0.000  0.000  0.000  0.000  0.219
    3  0.212  0.001  0.000  0.006  0.000  0.000  0.000  0.000  0.000  0.219
tot    0.481  0.001  0.000  0.015  0.000  0.000  0.000  0.000  0.000  0.498
 
band     2 # energy    2.77029494 # occ.  2.00000000
 
ion      s     py     pz     px    dxy    dyz    dz2    dxz  x2-y2    tot
    1  0.000  0.000  0.059  0.000  0.000  0.000  0.000  0.003  0.000  0.063
    2  0.000  0.000  0.206  0.000  0.000  0.000  0.000  0.000  0.000  0.206
    3  0.000  0.000  0.206  0.000  0.000  0.000  0.000  0.000  0.000  0.206
tot    0.000  0.000  0.472  0.000  0.000  0.000  0.000  0.003  0.000  0.475
 
band     3 # energy    4.09100099 # occ.  2.00000000
 
ion      s     py     pz     px    dxy    dyz    dz2    dxz  x2-y2    tot
    1  0.001  0.006  0.000  0.005  0.009  0.000  0.001  0.000  0.001  0.022
    2  0.049  0.045  0.000  0.215  0.000  0.000  0.000  0.000  0.000  0.309
    3  0.049  0.045  0.000  0.215  0.000  0.000  0.000  0.000  0.000  0.309
tot    0.098  0.096  0.000  0.435  0.009  0.000  0.001  0.000  0.001  0.639
 
band     4 # energy    4.91580637 # occ.  2.00000000
 
ion      s     py     pz     px    dxy    dyz    dz2    dxz  x2-y2    tot
    1  0.000  0.004  0.000  0.008  0.001  0.000  0.001  0.000  0.006  0.020
    2  0.001  0.258  0.000  0.059  0.000  0.000  0.000  0.000  0.000  0.319
    3  0.001  0.258  0.000  0.059  0.000  0.000  0.000  0.000  0.000  0.319
tot    0.002  0.520  0.000  0.127  0.001  0.000  0.001  0.000  0.006  0.658
 
band     5 # energy    7.40167936 # occ. -0.00000000
 
ion      s     py     pz     px    dxy    dyz    dz2    dxz  x2-y2    tot
    1  0.121  0.001  0.000  0.013  0.000  0.000  0.040  0.000  0.001  0.175
    2  0.065  0.005  0.000  0.007  0.000  0.000  0.000  0.000  0.000  0.077
    3  0.065  0.005  0.000  0.007  0.000  0.000  0.000  0.000  0.000  0.077
tot    0.250  0.011  0.000  0.028  0.000  0.000  0.040  0.000  0.001  0.329
 
band     6 # energy   11.57783946 # occ.  0.00000000
 
ion      s     py     pz     px    dxy    dyz    dz2    dxz  x2-y2    tot
    1  0.059  0.006  0.000  0.026  0.005  0.000  0.005  0.000  0.004  0.105
    2  0.067  0.041  0.000  0.070  0.000  0.000  0.000  0.000  0.000  0.178
    3  0.067  0.041  0.000  0.070  0.000  0.000  0.000  0.000  0.000  0.178
tot    0.194  0.088  0.000  0.166  0.005  0.000  0.005  0.000  0.004  0.461
 
band     7 # energy   13.10327444 # occ.  0.00000000
 
ion      s     py     pz     px    dxy    dyz    dz2    dxz  x2-y2    tot
    1  0.004  0.040  0.000  0.012  0.008  0.000  0.000  0.000  0.002  0.066
    2  0.032  0.148  0.000  0.024  0.000  0.000  0.000  0.000  0.000  0.204
    3  0.032  0.148  0.000  0.024  0.000  0.000  0.000  0.000  0.000  0.204
tot    0.068  0.335  0.000  0.060  0.008  0.000  0.000  0.000  0.002  0.473
 
band     8 # energy   14.14861697 # occ.  0.00000000
 
ion      s     py     pz     px    dxy    dyz    dz2    dxz  x2-y2    tot
    1  0.000  0.000  0.001  0.000  0.000  0.004  0.000  0.001  0.000  0.006
    2  0.000  0.000  0.320  0.000  0.000  0.000  0.000  0.000  0.000  0.320
    3  0.000  0.000  0.320  0.000  0.000  0.000  0.000  0.000  0.000  0.320
tot    0.000  0.000  0.641  0.000  0.000  0.004  0.000  0.001  0.000  0.646
 

 k-point     3 :    0.20833333 0.04166667 0.00000000     weight = 0.00308642

band     1 # energy   -6.19740528 # occ.  2.00000000
 
ion      s     py     pz     px    dxy    dyz    dz2    dxz  x2-y2    tot
    1  0.052  0.001  0.000  0.005  0.000  0.000  0.000  0.000  0.000  0.059
    2  0.206  0.002  0.000  0.014  0.000  0.000  0.000  0.000  0.000  0.223
    3  0.206  0.002  0.000  0.014  0.000  0.000  0.000  0.000  0.000  0.223
tot    0.465  0.005  0.000  0.034  0.000  0.000  0.000  0.000  0.000  0.504
 
band     2 # energy    2.43561232 # occ.  2.00000000
 
ion      s     py     pz     px    dxy    dyz    dz2    dxz  x2-y2    tot
    1  0.005  0.007  0.000  0.010  0.006  0.000  0.001  0.000  0.001  0.030
    2  0.079  0.051  0.000  0.157  0.000  0.000  0.000  0.000  0.000  0.287
    3  0.079  0.051  0.000  0.157  0.000  0.000  0.000  0.000  0.000  0.287
tot    0.163  0.109  0.000  0.323  0.006  0.000  0.001  0.000  0.001  0.603
 
band     3 # energy    3.29567527 # occ.  2.00000000
 
ion      s     py     pz     px    dxy    dyz    dz2    dxz  x2-y2    tot
    1  0.000  0.000  0.051  0.000  0.000  0.001  0.000  0.008  0.000  0.060
    2  0.000  0.000  0.208  0.000  0.000  0.000  0.000  0.000  0.000  0.208
    3  0.000  0.000  0.208  0.000  0.000  0.000  0.000  0.000  0.000  0.208
tot    0.000  0.000  0.468  0.000  0.000  0.001  0.000  0.008  0.000  0.477
 
band     4 # energy    4.21635338 # occ.  2.00000000
 
ion      s     py     pz     px    dxy    dyz    dz2    dxz  x2-y2    tot
    1  0.001  0.009  0.000  0.009  0.001  0.000  0.001  0.000  0.003  0.023
    2  0.003  0.230  0.000  0.078  0.000  0.000  0.000  0.000  0.000  0.311
    3  0.003  0.230  0.000  0.078  0.000  0.000  0.000  0.000  0.000  0.311
tot    0.006  0.468  0.000  0.166  0.001  0.000  0.001  0.000  0.003  0.645
 
band     5 # energy    7.89980837 # occ. -0.00000000
 
ion      s     py     pz     px    dxy    dyz    dz2    dxz  x2-y2    tot
    1  0.095  0.005  0.000  0.027  0.001  0.000  0.037  0.000  0.001  0.167
    2  0.055  0.009  0.000  0.015  0.000  0.000  0.000  0.000  0.000  0.078
    3  0.055  0.009  0.000  0.015  0.000  0.000  0.000  0.000  0.000  0.078
tot    0.205  0.022  0.000  0.056  0.001  0.000  0.037  0.000  0.001  0.322
 
band     6 # energy   11.11037197 # occ.  0.00000000
 
ion      s     py     pz     px    dxy    dyz    dz2    dxz  x2-y2    tot
    1  0.088  0.003  0.000  0.005  0.012  0.000  0.006  0.000  0.005  0.118
    2  0.115  0.030  0.000  0.027  0.000  0.000  0.000  0.000  0.000  0.172
    3  0.115  0.030  0.000  0.027  0.000  0.000  0.000  0.000  0.000  0.172
tot    0.318  0.062  0.000  0.060  0.012  0.000  0.006  0.000  0.005  0.462
 
band     7 # energy   12.66394287 # occ.  0.00000000
 
ion      s     py     pz     px    dxy    dyz    dz2    dxz  x2-y2    tot
    1  0.000  0.000  0.006  0.000  0.000  0.007  0.000  0.006  0.000  0.019
    2  0.000  0.000  0.280  0.000  0.000  0.000  0.000  0.000  0.000  0.280
    3  0.000  0.000  0.280  0.000  0.000  0.000  0.000  0.000  0.000  0.280
tot    0.000  0.000  0.566  0.000  0.000  0.007  0.000  0.006  0.000  0.579
 
band     8 # energy   14.35533622 # occ.  0.00000000
 
ion      s     py     pz     px    dxy    dyz    dz2    dxz  x2-y2    tot
    1  0.029  0.003  0.000  0.028  0.025  0.000  0.002  0.000  0.000  0.086
    2  0.034  0.128  0.000  0.043  0.000  0.000  0.000  0.000  0.000  0.205
    3  0.034  0.128  0.000  0.043  0.000  0.000  0.000  0.000  0.000  0.205
tot    0.096  0.259  0.000  0.114  0.025  0.000  0.002  0.000  0.000  0.496
 

 k-point     4 :    0.29166667 0.04166667 0.00000000     weight = 0.00308642

band     1 # energy   -5.42137438 # occ.  2.00000000
 
ion      s     py     pz     px    dxy    dyz    dz2    dxz  x2-y2    tot
    1  0.044  0.002  0.000  0.009  0.000  0.000  0.001  0.000  0.000  0.056
    2  0.199  0.005  0.000  0.025  0.000  0.000  0.000  0.000  0.000  0.228
    3  0.199  0.005  0.000  0.025  0.000  0.000  0.000  0.000  0.000  0.228
tot    0.441  0.011  0.000  0.059  0.000  0.000  0.001  0.000  0.000  0.513
 
band     2 # energy    0.70487736 # occ.  2.00000000
 
ion      s     py     pz     px    dxy    dyz    dz2    dxz  x2-y2    tot
    1  0.012  0.007  0.000  0.012  0.004  0.000  0.002  0.000  0.001  0.038
    2  0.105  0.045  0.000  0.120  0.000  0.000  0.000  0.000  0.000  0.269
    3  0.105  0.045  0.000  0.120  0.000  0.000  0.000  0.000  0.000  0.269
tot    0.221  0.097  0.000  0.251  0.004  0.000  0.002  0.000  0.001  0.576
 
band     3 # energy    3.63365071 # occ.  2.00000000
 
ion      s     py     pz     px    dxy    dyz    dz2    dxz  x2-y2    tot
    1  0.001  0.013  0.000  0.008  0.001  0.000  0.000  0.000  0.001  0.025
    2  0.004  0.222  0.000  0.081  0.000  0.000  0.000  0.000  0.000  0.307
    3  0.004  0.222  0.000  0.081  0.000  0.000  0.000  0.000  0.000  0.307
tot    0.010  0.457  0.000  0.171  0.001  0.000  0.000  0.000  0.001  0.640
 
band     4 # energy    4.02660886 # occ.  2.00000000
 
ion      s     py     pz     px    dxy    dyz    dz2    dxz  x2-y2    tot
    1  0.000  0.000  0.040  0.000  0.000  0.003  0.000  0.014  0.000  0.056
    2  0.000  0.000  0.212  0.000  0.000  0.000  0.000  0.000  0.000  0.212
    3  0.000  0.000  0.212  0.000  0.000  0.000  0.000  0.000  0.000  0.212
tot    0.000  0.000  0.463  0.000  0.000  0.003  0.000  0.014  0.000  0.480
 
band     5 # energy    8.55120320 # occ.  0.00000000
 
ion      s     py     pz     px    dxy    dyz    dz2    dxz  x2-y2    tot
    1  0.055  0.009  0.000  0.041  0.005  0.000  0.034  0.000  0.003  0.148
    2  0.042  0.014  0.000  0.024  0.000  0.000  0.000  0.000  0.000  0.080
    3  0.042  0.014  0.000  0.024  0.000  0.000  0.000  0.000  0.000  0.080
tot    0.139  0.038  0.000  0.089  0.005  0.000  0.034  0.000  0.003  0.308
 
band     6 # energy   10.69653805 # occ.  0.00000000
 
ion      s     py     pz     px    dxy    dyz    dz2    dxz  x2-y2    tot
    1  0.107  0.000  0.000  0.001  0.016  0.000  0.004  0.000  0.005  0.133
    2  0.137  0.015  0.000  0.010  0.000  0.000  0.000  0.000  0.000  0.163
    3  0.137  0.015  0.000  0.010  0.000  0.000  0.000  0.000  0.000  0.163
tot    0.382  0.030  0.000  0.022  0.016  0.000  0.004  0.000  0.005  0.458
 
band     7 # energy   11.01798122 # occ.  0.00000000
 
ion      s     py     pz     px    dxy    dyz    dz2    dxz  x2-y2    tot
    1  0.000  0.000  0.019  0.000  0.000  0.008  0.000  0.008  0.000  0.036
    2  0.000  0.000  0.247  0.000  0.000  0.000  0.000  0.000  0.000  0.247
    3  0.000  0.000  0.247  0.000  0.000  0.000  0.000  0.000  0.000  0.247
tot    0.000  0.000  0.513  0.000  0.000  0.008  0.000  0.008  0.000  0.529
 
band     8 # energy   14.30295233 # occ.  0.00000000
 
ion      s     py     pz     px    dxy    dyz    dz2    dxz  x2-y2    tot
    1  0.093  0.018  0.000  0.041  0.034  0.000  0.000  0.000  0.003  0.189
    2  0.005  0.053  0.000  0.083  0.000  0.000  0.000  0.000  0.000  0.142
    3  0.005  0.053  0.000  0.083  0.000  0.000  0.000  0.000  0.000  0.142
tot    0.103  0.125  0.000  0.208  0.034  0.000  0.000  0.000  0.003  0.472
 

 k-point     5 :    0.37500000 0.04166667 0.00000000     weight = 0.00308642

band     1 # energy   -4.42789041 # occ.  2.00000000
 
ion      s     py     pz     px    dxy    dyz    dz2    dxz  x2-y2    tot
    1  0.034  0.003  0.000  0.014  0.000  0.000  0.001  0.000  0.000  0.051
    2  0.191  0.008  0.000  0.038  0.000  0.000  0.000  0.000  0.000  0.236
    3  0.191  0.008  0.000  0.038  0.000  0.000  0.000  0.000  0.000  0.236
tot    0.415  0.019  0.000  0.089  0.000  0.000  0.001  0.000  0.000  0.524
 
band     2 # energy   -0.93801169 # occ.  2.00000000
 
ion      s     py     pz     px    dxy    dyz    dz2    dxz  x2-y2    tot
    1  0.023  0.006  0.000  0.011  0.003  0.000  0.002  0.000  0.001  0.045
    2  0.123  0.037  0.000  0.093  0.000  0.000  0.000  0.000  0.000  0.254
    3  0.123  0.037  0.000  0.093  0.000  0.000  0.000  0.000  0.000  0.254
tot    0.269  0.081  0.000  0.198  0.003  0.000  0.002  0.000  0.001  0.554
 
band     3 # energy    3.24440078 # occ.  2.00000000
 
ion      s     py     pz     px    dxy    dyz    dz2    dxz  x2-y2    tot
    1  0.002  0.016  0.000  0.008  0.001  0.000  0.000  0.000  0.000  0.026
    2  0.005  0.222  0.000  0.079  0.000  0.000  0.000  0.000  0.000  0.306
    3  0.005  0.222  0.000  0.079  0.000  0.000  0.000  0.000  0.000  0.306
tot    0.011  0.460  0.000  0.166  0.001  0.000  0.000  0.000  0.000  0.639
 
band     4 # energy    4.88884522 # occ.  2.00000000
 
ion      s     py     pz     px    dxy    dyz    dz2    dxz  x2-y2    tot
    1  0.000  0.000  0.023  0.000  0.000  0.005  0.000  0.022  0.000  0.050
    2  0.000  0.000  0.218  0.000  0.000  0.000  0.000  0.000  0.000  0.218
    3  0.000  0.000  0.218  0.000  0.000  0.000  0.000  0.000  0.000  0.218
tot    0.000  0.000  0.460  0.000  0.000  0.005  0.000  0.022  0.000  0.487
 
band     5 # energy    9.18693405 # occ.  0.00000000
 
ion      s     py     pz     px    dxy    dyz    dz2    dxz  x2-y2    tot
    1  0.007  0.009  0.000  0.035  0.018  0.000  0.031  0.000  0.008  0.108
    2  0.042  0.022  0.000  0.030  0.000  0.000  0.000  0.000  0.000  0.095
    3  0.042  0.022  0.000  0.030  0.000  0.000  0.000  0.000  0.000  0.095
tot    0.091  0.053  0.000  0.096  0.018  0.000  0.031  0.000  0.008  0.297
 
band     6 # energy    9.49673529 # occ.  0.00000000
 
ion      s     py     pz     px    dxy    dyz    dz2    dxz  x2-y2    tot
    1  0.000  0.000  0.039  0.000  0.000  0.006  0.000  0.006  0.000  0.051
    2  0.000  0.000  0.223  0.000  0.000  0.000  0.000  0.000  0.000  0.223
    3  0.000  0.000  0.223  0.000  0.000  0.000  0.000  0.000  0.000  0.223
tot    0.000  0.000  0.485  0.000  0.000  0.006  0.000  0.006  0.000  0.497
 
band     7 # energy   10.54546061 # occ.  0.00000000
 
ion      s     py     pz     px    dxy    dyz    dz2    dxz  x2-y2    tot
    1  0.099  0.008  0.000  0.034  0.011  0.000  0.001  0.000  0.002  0.155
    2  0.123  0.003  0.000  0.013  0.000  0.000  0.000  0.000  0.000  0.139
    3  0.123  0.003  0.000  0.013  0.000  0.000  0.000  0.000  0.000  0.139
tot    0.345  0.013  0.000  0.061  0.011  0.000  0.001  0.000  0.002  0.433
 
band     8 # energy   13.41572844 # occ.  0.00000000
 
ion      s     py     pz     px    dxy    dyz    dz2    dxz  x2-y2    tot
    1  0.171  0.021  0.000  0.032  0.021  0.000  0.001  0.000  0.003  0.249
    2  0.036  0.031  0.000  0.056  0.000  0.000  0.000  0.000  0.000  0.122
    3  0.036  0.031  0.000  0.056  0.000  0.000  0.000  0.000  0.000  0.122
tot    0.242  0.082  0.000  0.143  0.021  0.000  0.001  0.000  0.003  0.493
 

 k-point     6 :    0.45833333 0.04166667 0.00000000     weight = 0.00308642

band     1 # energy   -3.31410544 # occ.  2.00000000
 
ion      s     py     pz     px    dxy    dyz    dz2    dxz  x2-y2    tot
    1  0.010  0.006  0.000  0.023  0.000  0.000  0.000  0.000  0.000  0.040
    2  0.204  0.009  0.000  0.039  0.000  0.000  0.000  0.000  0.000  0.252
    3  0.204  0.009  0.000  0.039  0.000  0.000  0.000  0.000  0.000  0.252
tot    0.418  0.025  0.000  0.101  0.000  0.000  0.000  0.000  0.000  0.545
 
band     2 # energy   -2.33760855 # occ.  2.00000000
 
ion      s     py     pz     px    dxy    dyz    dz2    dxz  x2-y2    tot
    1  0.046  0.003  0.000  0.003  0.002  0.000  0.002  0.000  0.001  0.057
    2  0.115  0.034  0.000  0.088  0.000  0.000  0.000  0.000  0.000  0.236
    3  0.115  0.034  0.000  0.088  0.000  0.000  0.000  0.000  0.000  0.236
tot    0.276  0.070  0.000  0.178  0.002  0.000  0.002  0.000  0.001  0.529
 
band     3 # energy    3.07278952 # occ.  2.00000000
 
ion      s     py     pz     px    dxy    dyz    dz2    dxz  x2-y2    tot
    1  0.002  0.018  0.000  0.006  0.000  0.000  0.000  0.000  0.000  0.027
    2  0.005  0.224  0.000  0.076  0.000  0.000  0.000  0.000  0.000  0.306
    3  0.005  0.224  0.000  0.076  0.000  0.000  0.000  0.000  0.000  0.306
tot    0.012  0.467  0.000  0.159  0.000  0.000  0.000  0.000  0.000  0.639
 
band     4 # energy    5.55922023 # occ. -0.02031821
 
ion      s     py     pz     px    dxy    dyz    dz2    dxz  x2-y2    tot
    1  0.000  0.000  0.002  0.000  0.000  0.009  0.000  0.030  0.000  0.042
    2  0.000  0.000  0.228  0.000  0.000  0.000  0.000  0.000  0.000  0.228
    3  0.000  0.000  0.228  0.000  0.000  0.000  0.000  0.000  0.000  0.228
tot    0.000  0.000  0.457  0.000  0.000  0.009  0.000  0.030  0.000  0.497
 
band     5 # energy    8.52640069 # occ.  0.00000000
 
ion      s     py     pz     px    dxy    dyz    dz2    dxz  x2-y2    tot
    1  0.000  0.000  0.062  0.000  0.000  0.002  0.000  0.000  0.000  0.063
    2  0.000  0.000  0.207  0.000  0.000  0.000  0.000  0.000  0.000  0.207
    3  0.000  0.000  0.207  0.000  0.000  0.000  0.000  0.000  0.000  0.207
tot    0.000  0.000  0.475  0.000  0.000  0.002  0.000  0.000  0.000  0.477
 
band     6 # energy    9.47069389 # occ.  0.00000000
 
ion      s     py     pz     px    dxy    dyz    dz2    dxz  x2-y2    tot
    1  0.004  0.000  0.000  0.002  0.033  0.000  0.028  0.000  0.012  0.079
    2  0.073  0.019  0.000  0.029  0.000  0.000  0.000  0.000  0.000  0.121
    3  0.073  0.019  0.000  0.029  0.000  0.000  0.000  0.000  0.000  0.121
tot    0.149  0.039  0.000  0.060  0.033  0.000  0.028  0.000  0.012  0.321
 
band     7 # energy   10.74581405 # occ.  0.00000000
 
ion      s     py     pz     px    dxy    dyz    dz2    dxz  x2-y2    tot
    1  0.009  0.033  0.000  0.106  0.001  0.000  0.000  0.000  0.000  0.149
    2  0.061  0.007  0.000  0.031  0.000  0.000  0.000  0.000  0.000  0.099
    3  0.061  0.007  0.000  0.031  0.000  0.000  0.000  0.000  0.000  0.099
tot    0.131  0.048  0.000  0.168  0.001  0.000  0.000  0.000  0.000  0.348
 
band     8 # energy   12.68417318 # occ.  0.00000000
 
ion      s     py     pz     px    dxy    dyz    dz2    dxz  x2-y2    tot
    1  0.273  0.005  0.000  0.001  0.010  0.000  0.004  0.000  0.003  0.296
    2  0.079  0.015  0.000  0.034  0.000  0.000  0.000  0.000  0.000  0.128
    3  0.079  0.015  0.000  0.034  0.000  0.000  0.000  0.000  0.000  0.128
tot    0.430  0.036  0.000  0.069  0.010  0.000  0.004  0.000  0.003  0.551
 

 k-point     7 :   -0.45833333 0.04166667 0.00000000     weight = 0.00308642

band     1 # energy   -3.86368490 # occ.  2.00000000
 
ion      s     py     pz     px    dxy    dyz    dz2    dxz  x2-y2    tot
    1  0.026  0.007  0.000  0.014  0.001  0.000  0.001  0.000  0.000  0.048
    2  0.190  0.017  0.000  0.035  0.000  0.000  0.000  0.000  0.000  0.242
    3  0.190  0.017  0.000  0.035  0.000  0.000  0.000  0.000  0.000  0.242
tot    0.406  0.041  0.000  0.085  0.001  0.000  0.001  0.000  0.000  0.533
 
band     2 # energy   -1.69158300 # occ.  2.00000000
 
ion      s     py     pz     px    dxy    dyz    dz2    dxz  x2-y2    tot
    1  0.031  0.002  0.000  0.012  0.002  0.000  0.002  0.000  0.001  0.050
    2  0.127  0.026  0.000  0.094  0.000  0.000  0.000  0.000  0.000  0.247
    3  0.127  0.026  0.000  0.094  0.000  0.000  0.000  0.000  0.000  0.247
tot    0.285  0.053  0.000  0.200  0.002  0.000  0.002  0.000  0.001  0.544
 
band     3 # energy    3.13034592 # occ.  2.00000000
 
ion      s     py     pz     px    dxy    dyz    dz2    dxz  x2-y2    tot
    1  0.002  0.019  0.000  0.005  0.000  0.000  0.000  0.000  0.000  0.026
    2  0.005  0.228  0.000  0.073  0.000  0.000  0.000  0.000  0.000  0.306
    3  0.005  0.228  0.000  0.073  0.000  0.000  0.000  0.000  0.000  0.306
tot    0.012  0.474  0.000  0.152  0.000  0.000  0.000  0.000  0.000  0.639
 
band     4 # energy    5.29259054 # occ.  1.94793751
 
ion      s     py     pz     px    dxy    dyz    dz2    dxz  x2-y2    tot
    1  0.000  0.000  0.012  0.000  0.000  0.010  0.000  0.024  0.000  0.046
    2  0.000  0.000  0.223  0.000  0.000  0.000  0.000  0.000  0.000  0.223
    3  0.000  0.000  0.223  0.000  0.000  0.000  0.000  0.000  0.000  0.223
tot    0.000  0.000  0.458  0.000  0.000  0.010  0.000  0.024  0.000  0.492
 
band     5 # energy    8.89603029 # occ.  0.00000000
 
ion      s     py     pz     px    dxy    dyz    dz2    dxz  x2-y2    tot
    1  0.000  0.000  0.051  0.000  0.000  0.000  0.000  0.007  0.000  0.058
    2  0.000  0.000  0.214  0.000  0.000  0.000  0.000  0.000  0.000  0.214
    3  0.000  0.000  0.214  0.000  0.000  0.000  0.000  0.000  0.000  0.214
tot    0.000  0.000  0.478  0.000  0.000  0.000  0.000  0.007  0.000  0.485
 
band     6 # energy    9.38507759 # occ.  0.00000000
 
ion      s     py     pz     px    dxy    dyz    dz2    dxz  x2-y2    tot
    1  0.000  0.006  0.000  0.014  0.030  0.000  0.029  0.000  0.008  0.088
    2  0.058  0.012  0.000  0.040  0.000  0.000  0.000  0.000  0.000  0.110
    3  0.058  0.012  0.000  0.040  0.000  0.000  0.000  0.000  0.000  0.110
tot    0.116  0.031  0.000  0.094  0.030  0.000  0.029  0.000  0.008  0.308
 
band     7 # energy   10.62791467 # occ.  0.00000000
 
ion      s     py     pz     px    dxy    dyz    dz2    dxz  x2-y2    tot
    1  0.060  0.027  0.000  0.067  0.003  0.000  0.000  0.000  0.003  0.158
    2  0.092  0.013  0.000  0.012  0.000  0.000  0.000  0.000  0.000  0.117
    3  0.092  0.013  0.000  0.012  0.000  0.000  0.000  0.000  0.000  0.117
tot    0.244  0.053  0.000  0.090  0.003  0.000  0.000  0.000  0.003  0.392
 
band     8 # energy   12.97453499 # occ.  0.00000000
 
ion      s     py     pz     px    dxy    dyz    dz2    dxz  x2-y2    tot
    1  0.223  0.003  0.000  0.028  0.011  0.000  0.003  0.000  0.006  0.275
    2  0.059  0.010  0.000  0.054  0.000  0.000  0.000  0.000  0.000  0.123
    3  0.059  0.010  0.000  0.054  0.000  0.000  0.000  0.000  0.000  0.123
tot    0.341  0.024  0.000  0.137  0.011  0.000  0.003  0.000  0.006  0.521
 

 k-point     8 :   -0.37500000 0.04166667 0.00000000     weight = 0.00308642

band     1 # energy   -4.95008263 # occ.  2.00000000
 
ion      s     py     pz     px    dxy    dyz    dz2    dxz  x2-y2    tot
    1  0.039  0.005  0.000  0.009  0.000  0.000  0.001  0.000  0.000  0.054
    2  0.194  0.013  0.000  0.025  0.000  0.000  0.000  0.000  0.000  0.232
    3  0.194  0.013  0.000  0.025  0.000  0.000  0.000  0.000  0.000  0.232
tot    0.428  0.030  0.000  0.058  0.000  0.000  0.001  0.000  0.000  0.518
 
band     2 # energy   -0.13433585 # occ.  2.00000000
 
ion      s     py     pz     px    dxy    dyz    dz2    dxz  x2-y2    tot
    1  0.017  0.003  0.000  0.016  0.003  0.000  0.002  0.000  0.001  0.041
    2  0.115  0.032  0.000  0.114  0.000  0.000  0.000  0.000  0.000  0.261
    3  0.115  0.032  0.000  0.114  0.000  0.000  0.000  0.000  0.000  0.261
tot    0.247  0.068  0.000  0.244  0.003  0.000  0.002  0.000  0.001  0.564
 
band     3 # energy    3.41439414 # occ.  2.00000000
 
ion      s     py     pz     px    dxy    dyz    dz2    dxz  x2-y2    tot
    1  0.001  0.019  0.000  0.003  0.000  0.000  0.000  0.000  0.001  0.026
    2  0.005  0.231  0.000  0.072  0.000  0.000  0.000  0.000  0.000  0.307
    3  0.005  0.231  0.000  0.072  0.000  0.000  0.000  0.000  0.000  0.307
tot    0.011  0.480  0.000  0.147  0.000  0.000  0.000  0.000  0.001  0.640
 
band     4 # energy    4.45119445 # occ.  2.00000000
 
ion      s     py     pz     px    dxy    dyz    dz2    dxz  x2-y2    tot
    1  0.000  0.000  0.032  0.000  0.000  0.007  0.000  0.014  0.000  0.054
    2  0.000  0.000  0.215  0.000  0.000  0.000  0.000  0.000  0.000  0.215
    3  0.000  0.000  0.215  0.000  0.000  0.000  0.000  0.000  0.000  0.215
tot    0.000  0.000  0.461  0.000  0.000  0.007  0.000  0.014  0.000  0.483
 
band     5 # energy    8.89101183 # occ.  0.00000000
 
ion      s     py     pz     px    dxy    dyz    dz2    dxz  x2-y2    tot
    1  0.029  0.017  0.000  0.037  0.013  0.000  0.032  0.000  0.003  0.130
    2  0.038  0.009  0.000  0.037  0.000  0.000  0.000  0.000  0.000  0.085
    3  0.038  0.009  0.000  0.037  0.000  0.000  0.000  0.000  0.000  0.085
tot    0.105  0.035  0.000  0.112  0.013  0.000  0.032  0.000  0.003  0.300
 
band     6 # energy   10.22418807 # occ.  0.00000000
 
ion      s     py     pz     px    dxy    dyz    dz2    dxz  x2-y2    tot
    1  0.000  0.000  0.028  0.000  0.000  0.001  0.000  0.014  0.000  0.043
    2  0.000  0.000  0.234  0.000  0.000  0.000  0.000  0.000  0.000  0.234
    3  0.000  0.000  0.234  0.000  0.000  0.000  0.000  0.000  0.000  0.234
tot    0.000  0.000  0.496  0.000  0.000  0.001  0.000  0.014  0.000  0.512
 
band     7 # energy   10.57373391 # occ.  0.00000000
 
ion      s     py     pz     px    dxy    dyz    dz2    dxz  x2-y2    tot
    1  0.110  0.004  0.000  0.008  0.013  0.000  0.002  0.000  0.006  0.143
    2  0.137  0.008  0.000  0.009  0.000  0.000  0.000  0.000  0.000  0.154
    3  0.137  0.008  0.000  0.009  0.000  0.000  0.000  0.000  0.000  0.154
tot    0.385  0.021  0.000  0.025  0.013  0.000  0.002  0.000  0.006  0.452
 
band     8 # energy   13.89026820 # occ.  0.00000000
 
ion      s     py     pz     px    dxy    dyz    dz2    dxz  x2-y2    tot
    1  0.128  0.010  0.000  0.053  0.019  0.000  0.000  0.000  0.013  0.223
    2  0.016  0.017  0.000  0.093  0.000  0.000  0.000  0.000  0.000  0.127
    3  0.016  0.017  0.000  0.093  0.000  0.000  0.000  0.000  0.000  0.127
tot    0.161  0.045  0.000  0.239  0.019  0.000  0.000  0.000  0.013  0.476
 

 k-point     9 :   -0.29166667 0.04166667 0.00000000     weight = 0.00308642

band     1 # energy   -5.83782353 # occ.  2.00000000
 
ion      s     py     pz     px    dxy    dyz    dz2    dxz  x2-y2    tot
    1  0.048  0.003  0.000  0.005  0.000  0.000  0.000  0.000  0.000  0.057
    2  0.203  0.008  0.000  0.014  0.000  0.000  0.000  0.000  0.000  0.225
    3  0.203  0.008  0.000  0.014  0.000  0.000  0.000  0.000  0.000  0.225
tot    0.454  0.020  0.000  0.034  0.000  0.000  0.000  0.000  0.000  0.508
 
band     2 # energy    1.56653686 # occ.  2.00000000
 
ion      s     py     pz     px    dxy    dyz    dz2    dxz  x2-y2    tot
    1  0.008  0.003  0.000  0.016  0.004  0.000  0.001  0.000  0.002  0.034
    2  0.092  0.045  0.000  0.140  0.000  0.000  0.000  0.000  0.000  0.277
    3  0.092  0.045  0.000  0.140  0.000  0.000  0.000  0.000  0.000  0.277
tot    0.193  0.092  0.000  0.296  0.004  0.000  0.001  0.000  0.002  0.588
 
band     3 # energy    3.63804018 # occ.  2.00000000
 
ion      s     py     pz     px    dxy    dyz    dz2    dxz  x2-y2    tot
    1  0.000  0.000  0.046  0.000  0.000  0.005  0.000  0.008  0.000  0.059
    2  0.000  0.000  0.210  0.000  0.000  0.000  0.000  0.000  0.000  0.210
    3  0.000  0.000  0.210  0.000  0.000  0.000  0.000  0.000  0.000  0.210
tot    0.000  0.000  0.466  0.000  0.000  0.005  0.000  0.008  0.000  0.478
 
band     4 # energy    3.90460160 # occ.  2.00000000
 
ion      s     py     pz     px    dxy    dyz    dz2    dxz  x2-y2    tot
    1  0.001  0.018  0.000  0.002  0.000  0.000  0.000  0.000  0.003  0.024
    2  0.004  0.231  0.000  0.074  0.000  0.000  0.000  0.000  0.000  0.309
    3  0.004  0.231  0.000  0.074  0.000  0.000  0.000  0.000  0.000  0.309
tot    0.008  0.480  0.000  0.150  0.000  0.000  0.000  0.000  0.003  0.642
 
band     5 # energy    8.21254879 # occ.  0.00000000
 
ion      s     py     pz     px    dxy    dyz    dz2    dxz  x2-y2    tot
    1  0.077  0.014  0.000  0.028  0.004  0.000  0.035  0.000  0.000  0.159
    2  0.048  0.007  0.000  0.024  0.000  0.000  0.000  0.000  0.000  0.079
    3  0.048  0.007  0.000  0.024  0.000  0.000  0.000  0.000  0.000  0.079
tot    0.174  0.027  0.000  0.075  0.004  0.000  0.035  0.000  0.000  0.316
 
band     6 # energy   10.88367170 # occ.  0.00000000
 
ion      s     py     pz     px    dxy    dyz    dz2    dxz  x2-y2    tot
    1  0.099  0.000  0.000  0.001  0.015  0.000  0.005  0.000  0.005  0.125
    2  0.129  0.007  0.000  0.032  0.000  0.000  0.000  0.000  0.000  0.168
    3  0.129  0.007  0.000  0.032  0.000  0.000  0.000  0.000  0.000  0.168
tot    0.357  0.014  0.000  0.065  0.015  0.000  0.005  0.000  0.005  0.461
 
band     7 # energy   11.84296012 # occ.  0.00000000
 
ion      s     py     pz     px    dxy    dyz    dz2    dxz  x2-y2    tot
    1  0.000  0.000  0.012  0.000  0.000  0.001  0.000  0.015  0.000  0.027
    2  0.000  0.000  0.262  0.000  0.000  0.000  0.000  0.000  0.000  0.262
    3  0.000  0.000  0.262  0.000  0.000  0.000  0.000  0.000  0.000  0.262
tot    0.000  0.000  0.536  0.000  0.000  0.001  0.000  0.015  0.000  0.552
 
band     8 # energy   14.52588037 # occ.  0.00000000
 
ion      s     py     pz     px    dxy    dyz    dz2    dxz  x2-y2    tot
    1  0.061  0.017  0.000  0.026  0.015  0.000  0.001  0.000  0.021  0.140
    2  0.011  0.020  0.000  0.139  0.000  0.000  0.000  0.000  0.000  0.171
    3  0.011  0.020  0.000  0.139  0.000  0.000  0.000  0.000  0.000  0.171
tot    0.084  0.057  0.000  0.304  0.015  0.000  0.001  0.000  0.021  0.482
 

 k-point    10 :   -0.20833333 0.04166667 0.00000000     weight = 0.00308642

band     1 # energy   -6.49884500 # occ.  2.00000000
 
ion      s     py     pz     px    dxy    dyz    dz2    dxz  x2-y2    tot
    1  0.055  0.002  0.000  0.002  0.000  0.000  0.000  0.000  0.000  0.060
    2  0.209  0.005  0.000  0.006  0.000  0.000  0.000  0.000  0.000  0.221
    3  0.209  0.005  0.000  0.006  0.000  0.000  0.000  0.000  0.000  0.221
tot    0.474  0.011  0.000  0.015  0.000  0.000  0.000  0.000  0.000  0.501
 
band     2 # energy    3.00494704 # occ.  2.00000000
 
ion      s     py     pz     px    dxy    dyz    dz2    dxz  x2-y2    tot
    1  0.000  0.000  0.056  0.000  0.000  0.003  0.000  0.003  0.000  0.062
    2  0.000  0.000  0.207  0.000  0.000  0.000  0.000  0.000  0.000  0.207
    3  0.000  0.000  0.207  0.000  0.000  0.000  0.000  0.000  0.000  0.207
tot    0.000  0.000  0.470  0.000  0.000  0.003  0.000  0.003  0.000  0.476
 
band     3 # energy    3.28853514 # occ.  2.00000000
 
ion      s     py     pz     px    dxy    dyz    dz2    dxz  x2-y2    tot
    1  0.002  0.001  0.000  0.013  0.005  0.000  0.001  0.000  0.003  0.026
    2  0.065  0.068  0.000  0.164  0.000  0.000  0.000  0.000  0.000  0.297
    3  0.065  0.068  0.000  0.164  0.000  0.000  0.000  0.000  0.000  0.297
tot    0.131  0.138  0.000  0.342  0.005  0.000  0.001  0.000  0.003  0.620
 
band     4 # energy    4.55953694 # occ.  2.00000000
 
ion      s     py     pz     px    dxy    dyz    dz2    dxz  x2-y2    tot
    1  0.001  0.015  0.000  0.000  0.001  0.000  0.001  0.000  0.004  0.022
    2  0.002  0.223  0.000  0.090  0.000  0.000  0.000  0.000  0.000  0.314
    3  0.002  0.223  0.000  0.090  0.000  0.000  0.000  0.000  0.000  0.314
tot    0.004  0.460  0.000  0.180  0.001  0.000  0.001  0.000  0.004  0.650
 
band     5 # energy    7.62684367 # occ. -0.00000000
 
ion      s     py     pz     px    dxy    dyz    dz2    dxz  x2-y2    tot
    1  0.110  0.009  0.000  0.014  0.001  0.000  0.038  0.000  0.000  0.172
    2  0.060  0.004  0.000  0.013  0.000  0.000  0.000  0.000  0.000  0.077
    3  0.060  0.004  0.000  0.013  0.000  0.000  0.000  0.000  0.000  0.077
tot    0.230  0.018  0.000  0.039  0.001  0.000  0.038  0.000  0.000  0.326
 
band     6 # energy   11.35277106 # occ.  0.00000000
 
ion      s     py     pz     px    dxy    dyz    dz2    dxz  x2-y2    tot
    1  0.075  0.004  0.000  0.014  0.011  0.000  0.006  0.000  0.002  0.111
    2  0.095  0.014  0.000  0.067  0.000  0.000  0.000  0.000  0.000  0.176
    3  0.095  0.014  0.000  0.067  0.000  0.000  0.000  0.000  0.000  0.176
tot    0.264  0.033  0.000  0.147  0.011  0.000  0.006  0.000  0.002  0.463
 
band     7 # energy   13.44541548 # occ.  0.00000000
 
ion      s     py     pz     px    dxy    dyz    dz2    dxz  x2-y2    tot
    1  0.000  0.000  0.003  0.000  0.000  0.000  0.000  0.009  0.000  0.012
    2  0.000  0.000  0.300  0.000  0.000  0.000  0.000  0.000  0.000  0.300
    3  0.000  0.000  0.300  0.000  0.000  0.000  0.000  0.000  0.000  0.300
tot    0.000  0.000  0.602  0.000  0.000  0.000  0.000  0.009  0.000  0.611
 
band     8 # energy   13.77165355 # occ.  0.00000000
 
ion      s     py     pz     px    dxy    dyz    dz2    dxz  x2-y2    tot
    1  0.010  0.037  0.000  0.004  0.000  0.000  0.001  0.000  0.014  0.067
    2  0.038  0.083  0.000  0.090  0.000  0.000  0.000  0.000  0.000  0.211
    3  0.038  0.083  0.000  0.090  0.000  0.000  0.000  0.000  0.000  0.211
tot    0.085  0.203  0.000  0.184  0.000  0.000  0.001  0.000  0.014  0.488
 

 k-point    11 :   -0.12500000 0.04166667 0.00000000     weight = 0.00308642

band     1 # energy   -6.92337984 # occ.  2.00000000
 
ion      s     py     pz     px    dxy    dyz    dz2    dxz  x2-y2    tot
    1  0.060  0.001  0.000  0.001  0.000  0.000  0.000  0.000  0.000  0.061
    2  0.214  0.002  0.000  0.002  0.000  0.000  0.000  0.000  0.000  0.217
    3  0.214  0.002  0.000  0.002  0.000  0.000  0.000  0.000  0.000  0.217
tot    0.487  0.005  0.000  0.004  0.000  0.000  0.000  0.000  0.000  0.496
 
band     2 # energy    2.59284550 # occ.  2.00000000
 
ion      s     py     pz     px    dxy    dyz    dz2    dxz  x2-y2    tot
    1  0.000  0.000  0.061  0.000  0.000  0.001  0.000  0.001  0.000  0.063
    2  0.000  0.000  0.206  0.000  0.000  0.000  0.000  0.000  0.000  0.206
    3  0.000  0.000  0.206  0.000  0.000  0.000  0.000  0.000  0.000  0.206
tot    0.000  0.000  0.473  0.000  0.000  0.001  0.000  0.001  0.000  0.475
 
band     3 # energy    4.79078149 # occ.  2.00000000
 
ion      s     py     pz     px    dxy    dyz    dz2    dxz  x2-y2    tot
    1  0.000  0.000  0.000  0.007  0.005  0.000  0.000  0.000  0.006  0.018
    2  0.032  0.141  0.000  0.148  0.000  0.000  0.000  0.000  0.000  0.320
    3  0.032  0.141  0.000  0.148  0.000  0.000  0.000  0.000  0.000  0.320
tot    0.064  0.281  0.000  0.302  0.005  0.000  0.000  0.000  0.006  0.658
 
band     4 # energy    5.25563690 # occ.  2.06641077
 
ion      s     py     pz     px    dxy    dyz    dz2    dxz  x2-y2    tot
    1  0.000  0.008  0.000  0.000  0.004  0.000  0.000  0.000  0.005  0.018
    2  0.000  0.168  0.000  0.156  0.000  0.000  0.000  0.000  0.000  0.324
    3  0.000  0.168  0.000  0.156  0.000  0.000  0.000  0.000  0.000  0.324
tot    0.001  0.344  0.000  0.312  0.004  0.000  0.000  0.000  0.005  0.667
 
band     5 # energy    7.22965330 # occ. -0.00000000
 
ion      s     py     pz     px    dxy    dyz    dz2    dxz  x2-y2    tot
    1  0.129  0.005  0.000  0.004  0.000  0.000  0.041  0.000  0.000  0.178
    2  0.069  0.003  0.000  0.005  0.000  0.000  0.000  0.000  0.000  0.076
    3  0.069  0.003  0.000  0.005  0.000  0.000  0.000  0.000  0.000  0.076
tot    0.266  0.010  0.000  0.013  0.000  0.000  0.041  0.000  0.000  0.330
 
band     6 # energy   11.73453271 # occ.  0.00000000
 
ion      s     py     pz     px    dxy    dyz    dz2    dxz  x2-y2    tot
    1  0.041  0.022  0.000  0.026  0.004  0.000  0.004  0.000  0.000  0.097
    2  0.036  0.055  0.000  0.089  0.000  0.000  0.000  0.000  0.000  0.180
    3  0.036  0.055  0.000  0.089  0.000  0.000  0.000  0.000  0.000  0.180
tot    0.112  0.132  0.000  0.205  0.004  0.000  0.004  0.000  0.000  0.457
 
band     7 # energy   12.53650307 # occ.  0.00000000
 
ion      s     py     pz     px    dxy    dyz    dz2    dxz  x2-y2    tot
    1  0.001  0.034  0.000  0.027  0.000  0.000  0.000  0.000  0.005  0.068
    2  0.023  0.096  0.000  0.076  0.000  0.000  0.000  0.000  0.000  0.195
    3  0.023  0.096  0.000  0.076  0.000  0.000  0.000  0.000  0.000  0.195
tot    0.048  0.225  0.000  0.179  0.000  0.000  0.000  0.000  0.005  0.458
 
band     8 # energy   14.18974662 # occ.  0.00000000
 
ion      s     py     pz     px    dxy    dyz    dz2    dxz  x2-y2    tot
    1  0.001  0.001  0.000  0.009  0.002  0.000  0.000  0.000  0.002  0.016
    2  0.175  0.046  0.000  0.037  0.000  0.000  0.000  0.000  0.000  0.258
    3  0.175  0.046  0.000  0.037  0.000  0.000  0.000  0.000  0.000  0.258
tot    0.351  0.094  0.000  0.083  0.002  0.000  0.000  0.000  0.002  0.532
 

 k-point    12 :   -0.04166667 0.04166667 0.00000000     weight = 0.00154321

band     1 # energy   -7.10627139 # occ.  2.00000000
 
ion      s     py     pz     px    dxy    dyz    dz2    dxz  x2-y2    tot
    1  0.061  0.000  0.000  0.000  0.000  0.000  0.000  0.000  0.000  0.062
    2  0.216  0.001  0.000  0.000  0.000  0.000  0.000  0.000  0.000  0.216
    3  0.216  0.001  0.000  0.000  0.000  0.000  0.000  0.000  0.000  0.216
tot    0.493  0.001  0.000  0.000  0.000  0.000  0.000  0.000  0.000  0.494
 
band     2 # energy    2.41486743 # occ.  2.00000000
 
ion      s     py     pz     px    dxy    dyz    dz2    dxz  x2-y2    tot
    1  0.000  0.000  0.064  0.000  0.000  0.000  0.000  0.000  0.000  0.064
    2  0.000  0.000  0.206  0.000  0.000  0.000  0.000  0.000  0.000  0.206
    3  0.000  0.000  0.206  0.000  0.000  0.000  0.000  0.000  0.000  0.206
tot    0.000  0.000  0.475  0.000  0.000  0.000  0.000  0.000  0.000  0.475
 
band     3 # energy    5.61141228 # occ. -0.00294670
 
ion      s     py     pz     px    dxy    dyz    dz2    dxz  x2-y2    tot
    1  0.000  0.001  0.000  0.000  0.000  0.000  0.000  0.000  0.012  0.014
    2  0.006  0.329  0.000  0.000  0.000  0.000  0.000  0.000  0.000  0.335
    3  0.006  0.329  0.000  0.000  0.000  0.000  0.000  0.000  0.000  0.335
tot    0.012  0.659  0.000  0.000  0.000  0.000  0.000  0.000  0.012  0.684
 
band     4 # energy    5.69746772 # occ. -0.00003052
 
ion      s     py     pz     px    dxy    dyz    dz2    dxz  x2-y2    tot
    1  0.000  0.000  0.000  0.001  0.012  0.000  0.000  0.000  0.000  0.013
    2  0.000  0.000  0.000  0.337  0.000  0.000  0.000  0.000  0.000  0.337
    3  0.000  0.000  0.000  0.337  0.000  0.000  0.000  0.000  0.000  0.337
tot    0.000  0.000  0.000  0.675  0.012  0.000  0.000  0.000  0.000  0.687
 
band     5 # energy    7.05997916 # occ. -0.00000000
 
ion      s     py     pz     px    dxy    dyz    dz2    dxz  x2-y2    tot
    1  0.138  0.001  0.000  0.000  0.000  0.000  0.042  0.000  0.000  0.182
    2  0.074  0.001  0.000  0.000  0.000  0.000  0.000  0.000  0.000  0.075
    3  0.074  0.001  0.000  0.000  0.000  0.000  0.000  0.000  0.000  0.075
tot    0.285  0.004  0.000  0.000  0.000  0.000  0.042  0.000  0.000  0.331
 
band     6 # energy   11.77950015 # occ.  0.00000000
 
ion      s     py     pz     px    dxy    dyz    dz2    dxz  x2-y2    tot
    1  0.008  0.069  0.000  0.000  0.000  0.000  0.001  0.000  0.001  0.078
    2  0.006  0.175  0.000  0.000  0.000  0.000  0.000  0.000  0.000  0.181
    3  0.006  0.175  0.000  0.000  0.000  0.000  0.000  0.000  0.000  0.181
tot    0.020  0.420  0.000  0.000  0.000  0.000  0.001  0.000  0.001  0.441
 
band     7 # energy   11.93202221 # occ.  0.00000000
 
ion      s     py     pz     px    dxy    dyz    dz2    dxz  x2-y2    tot
    1  0.000  0.000  0.000  0.073  0.001  0.000  0.000  0.000  0.000  0.073
    2  0.000  0.000  0.000  0.185  0.000  0.000  0.000  0.000  0.000  0.185
    3  0.000  0.000  0.000  0.185  0.000  0.000  0.000  0.000  0.000  0.185
tot    0.000  0.000  0.000  0.442  0.001  0.000  0.000  0.000  0.000  0.443
 
band     8 # energy   13.74732136 # occ.  0.00000000
 
ion      s     py     pz     px    dxy    dyz    dz2    dxz  x2-y2    tot
    1  0.000  0.000  0.000  0.000  0.000  0.000  0.000  0.000  0.001  0.001
    2  0.254  0.010  0.000  0.000  0.000  0.000  0.000  0.000  0.000  0.265
    3  0.254  0.010  0.000  0.000  0.000  0.000  0.000  0.000  0.000  0.265
tot    0.509  0.021  0.000  0.000  0.000  0.000  0.000  0.000  0.001  0.531
 

 k-point    13 :    0.12500000 0.12500000 0.00000000     weight = 0.00154321

band     1 # energy   -6.31779777 # occ.  2.00000000
 
ion      s     py     pz     px    dxy    dyz    dz2    dxz  x2-y2    tot
    1  0.053  0.000  0.000  0.005  0.000  0.000  0.000  0.000  0.000  0.059
    2  0.207  0.000  0.000  0.014  0.000  0.000  0.000  0.000  0.000  0.222
    3  0.207  0.000  0.000  0.014  0.000  0.000  0.000  0.000  0.000  0.222
tot    0.468  0.000  0.000  0.034  0.000  0.000  0.000  0.000  0.000  0.503
 
band     2 # energy    3.03349517 # occ.  2.00000000
 
ion      s     py     pz     px    dxy    dyz    dz2    dxz  x2-y2    tot
    1  0.000  0.014  0.000  0.000  0.009  0.000  0.000  0.000  0.000  0.023
    2  0.079  0.028  0.000  0.195  0.000  0.000  0.000  0.000  0.000  0.302
    3  0.079  0.028  0.000  0.195  0.000  0.000  0.000  0.000  0.000  0.302
tot    0.157  0.070  0.000  0.390  0.009  0.000  0.000  0.000  0.000  0.627
 
band     3 # energy    3.18070607 # occ.  2.00000000
 
ion      s     py     pz     px    dxy    dyz    dz2    dxz  x2-y2    tot
    1  0.000  0.000  0.053  0.000  0.000  0.000  0.000  0.008  0.000  0.061
    2  0.000  0.000  0.208  0.000  0.000  0.000  0.000  0.000  0.000  0.208
    3  0.000  0.000  0.208  0.000  0.000  0.000  0.000  0.000  0.000  0.208
tot    0.000  0.000  0.469  0.000  0.000  0.000  0.000  0.008  0.000  0.477
 
band     4 # energy    3.92035195 # occ.  2.00000000
 
ion      s     py     pz     px    dxy    dyz    dz2    dxz  x2-y2    tot
    1  0.005  0.000  0.000  0.021  0.000  0.000  0.003  0.000  0.004  0.032
    2  0.005  0.239  0.000  0.046  0.000  0.000  0.000  0.000  0.000  0.290
    3  0.005  0.239  0.000  0.046  0.000  0.000  0.000  0.000  0.000  0.290
tot    0.015  0.478  0.000  0.113  0.000  0.000  0.003  0.000  0.004  0.612
 
band     5 # energy    7.83633854 # occ. -0.00000000
 
ion      s     py     pz     px    dxy    dyz    dz2    dxz  x2-y2    tot
    1  0.110  0.000  0.000  0.025  0.000  0.000  0.036  0.000  0.002  0.173
    2  0.061  0.010  0.000  0.011  0.000  0.000  0.000  0.000  0.000  0.082
    3  0.061  0.010  0.000  0.011  0.000  0.000  0.000  0.000  0.000  0.082
tot    0.231  0.020  0.000  0.047  0.000  0.000  0.036  0.000  0.002  0.336
 
band     6 # energy   12.10400473 # occ.  0.00000000
 
ion      s     py     pz     px    dxy    dyz    dz2    dxz  x2-y2    tot
    1  0.096  0.000  0.000  0.019  0.000  0.000  0.009  0.000  0.008  0.132
    2  0.056  0.088  0.000  0.041  0.000  0.000  0.000  0.000  0.000  0.185
    3  0.056  0.088  0.000  0.041  0.000  0.000  0.000  0.000  0.000  0.185
tot    0.208  0.177  0.000  0.100  0.000  0.000  0.009  0.000  0.008  0.501
 
band     7 # energy   12.93840112 # occ.  0.00000000
 
ion      s     py     pz     px    dxy    dyz    dz2    dxz  x2-y2    tot
    1  0.000  0.014  0.000  0.000  0.030  0.000  0.000  0.000  0.000  0.045
    2  0.090  0.102  0.000  0.014  0.000  0.000  0.000  0.000  0.000  0.207
    3  0.090  0.102  0.000  0.014  0.000  0.000  0.000  0.000  0.000  0.207
tot    0.181  0.219  0.000  0.028  0.030  0.000  0.000  0.000  0.000  0.459
 
band     8 # energy   13.00901354 # occ.  0.00000000
 
ion      s     py     pz     px    dxy    dyz    dz2    dxz  x2-y2    tot
    1  0.000  0.000  0.000  0.000  0.000  0.012  0.000  0.000  0.000  0.012
    2  0.000  0.000  0.293  0.000  0.000  0.000  0.000  0.000  0.000  0.293
    3  0.000  0.000  0.293  0.000  0.000  0.000  0.000  0.000  0.000  0.293
tot    0.000  0.000  0.585  0.000  0.000  0.012  0.000  0.000  0.000  0.597
 

 k-point    14 :    0.20833333 0.12500000 0.00000000     weight = 0.00308642

band     1 # energy   -5.65901694 # occ.  2.00000000
 
ion      s     py     pz     px    dxy    dyz    dz2    dxz  x2-y2    tot
    1  0.047  0.000  0.000  0.009  0.000  0.000  0.000  0.000  0.000  0.057
    2  0.201  0.001  0.000  0.025  0.000  0.000  0.000  0.000  0.000  0.227
    3  0.201  0.001  0.000  0.025  0.000  0.000  0.000  0.000  0.000  0.227
tot    0.448  0.001  0.000  0.060  0.000  0.000  0.000  0.000  0.000  0.510
 
band     2 # energy    1.58735910 # occ.  2.00000000
 
ion      s     py     pz     px    dxy    dyz    dz2    dxz  x2-y2    tot
    1  0.004  0.014  0.000  0.005  0.007  0.000  0.001  0.000  0.000  0.030
    2  0.101  0.045  0.000  0.138  0.000  0.000  0.000  0.000  0.000  0.284
    3  0.101  0.045  0.000  0.138  0.000  0.000  0.000  0.000  0.000  0.284
tot    0.207  0.104  0.000  0.281  0.007  0.000  0.001  0.000  0.000  0.599
 
band     3 # energy    3.04522985 # occ.  2.00000000
 
ion      s     py     pz     px    dxy    dyz    dz2    dxz  x2-y2    tot
    1  0.009  0.004  0.000  0.018  0.001  0.000  0.003  0.000  0.001  0.036
    2  0.016  0.198  0.000  0.067  0.000  0.000  0.000  0.000  0.000  0.281
    3  0.016  0.198  0.000  0.067  0.000  0.000  0.000  0.000  0.000  0.281
tot    0.041  0.400  0.000  0.153  0.001  0.000  0.003  0.000  0.001  0.599
 
band     4 # energy    3.81123636 # occ.  2.00000000
 
ion      s     py     pz     px    dxy    dyz    dz2    dxz  x2-y2    tot
    1  0.000  0.000  0.044  0.000  0.000  0.000  0.000  0.014  0.000  0.058
    2  0.000  0.000  0.210  0.000  0.000  0.000  0.000  0.000  0.000  0.210
    3  0.000  0.000  0.210  0.000  0.000  0.000  0.000  0.000  0.000  0.210
tot    0.000  0.000  0.465  0.000  0.000  0.000  0.000  0.014  0.000  0.479
 
band     5 # energy    8.47608250 # occ.  0.00000000
 
ion      s     py     pz     px    dxy    dyz    dz2    dxz  x2-y2    tot
    1  0.090  0.001  0.000  0.042  0.000  0.000  0.030  0.000  0.003  0.167
    2  0.053  0.014  0.000  0.017  0.000  0.000  0.000  0.000  0.000  0.084
    3  0.053  0.014  0.000  0.017  0.000  0.000  0.000  0.000  0.000  0.084
tot    0.196  0.030  0.000  0.075  0.000  0.000  0.030  0.000  0.003  0.335
 
band     6 # energy   11.57702543 # occ.  0.00000000
 
ion      s     py     pz     px    dxy    dyz    dz2    dxz  x2-y2    tot
    1  0.000  0.000  0.003  0.000  0.000  0.018  0.000  0.001  0.000  0.022
    2  0.000  0.000  0.266  0.000  0.000  0.000  0.000  0.000  0.000  0.266
    3  0.000  0.000  0.266  0.000  0.000  0.000  0.000  0.000  0.000  0.266
tot    0.000  0.000  0.535  0.000  0.000  0.018  0.000  0.001  0.000  0.554
 
band     7 # energy   11.90283719 # occ.  0.00000000
 
ion      s     py     pz     px    dxy    dyz    dz2    dxz  x2-y2    tot
    1  0.084  0.001  0.000  0.001  0.017  0.000  0.007  0.000  0.006  0.115
    2  0.088  0.078  0.000  0.018  0.000  0.000  0.000  0.000  0.000  0.184
    3  0.088  0.078  0.000  0.018  0.000  0.000  0.000  0.000  0.000  0.184
tot    0.259  0.156  0.000  0.038  0.017  0.000  0.007  0.000  0.006  0.482
 
band     8 # energy   13.61300023 # occ.  0.00000000
 
ion      s     py     pz     px    dxy    dyz    dz2    dxz  x2-y2    tot
    1  0.051  0.001  0.000  0.011  0.036  0.000  0.003  0.000  0.001  0.103
    2  0.033  0.109  0.000  0.047  0.000  0.000  0.000  0.000  0.000  0.189
    3  0.033  0.109  0.000  0.047  0.000  0.000  0.000  0.000  0.000  0.189
tot    0.117  0.218  0.000  0.105  0.036  0.000  0.003  0.000  0.001  0.480
 

 k-point    15 :    0.29166667 0.12500000 0.00000000     weight = 0.00308642

band     1 # energy   -4.77522065 # occ.  2.00000000
 
ion      s     py     pz     px    dxy    dyz    dz2    dxz  x2-y2    tot
    1  0.038  0.001  0.000  0.014  0.000  0.000  0.001  0.000  0.000  0.053
    2  0.193  0.002  0.000  0.039  0.000  0.000  0.000  0.000  0.000  0.233
    3  0.193  0.002  0.000  0.039  0.000  0.000  0.000  0.000  0.000  0.233
tot    0.423  0.005  0.000  0.091  0.000  0.000  0.001  0.000  0.000  0.520
 
band     2 # energy   -0.02002668 # occ.  2.00000000
 
ion      s     py     pz     px    dxy    dyz    dz2    dxz  x2-y2    tot
    1  0.013  0.012  0.000  0.008  0.004  0.000  0.001  0.000  0.000  0.039
    2  0.119  0.049  0.000  0.099  0.000  0.000  0.000  0.000  0.000  0.266
    3  0.119  0.049  0.000  0.099  0.000  0.000  0.000  0.000  0.000  0.266
tot    0.250  0.109  0.000  0.205  0.004  0.000  0.001  0.000  0.000  0.570
 
band     3 # energy    2.48115849 # occ.  2.00000000
 
ion      s     py     pz     px    dxy    dyz    dz2    dxz  x2-y2    tot
    1  0.011  0.009  0.000  0.012  0.002  0.000  0.002  0.000  0.000  0.037
    2  0.025  0.182  0.000  0.073  0.000  0.000  0.000  0.000  0.000  0.280
    3  0.025  0.182  0.000  0.073  0.000  0.000  0.000  0.000  0.000  0.280
tot    0.061  0.374  0.000  0.159  0.002  0.000  0.002  0.000  0.000  0.597
 
band     4 # energy    4.62471676 # occ.  2.00000000
 
ion      s     py     pz     px    dxy    dyz    dz2    dxz  x2-y2    tot
    1  0.000  0.000  0.031  0.000  0.000  0.001  0.000  0.021  0.000  0.053
    2  0.000  0.000  0.215  0.000  0.000  0.000  0.000  0.000  0.000  0.215
    3  0.000  0.000  0.215  0.000  0.000  0.000  0.000  0.000  0.000  0.215
tot    0.000  0.000  0.461  0.000  0.000  0.001  0.000  0.021  0.000  0.484
 
band     5 # energy    9.26515412 # occ.  0.00000000
 
ion      s     py     pz     px    dxy    dyz    dz2    dxz  x2-y2    tot
    1  0.055  0.004  0.000  0.058  0.003  0.000  0.025  0.000  0.007  0.153
    2  0.041  0.023  0.000  0.024  0.000  0.000  0.000  0.000  0.000  0.088
    3  0.041  0.023  0.000  0.024  0.000  0.000  0.000  0.000  0.000  0.088
tot    0.137  0.050  0.000  0.107  0.003  0.000  0.025  0.000  0.007  0.329
 
band     6 # energy   10.07687675 # occ.  0.00000000
 
ion      s     py     pz     px    dxy    dyz    dz2    dxz  x2-y2    tot
    1  0.000  0.000  0.015  0.000  0.000  0.019  0.000  0.002  0.000  0.036
    2  0.000  0.000  0.242  0.000  0.000  0.000  0.000  0.000  0.000  0.242
    3  0.000  0.000  0.242  0.000  0.000  0.000  0.000  0.000  0.000  0.242
tot    0.000  0.000  0.498  0.000  0.000  0.019  0.000  0.002  0.000  0.519
 
band     7 # energy   11.46008352 # occ.  0.00000000
 
ion      s     py     pz     px    dxy    dyz    dz2    dxz  x2-y2    tot
    1  0.069  0.001  0.000  0.004  0.027  0.000  0.006  0.000  0.004  0.111
    2  0.091  0.052  0.000  0.027  0.000  0.000  0.000  0.000  0.000  0.170
    3  0.091  0.052  0.000  0.027  0.000  0.000  0.000  0.000  0.000  0.170
tot    0.251  0.104  0.000  0.059  0.027  0.000  0.006  0.000  0.004  0.451
 
band     8 # energy   13.74565326 # occ.  0.00000000
 
ion      s     py     pz     px    dxy    dyz    dz2    dxz  x2-y2    tot
    1  0.129  0.028  0.000  0.019  0.030  0.000  0.000  0.000  0.000  0.206
    2  0.018  0.075  0.000  0.050  0.000  0.000  0.000  0.000  0.000  0.143
    3  0.018  0.075  0.000  0.050  0.000  0.000  0.000  0.000  0.000  0.143
tot    0.164  0.179  0.000  0.119  0.030  0.000  0.000  0.000  0.000  0.492
 

 k-point    16 :    0.37500000 0.12500000 0.00000000     weight = 0.00308642

band     1 # energy   -3.69533465 # occ.  2.00000000
 
ion      s     py     pz     px    dxy    dyz    dz2    dxz  x2-y2    tot
    1  0.024  0.002  0.000  0.020  0.000  0.000  0.001  0.000  0.001  0.047
    2  0.188  0.005  0.000  0.051  0.000  0.000  0.000  0.000  0.000  0.244
    3  0.188  0.005  0.000  0.051  0.000  0.000  0.000  0.000  0.000  0.244
tot    0.401  0.011  0.000  0.121  0.000  0.000  0.001  0.000  0.001  0.535
 
band     2 # energy   -1.54285846 # occ.  2.00000000
 
ion      s     py     pz     px    dxy    dyz    dz2    dxz  x2-y2    tot
    1  0.027  0.010  0.000  0.006  0.003  0.000  0.002  0.000  0.000  0.048
    2  0.129  0.044  0.000  0.077  0.000  0.000  0.000  0.000  0.000  0.250
    3  0.129  0.044  0.000  0.077  0.000  0.000  0.000  0.000  0.000  0.250
tot    0.285  0.097  0.000  0.160  0.003  0.000  0.002  0.000  0.000  0.547
 
band     3 # energy    2.17497312 # occ.  2.00000000
 
ion      s     py     pz     px    dxy    dyz    dz2    dxz  x2-y2    tot
    1  0.012  0.014  0.000  0.008  0.001  0.000  0.002  0.000  0.000  0.037
    2  0.030  0.182  0.000  0.069  0.000  0.000  0.000  0.000  0.000  0.280
    3  0.030  0.182  0.000  0.069  0.000  0.000  0.000  0.000  0.000  0.280
tot    0.071  0.377  0.000  0.146  0.001  0.000  0.002  0.000  0.000  0.597
 
band     4 # energy    5.47937957 # occ. -0.06741547
 
ion      s     py     pz     px    dxy    dyz    dz2    dxz  x2-y2    tot
    1  0.000  0.000  0.011  0.000  0.000  0.005  0.000  0.029  0.000  0.045
    2  0.000  0.000  0.224  0.000  0.000  0.000  0.000  0.000  0.000  0.224
    3  0.000  0.000  0.224  0.000  0.000  0.000  0.000  0.000  0.000  0.224
tot    0.000  0.000  0.458  0.000  0.000  0.005  0.000  0.029  0.000  0.492
 
band     5 # energy    8.79392117 # occ.  0.00000000
 
ion      s     py     pz     px    dxy    dyz    dz2    dxz  x2-y2    tot
    1  0.000  0.000  0.035  0.000  0.000  0.015  0.000  0.000  0.000  0.050
    2  0.000  0.000  0.222  0.000  0.000  0.000  0.000  0.000  0.000  0.222
    3  0.000  0.000  0.222  0.000  0.000  0.000  0.000  0.000  0.000  0.222
tot    0.000  0.000  0.479  0.000  0.000  0.015  0.000  0.000  0.000  0.493
 
band     6 # energy   10.08893350 # occ.  0.00000000
 
ion      s     py     pz     px    dxy    dyz    dz2    dxz  x2-y2    tot
    1  0.012  0.005  0.000  0.055  0.013  0.000  0.021  0.000  0.013  0.119
    2  0.030  0.043  0.000  0.031  0.000  0.000  0.000  0.000  0.000  0.103
    3  0.030  0.043  0.000  0.031  0.000  0.000  0.000  0.000  0.000  0.103
tot    0.072  0.090  0.000  0.117  0.013  0.000  0.021  0.000  0.013  0.326
 
band     7 # energy   11.08696765 # occ.  0.00000000
 
ion      s     py     pz     px    dxy    dyz    dz2    dxz  x2-y2    tot
    1  0.030  0.016  0.000  0.041  0.025  0.000  0.005  0.000  0.001  0.118
    2  0.070  0.023  0.000  0.045  0.000  0.000  0.000  0.000  0.000  0.138
    3  0.070  0.023  0.000  0.045  0.000  0.000  0.000  0.000  0.000  0.138
tot    0.170  0.061  0.000  0.131  0.025  0.000  0.005  0.000  0.001  0.393
 
band     8 # energy   13.16583840 # occ.  0.00000000
 
ion      s     py     pz     px    dxy    dyz    dz2    dxz  x2-y2    tot
    1  0.228  0.028  0.000  0.005  0.011  0.000  0.000  0.000  0.000  0.273
    2  0.065  0.045  0.000  0.027  0.000  0.000  0.000  0.000  0.000  0.136
    3  0.065  0.045  0.000  0.027  0.000  0.000  0.000  0.000  0.000  0.136
tot    0.358  0.117  0.000  0.059  0.011  0.000  0.000  0.000  0.000  0.545
 

 k-point    17 :    0.45833333 0.12500000 0.00000000     weight = 0.00308642

band     1 # energy   -3.15121349 # occ.  2.00000000
 
ion      s     py     pz     px    dxy    dyz    dz2    dxz  x2-y2    tot
    1  0.009  0.011  0.000  0.019  0.001  0.000  0.000  0.000  0.000  0.040
    2  0.201  0.024  0.000  0.028  0.000  0.000  0.000  0.000  0.000  0.253
    3  0.201  0.024  0.000  0.028  0.000  0.000  0.000  0.000  0.000  0.253
tot    0.411  0.059  0.000  0.075  0.001  0.000  0.000  0.000  0.000  0.547
 
band     2 # energy   -2.17827889 # occ.  2.00000000
 
ion      s     py     pz     px    dxy    dyz    dz2    dxz  x2-y2    tot
    1  0.043  0.000  0.000  0.008  0.002  0.000  0.002  0.000  0.001  0.056
    2  0.117  0.022  0.000  0.100  0.000  0.000  0.000  0.000  0.000  0.239
    3  0.117  0.022  0.000  0.100  0.000  0.000  0.000  0.000  0.000  0.239
tot    0.277  0.043  0.000  0.208  0.002  0.000  0.002  0.000  0.001  0.533
 
band     3 # energy    2.11405021 # occ.  2.00000000
 
ion      s     py     pz     px    dxy    dyz    dz2    dxz  x2-y2    tot
    1  0.012  0.017  0.000  0.005  0.001  0.000  0.002  0.000  0.000  0.037
    2  0.030  0.186  0.000  0.064  0.000  0.000  0.000  0.000  0.000  0.280
    3  0.030  0.186  0.000  0.064  0.000  0.000  0.000  0.000  0.000  0.280
tot    0.072  0.390  0.000  0.132  0.001  0.000  0.002  0.000  0.000  0.597
 
band     4 # energy    5.75955277 # occ. -0.00000042
 
ion      s     py     pz     px    dxy    dyz    dz2    dxz  x2-y2    tot
    1  0.000  0.000  0.002  0.000  0.000  0.012  0.000  0.028  0.000  0.041
    2  0.000  0.000  0.228  0.000  0.000  0.000  0.000  0.000  0.000  0.228
    3  0.000  0.000  0.228  0.000  0.000  0.000  0.000  0.000  0.000  0.228
tot    0.000  0.000  0.458  0.000  0.000  0.012  0.000  0.028  0.000  0.497
 
band     5 # energy    8.42450887 # occ.  0.00000000
 
ion      s     py     pz     px    dxy    dyz    dz2    dxz  x2-y2    tot
    1  0.000  0.000  0.045  0.000  0.000  0.005  0.000  0.006  0.000  0.055
    2  0.000  0.000  0.215  0.000  0.000  0.000  0.000  0.000  0.000  0.215
    3  0.000  0.000  0.215  0.000  0.000  0.000  0.000  0.000  0.000  0.215
tot    0.000  0.000  0.475  0.000  0.000  0.005  0.000  0.006  0.000  0.485
 
band     6 # energy   10.40610204 # occ.  0.00000000
 
ion      s     py     pz     px    dxy    dyz    dz2    dxz  x2-y2    tot
    1  0.000  0.013  0.000  0.009  0.036  0.000  0.023  0.000  0.007  0.089
    2  0.031  0.039  0.000  0.055  0.000  0.000  0.000  0.000  0.000  0.124
    3  0.031  0.039  0.000  0.055  0.000  0.000  0.000  0.000  0.000  0.124
tot    0.062  0.091  0.000  0.118  0.036  0.000  0.023  0.000  0.007  0.338
 
band     7 # energy   10.91665287 # occ.  0.00000000
 
ion      s     py     pz     px    dxy    dyz    dz2    dxz  x2-y2    tot
    1  0.005  0.027  0.000  0.091  0.002  0.000  0.002  0.000  0.010  0.136
    2  0.054  0.034  0.000  0.021  0.000  0.000  0.000  0.000  0.000  0.108
    3  0.054  0.034  0.000  0.021  0.000  0.000  0.000  0.000  0.000  0.108
tot    0.113  0.095  0.000  0.132  0.002  0.000  0.002  0.000  0.010  0.352
 
band     8 # energy   12.96441208 # occ.  0.00000000
 
ion      s     py     pz     px    dxy    dyz    dz2    dxz  x2-y2    tot
    1  0.268  0.005  0.000  0.011  0.004  0.000  0.001  0.000  0.003  0.290
    2  0.085  0.015  0.000  0.042  0.000  0.000  0.000  0.000  0.000  0.141
    3  0.085  0.015  0.000  0.042  0.000  0.000  0.000  0.000  0.000  0.141
tot    0.437  0.034  0.000  0.094  0.004  0.000  0.001  0.000  0.003  0.573
 

 k-point    18 :   -0.45833333 0.12500000 0.00000000     weight = 0.00308642

band     1 # energy   -4.25565642 # occ.  2.00000000
 
ion      s     py     pz     px    dxy    dyz    dz2    dxz  x2-y2    tot
    1  0.032  0.009  0.000  0.009  0.001  0.000  0.001  0.000  0.000  0.051
    2  0.189  0.025  0.000  0.024  0.000  0.000  0.000  0.000  0.000  0.238
    3  0.189  0.025  0.000  0.024  0.000  0.000  0.000  0.000  0.000  0.238
tot    0.410  0.058  0.000  0.057  0.001  0.000  0.001  0.000  0.000  0.526
 
band     2 # energy   -0.80280775 # occ.  2.00000000
 
ion      s     py     pz     px    dxy    dyz    dz2    dxz  x2-y2    tot
    1  0.019  0.001  0.000  0.018  0.002  0.000  0.001  0.000  0.002  0.043
    2  0.125  0.022  0.000  0.110  0.000  0.000  0.000  0.000  0.000  0.258
    3  0.125  0.022  0.000  0.110  0.000  0.000  0.000  0.000  0.000  0.258
tot    0.270  0.044  0.000  0.238  0.002  0.000  0.001  0.000  0.002  0.558
 
band     3 # energy    2.29705011 # occ.  2.00000000
 
ion      s     py     pz     px    dxy    dyz    dz2    dxz  x2-y2    tot
    1  0.011  0.020  0.000  0.002  0.000  0.000  0.002  0.000  0.001  0.037
    2  0.028  0.191  0.000  0.062  0.000  0.000  0.000  0.000  0.000  0.280
    3  0.028  0.191  0.000  0.062  0.000  0.000  0.000  0.000  0.000  0.280
tot    0.067  0.401  0.000  0.125  0.000  0.000  0.002  0.000  0.001  0.597
 
band     4 # energy    5.06667661 # occ.  2.00018465
 
ion      s     py     pz     px    dxy    dyz    dz2    dxz  x2-y2    tot
    1  0.000  0.000  0.022  0.000  0.000  0.013  0.000  0.015  0.000  0.050
    2  0.000  0.000  0.219  0.000  0.000  0.000  0.000  0.000  0.000  0.219
    3  0.000  0.000  0.219  0.000  0.000  0.000  0.000  0.000  0.000  0.219
tot    0.000  0.000  0.460  0.000  0.000  0.013  0.000  0.015  0.000  0.487
 
band     5 # energy    9.38258441 # occ.  0.00000000
 
ion      s     py     pz     px    dxy    dyz    dz2    dxz  x2-y2    tot
    1  0.000  0.000  0.024  0.000  0.000  0.001  0.000  0.018  0.000  0.043
    2  0.000  0.000  0.231  0.000  0.000  0.000  0.000  0.000  0.000  0.231
    3  0.000  0.000  0.231  0.000  0.000  0.000  0.000  0.000  0.000  0.231
tot    0.000  0.000  0.486  0.000  0.000  0.001  0.000  0.018  0.000  0.505
 
band     6 # energy    9.68595972 # occ.  0.00000000
 
ion      s     py     pz     px    dxy    dyz    dz2    dxz  x2-y2    tot
    1  0.033  0.032  0.000  0.036  0.015  0.000  0.023  0.000  0.000  0.139
    2  0.034  0.017  0.000  0.041  0.000  0.000  0.000  0.000  0.000  0.093
    3  0.034  0.017  0.000  0.041  0.000  0.000  0.000  0.000  0.000  0.093
tot    0.102  0.067  0.000  0.118  0.015  0.000  0.023  0.000  0.000  0.325
 
band     7 # energy   11.26736270 # occ.  0.00000000
 
ion      s     py     pz     px    dxy    dyz    dz2    dxz  x2-y2    tot
    1  0.053  0.005  0.000  0.017  0.017  0.000  0.005  0.000  0.014  0.112
    2  0.084  0.054  0.000  0.019  0.000  0.000  0.000  0.000  0.000  0.158
    3  0.084  0.054  0.000  0.019  0.000  0.000  0.000  0.000  0.000  0.158
tot    0.221  0.114  0.000  0.055  0.017  0.000  0.005  0.000  0.014  0.427
 
band     8 # energy   13.47175354 # occ.  0.00000000
 
ion      s     py     pz     px    dxy    dyz    dz2    dxz  x2-y2    tot
    1  0.176  0.000  0.000  0.048  0.006  0.000  0.000  0.000  0.014  0.244
    2  0.039  0.002  0.000  0.093  0.000  0.000  0.000  0.000  0.000  0.135
    3  0.039  0.002  0.000  0.093  0.000  0.000  0.000  0.000  0.000  0.135
tot    0.254  0.005  0.000  0.235  0.006  0.000  0.000  0.000  0.014  0.514
 

 k-point    19 :   -0.37500000 0.12500000 0.00000000     weight = 0.00308642

band     1 # energy   -5.24430984 # occ.  2.00000000
 
ion      s     py     pz     px    dxy    dyz    dz2    dxz  x2-y2    tot
    1  0.042  0.007  0.000  0.005  0.000  0.000  0.001  0.000  0.000  0.055
    2  0.197  0.019  0.000  0.014  0.000  0.000  0.000  0.000  0.000  0.230
    3  0.197  0.019  0.000  0.014  0.000  0.000  0.000  0.000  0.000  0.230
tot    0.436  0.044  0.000  0.033  0.000  0.000  0.001  0.000  0.000  0.515
 
band     2 # energy    0.78471710 # occ.  2.00000000
 
ion      s     py     pz     px    dxy    dyz    dz2    dxz  x2-y2    tot
    1  0.008  0.000  0.000  0.019  0.003  0.000  0.001  0.000  0.003  0.035
    2  0.110  0.039  0.000  0.126  0.000  0.000  0.000  0.000  0.000  0.275
    3  0.110  0.039  0.000  0.126  0.000  0.000  0.000  0.000  0.000  0.275
tot    0.229  0.077  0.000  0.271  0.003  0.000  0.001  0.000  0.003  0.584
 
band     3 # energy    2.72963337 # occ.  2.00000000
 
ion      s     py     pz     px    dxy    dyz    dz2    dxz  x2-y2    tot
    1  0.010  0.022  0.000  0.000  0.000  0.000  0.002  0.000  0.002  0.037
    2  0.021  0.188  0.000  0.072  0.000  0.000  0.000  0.000  0.000  0.281
    3  0.021  0.188  0.000  0.072  0.000  0.000  0.000  0.000  0.000  0.281
tot    0.053  0.397  0.000  0.144  0.000  0.000  0.002  0.000  0.002  0.598
 
band     4 # energy    4.19942841 # occ.  2.00000000
 
ion      s     py     pz     px    dxy    dyz    dz2    dxz  x2-y2    tot
    1  0.000  0.000  0.038  0.000  0.000  0.010  0.000  0.008  0.000  0.056
    2  0.000  0.000  0.212  0.000  0.000  0.000  0.000  0.000  0.000  0.212
    3  0.000  0.000  0.212  0.000  0.000  0.000  0.000  0.000  0.000  0.212
tot    0.000  0.000  0.463  0.000  0.000  0.010  0.000  0.008  0.000  0.481
 
band     5 # energy    8.85637124 # occ.  0.00000000
 
ion      s     py     pz     px    dxy    dyz    dz2    dxz  x2-y2    tot
    1  0.074  0.029  0.000  0.025  0.006  0.000  0.028  0.000  0.000  0.161
    2  0.048  0.013  0.000  0.025  0.000  0.000  0.000  0.000  0.000  0.086
    3  0.048  0.013  0.000  0.025  0.000  0.000  0.000  0.000  0.000  0.086
tot    0.169  0.055  0.000  0.075  0.006  0.000  0.028  0.000  0.000  0.333
 
band     6 # energy   10.81992902 # occ.  0.00000000
 
ion      s     py     pz     px    dxy    dyz    dz2    dxz  x2-y2    tot
    1  0.000  0.000  0.008  0.000  0.000  0.001  0.000  0.020  0.000  0.029
    2  0.000  0.000  0.253  0.000  0.000  0.000  0.000  0.000  0.000  0.253
    3  0.000  0.000  0.253  0.000  0.000  0.000  0.000  0.000  0.000  0.253
tot    0.000  0.000  0.514  0.000  0.000  0.001  0.000  0.020  0.000  0.535
 
band     7 # energy   11.67452246 # occ.  0.00000000
 
ion      s     py     pz     px    dxy    dyz    dz2    dxz  x2-y2    tot
    1  0.078  0.000  0.000  0.000  0.019  0.000  0.006  0.000  0.009  0.112
    2  0.092  0.045  0.000  0.041  0.000  0.000  0.000  0.000  0.000  0.178
    3  0.092  0.045  0.000  0.041  0.000  0.000  0.000  0.000  0.000  0.178
tot    0.262  0.090  0.000  0.081  0.019  0.000  0.006  0.000  0.009  0.468
 
band     8 # energy   13.83061078 # occ.  0.00000000
 
ion      s     py     pz     px    dxy    dyz    dz2    dxz  x2-y2    tot
    1  0.087  0.003  0.000  0.026  0.006  0.000  0.002  0.000  0.030  0.154
    2  0.013  0.013  0.000  0.139  0.000  0.000  0.000  0.000  0.000  0.165
    3  0.013  0.013  0.000  0.139  0.000  0.000  0.000  0.000  0.000  0.165
tot    0.113  0.029  0.000  0.303  0.006  0.000  0.002  0.000  0.030  0.484
 

 k-point    20 :   -0.29166667 0.12500000 0.00000000     weight = 0.00308642

band     1 # energy   -6.01741899 # occ.  2.00000000
 
ion      s     py     pz     px    dxy    dyz    dz2    dxz  x2-y2    tot
    1  0.050  0.005  0.000  0.002  0.000  0.000  0.000  0.000  0.000  0.058
    2  0.204  0.013  0.000  0.006  0.000  0.000  0.000  0.000  0.000  0.224
    3  0.204  0.013  0.000  0.006  0.000  0.000  0.000  0.000  0.000  0.224
tot    0.459  0.031  0.000  0.015  0.000  0.000  0.000  0.000  0.000  0.506
 
band     2 # energy    2.35388969 # occ.  2.00000000
 
ion      s     py     pz     px    dxy    dyz    dz2    dxz  x2-y2    tot
    1  0.001  0.001  0.000  0.016  0.003  0.000  0.000  0.000  0.005  0.026
    2  0.092  0.095  0.000  0.108  0.000  0.000  0.000  0.000  0.000  0.294
    3  0.092  0.095  0.000  0.108  0.000  0.000  0.000  0.000  0.000  0.294
tot    0.184  0.190  0.000  0.232  0.003  0.000  0.000  0.000  0.005  0.615
 
band     3 # energy    3.43932523 # occ.  2.00000000
 
ion      s     py     pz     px    dxy    dyz    dz2    dxz  x2-y2    tot
    1  0.008  0.020  0.000  0.002  0.001  0.000  0.003  0.000  0.002  0.035
    2  0.009  0.146  0.000  0.128  0.000  0.000  0.000  0.000  0.000  0.283
    3  0.009  0.146  0.000  0.128  0.000  0.000  0.000  0.000  0.000  0.283
tot    0.027  0.313  0.000  0.257  0.001  0.000  0.003  0.000  0.002  0.602
 
band     4 # energy    3.47015343 # occ.  2.00000000
 
ion      s     py     pz     px    dxy    dyz    dz2    dxz  x2-y2    tot
    1  0.000  0.000  0.049  0.000  0.000  0.007  0.000  0.003  0.000  0.060
    2  0.000  0.000  0.209  0.000  0.000  0.000  0.000  0.000  0.000  0.209
    3  0.000  0.000  0.209  0.000  0.000  0.000  0.000  0.000  0.000  0.209
tot    0.000  0.000  0.467  0.000  0.000  0.007  0.000  0.003  0.000  0.478
 
band     5 # energy    8.13379388 # occ.  0.00000000
 
ion      s     py     pz     px    dxy    dyz    dz2    dxz  x2-y2    tot
    1  0.102  0.022  0.000  0.011  0.002  0.000  0.033  0.000  0.000  0.171
    2  0.057  0.011  0.000  0.014  0.000  0.000  0.000  0.000  0.000  0.083
    3  0.057  0.011  0.000  0.014  0.000  0.000  0.000  0.000  0.000  0.083
tot    0.217  0.044  0.000  0.040  0.002  0.000  0.033  0.000  0.000  0.337
 
band     6 # energy   12.10312616 # occ.  0.00000000
 
ion      s     py     pz     px    dxy    dyz    dz2    dxz  x2-y2    tot
    1  0.093  0.004  0.000  0.006  0.013  0.000  0.008  0.000  0.001  0.124
    2  0.074  0.038  0.000  0.075  0.000  0.000  0.000  0.000  0.000  0.186
    3  0.074  0.038  0.000  0.075  0.000  0.000  0.000  0.000  0.000  0.186
tot    0.240  0.079  0.000  0.155  0.013  0.000  0.008  0.000  0.001  0.497
 
band     7 # energy   12.31549817 # occ.  0.00000000
 
ion      s     py     pz     px    dxy    dyz    dz2    dxz  x2-y2    tot
    1  0.000  0.000  0.001  0.000  0.000  0.002  0.000  0.014  0.000  0.016
    2  0.000  0.000  0.279  0.000  0.000  0.000  0.000  0.000  0.000  0.279
    3  0.000  0.000  0.279  0.000  0.000  0.000  0.000  0.000  0.000  0.279
tot    0.000  0.000  0.559  0.000  0.000  0.002  0.000  0.014  0.000  0.574
 
band     8 # energy   13.20463614 # occ.  0.00000000
 
ion      s     py     pz     px    dxy    dyz    dz2    dxz  x2-y2    tot
    1  0.020  0.008  0.000  0.000  0.004  0.000  0.002  0.000  0.031  0.065
    2  0.065  0.040  0.000  0.096  0.000  0.000  0.000  0.000  0.000  0.202
    3  0.065  0.040  0.000  0.096  0.000  0.000  0.000  0.000  0.000  0.202
tot    0.150  0.089  0.000  0.193  0.004  0.000  0.002  0.000  0.031  0.468
 

 k-point    21 :   -0.20833333 0.12500000 0.00000000     weight = 0.00308642

band     1 # energy   -6.55930276 # occ.  2.00000000
 
ion      s     py     pz     px    dxy    dyz    dz2    dxz  x2-y2    tot
    1  0.056  0.003  0.000  0.001  0.000  0.000  0.000  0.000  0.000  0.060
    2  0.210  0.009  0.000  0.002  0.000  0.000  0.000  0.000  0.000  0.220
    3  0.210  0.009  0.000  0.002  0.000  0.000  0.000  0.000  0.000  0.220
tot    0.476  0.020  0.000  0.004  0.000  0.000  0.000  0.000  0.000  0.500
 
band     2 # energy    2.94708799 # occ.  2.00000000
 
ion      s     py     pz     px    dxy    dyz    dz2    dxz  x2-y2    tot
    1  0.000  0.000  0.056  0.000  0.000  0.005  0.000  0.001  0.000  0.062
    2  0.000  0.000  0.207  0.000  0.000  0.000  0.000  0.000  0.000  0.207
    3  0.000  0.000  0.207  0.000  0.000  0.000  0.000  0.000  0.000  0.207
tot    0.000  0.000  0.471  0.000  0.000  0.005  0.000  0.001  0.000  0.476
 
band     3 # energy    3.60514041 # occ.  2.00000000
 
ion      s     py     pz     px    dxy    dyz    dz2    dxz  x2-y2    tot
    1  0.000  0.007  0.000  0.005  0.001  0.000  0.000  0.000  0.008  0.022
    2  0.063  0.212  0.000  0.031  0.000  0.000  0.000  0.000  0.000  0.306
    3  0.063  0.212  0.000  0.031  0.000  0.000  0.000  0.000  0.000  0.306
tot    0.126  0.432  0.000  0.066  0.001  0.000  0.000  0.000  0.008  0.634
 
band     4 # energy    4.45157544 # occ.  2.00000000
 
ion      s     py     pz     px    dxy    dyz    dz2    dxz  x2-y2    tot
    1  0.002  0.008  0.000  0.009  0.005  0.000  0.002  0.000  0.000  0.026
    2  0.003  0.043  0.000  0.258  0.000  0.000  0.000  0.000  0.000  0.304
    3  0.003  0.043  0.000  0.258  0.000  0.000  0.000  0.000  0.000  0.304
tot    0.008  0.094  0.000  0.525  0.005  0.000  0.002  0.000  0.000  0.634
 
band     5 # energy    7.58966716 # occ. -0.00000000
 
ion      s     py     pz     px    dxy    dyz    dz2    dxz  x2-y2    tot
    1  0.116  0.016  0.000  0.003  0.001  0.000  0.038  0.000  0.001  0.174
    2  0.063  0.010  0.000  0.006  0.000  0.000  0.000  0.000  0.000  0.079
    3  0.063  0.010  0.000  0.006  0.000  0.000  0.000  0.000  0.000  0.079
tot    0.242  0.037  0.000  0.015  0.001  0.000  0.038  0.000  0.001  0.333
 
band     6 # energy   11.82063018 # occ.  0.00000000
 
ion      s     py     pz     px    dxy    dyz    dz2    dxz  x2-y2    tot
    1  0.075  0.024  0.000  0.001  0.002  0.000  0.007  0.000  0.007  0.115
    2  0.062  0.078  0.000  0.042  0.000  0.000  0.000  0.000  0.000  0.182
    3  0.062  0.078  0.000  0.042  0.000  0.000  0.000  0.000  0.000  0.182
tot    0.199  0.180  0.000  0.084  0.002  0.000  0.007  0.000  0.007  0.480
 
band     7 # energy   13.00826717 # occ.  0.00000000
 
ion      s     py     pz     px    dxy    dyz    dz2    dxz  x2-y2    tot
    1  0.006  0.000  0.000  0.030  0.008  0.000  0.001  0.000  0.010  0.056
    2  0.074  0.020  0.000  0.113  0.000  0.000  0.000  0.000  0.000  0.207
    3  0.074  0.020  0.000  0.113  0.000  0.000  0.000  0.000  0.000  0.207
tot    0.154  0.041  0.000  0.256  0.008  0.000  0.001  0.000  0.010  0.470
 
band     8 # energy   13.63067711 # occ.  0.00000000
 
ion      s     py     pz     px    dxy    dyz    dz2    dxz  x2-y2    tot
    1  0.000  0.000  0.000  0.000  0.000  0.004  0.000  0.004  0.000  0.008
    2  0.000  0.000  0.307  0.000  0.000  0.000  0.000  0.000  0.000  0.307
    3  0.000  0.000  0.307  0.000  0.000  0.000  0.000  0.000  0.000  0.307
tot    0.000  0.000  0.613  0.000  0.000  0.004  0.000  0.004  0.000  0.621
 

 k-point    22 :   -0.12500000 0.12500000 0.00000000     weight = 0.00154321

band     1 # energy   -6.86253305 # occ.  2.00000000
 
ion      s     py     pz     px    dxy    dyz    dz2    dxz  x2-y2    tot
    1  0.059  0.002  0.000  0.000  0.000  0.000  0.000  0.000  0.000  0.061
    2  0.213  0.005  0.000  0.000  0.000  0.000  0.000  0.000  0.000  0.218
    3  0.213  0.005  0.000  0.000  0.000  0.000  0.000  0.000  0.000  0.218
tot    0.485  0.012  0.000  0.000  0.000  0.000  0.000  0.000  0.000  0.497
 
band     2 # energy    2.65217764 # occ.  2.00000000
 
ion      s     py     pz     px    dxy    dyz    dz2    dxz  x2-y2    tot
    1  0.000  0.000  0.060  0.000  0.000  0.003  0.000  0.000  0.000  0.063
    2  0.000  0.000  0.206  0.000  0.000  0.000  0.000  0.000  0.000  0.206
    3  0.000  0.000  0.206  0.000  0.000  0.000  0.000  0.000  0.000  0.206
tot    0.000  0.000  0.473  0.000  0.000  0.003  0.000  0.000  0.000  0.475
 
band     3 # energy    4.50296087 # occ.  2.00000000
 
ion      s     py     pz     px    dxy    dyz    dz2    dxz  x2-y2    tot
    1  0.000  0.009  0.000  0.000  0.000  0.000  0.001  0.000  0.010  0.020
    2  0.038  0.276  0.000  0.000  0.000  0.000  0.000  0.000  0.000  0.314
    3  0.038  0.276  0.000  0.000  0.000  0.000  0.000  0.000  0.000  0.314
tot    0.076  0.560  0.000  0.000  0.000  0.000  0.001  0.000  0.010  0.647
 
band     4 # energy    5.19151720 # occ.  2.03254961
 
ion      s     py     pz     px    dxy    dyz    dz2    dxz  x2-y2    tot
    1  0.000  0.000  0.000  0.009  0.009  0.000  0.000  0.000  0.000  0.017
    2  0.000  0.000  0.000  0.327  0.000  0.000  0.000  0.000  0.000  0.327
    3  0.000  0.000  0.000  0.327  0.000  0.000  0.000  0.000  0.000  0.327
tot    0.000  0.000  0.000  0.662  0.009  0.000  0.000  0.000  0.000  0.670
 
band     5 # energy    7.28209742 # occ. -0.00000000
 
ion      s     py     pz     px    dxy    dyz    dz2    dxz  x2-y2    tot
    1  0.125  0.011  0.000  0.000  0.000  0.000  0.041  0.000  0.000  0.177
    2  0.067  0.008  0.000  0.000  0.000  0.000  0.000  0.000  0.000  0.075
    3  0.067  0.008  0.000  0.000  0.000  0.000  0.000  0.000  0.000  0.075
tot    0.259  0.028  0.000  0.000  0.000  0.000  0.041  0.000  0.000  0.328
 
band     6 # energy   11.55258690 # occ.  0.00000000
 
ion      s     py     pz     px    dxy    dyz    dz2    dxz  x2-y2    tot
    1  0.048  0.040  0.000  0.000  0.000  0.000  0.004  0.000  0.007  0.099
    2  0.059  0.119  0.000  0.000  0.000  0.000  0.000  0.000  0.000  0.177
    3  0.059  0.119  0.000  0.000  0.000  0.000  0.000  0.000  0.000  0.177
tot    0.165  0.277  0.000  0.000  0.000  0.000  0.004  0.000  0.007  0.453
 
band     7 # energy   12.93264552 # occ.  0.00000000
 
ion      s     py     pz     px    dxy    dyz    dz2    dxz  x2-y2    tot
    1  0.000  0.000  0.000  0.067  0.005  0.000  0.000  0.000  0.000  0.071
    2  0.000  0.000  0.000  0.198  0.000  0.000  0.000  0.000  0.000  0.198
    3  0.000  0.000  0.000  0.198  0.000  0.000  0.000  0.000  0.000  0.198
tot    0.000  0.000  0.000  0.462  0.005  0.000  0.000  0.000  0.000  0.467
 
band     8 # energy   14.25435791 # occ.  0.00000000
 
ion      s     py     pz     px    dxy    dyz    dz2    dxz  x2-y2    tot
    1  0.005  0.007  0.000  0.000  0.000  0.000  0.001  0.000  0.007  0.020
    2  0.168  0.088  0.000  0.000  0.000  0.000  0.000  0.000  0.000  0.256
    3  0.168  0.088  0.000  0.000  0.000  0.000  0.000  0.000  0.000  0.256
tot    0.341  0.183  0.000  0.000  0.000  0.000  0.001  0.000  0.007  0.532
 

 k-point    23 :    0.20833333 0.20833333 0.00000000     weight = 0.00154321

band     1 # energy   -4.89206328 # occ.  2.00000000
 
ion      s     py     pz     px    dxy    dyz    dz2    dxz  x2-y2    tot
    1  0.039  0.000  0.000  0.014  0.000  0.000  0.001  0.000  0.000  0.054
    2  0.193  0.000  0.000  0.039  0.000  0.000  0.000  0.000  0.000  0.232
    3  0.193  0.000  0.000  0.039  0.000  0.000  0.000  0.000  0.000  0.232
tot    0.426  0.000  0.000  0.092  0.000  0.000  0.001  0.000  0.000  0.518
 
band     2 # energy    0.67565924 # occ.  2.00000000
 
ion      s     py     pz     px    dxy    dyz    dz2    dxz  x2-y2    tot
    1  0.000  0.021  0.000  0.000  0.007  0.000  0.000  0.000  0.000  0.028
    2  0.132  0.035  0.000  0.117  0.000  0.000  0.000  0.000  0.000  0.285
    3  0.132  0.035  0.000  0.117  0.000  0.000  0.000  0.000  0.000  0.285
tot    0.265  0.092  0.000  0.233  0.007  0.000  0.000  0.000  0.000  0.597
 
band     3 # energy    1.76963913 # occ.  2.00000000
 
ion      s     py     pz     px    dxy    dyz    dz2    dxz  x2-y2    tot
    1  0.025  0.000  0.000  0.021  0.000  0.000  0.004  0.000  0.000  0.050
    2  0.018  0.183  0.000  0.054  0.000  0.000  0.000  0.000  0.000  0.255
    3  0.018  0.183  0.000  0.054  0.000  0.000  0.000  0.000  0.000  0.255
tot    0.062  0.366  0.000  0.128  0.000  0.000  0.004  0.000  0.000  0.560
 
band     4 # energy    4.53411314 # occ.  2.00000000
 
ion      s     py     pz     px    dxy    dyz    dz2    dxz  x2-y2    tot
    1  0.000  0.000  0.033  0.000  0.000  0.000  0.000  0.021  0.000  0.054
    2  0.000  0.000  0.214  0.000  0.000  0.000  0.000  0.000  0.000  0.214
    3  0.000  0.000  0.214  0.000  0.000  0.000  0.000  0.000  0.000  0.214
tot    0.000  0.000  0.462  0.000  0.000  0.000  0.000  0.021  0.000  0.483
 
band     5 # energy    9.24242826 # occ.  0.00000000
 
ion      s     py     pz     px    dxy    dyz    dz2    dxz  x2-y2    tot
    1  0.075  0.000  0.000  0.062  0.000  0.000  0.023  0.000  0.006  0.165
    2  0.049  0.017  0.000  0.023  0.000  0.000  0.000  0.000  0.000  0.088
    3  0.049  0.017  0.000  0.023  0.000  0.000  0.000  0.000  0.000  0.088
tot    0.173  0.033  0.000  0.107  0.000  0.000  0.023  0.000  0.006  0.342
 
band     6 # energy   10.34085770 # occ.  0.00000000
 
ion      s     py     pz     px    dxy    dyz    dz2    dxz  x2-y2    tot
    1  0.000  0.000  0.000  0.000  0.000  0.026  0.000  0.000  0.000  0.026
    2  0.000  0.000  0.254  0.000  0.000  0.000  0.000  0.000  0.000  0.254
    3  0.000  0.000  0.254  0.000  0.000  0.000  0.000  0.000  0.000  0.254
tot    0.000  0.000  0.507  0.000  0.000  0.026  0.000  0.000  0.000  0.534
 
band     7 # energy   12.80661743 # occ.  0.00000000
 
ion      s     py     pz     px    dxy    dyz    dz2    dxz  x2-y2    tot
    1  0.000  0.010  0.000  0.000  0.063  0.000  0.000  0.000  0.000  0.073
    2  0.021  0.071  0.000  0.076  0.000  0.000  0.000  0.000  0.000  0.167
    3  0.021  0.071  0.000  0.076  0.000  0.000  0.000  0.000  0.000  0.167
tot    0.041  0.152  0.000  0.152  0.063  0.000  0.000  0.000  0.000  0.407
 
band     8 # energy   13.19073234 # occ.  0.00000000
 
ion      s     py     pz     px    dxy    dyz    dz2    dxz  x2-y2    tot
    1  0.157  0.000  0.000  0.003  0.000  0.000  0.010  0.000  0.007  0.177
    2  0.052  0.138  0.000  0.001  0.000  0.000  0.000  0.000  0.000  0.191
    3  0.052  0.138  0.000  0.001  0.000  0.000  0.000  0.000  0.000  0.191
tot    0.261  0.275  0.000  0.005  0.000  0.000  0.010  0.000  0.007  0.558
 

 k-point    24 :    0.29166667 0.20833333 0.00000000     weight = 0.00308642

band     1 # energy   -3.91449166 # occ.  2.00000000
 
ion      s     py     pz     px    dxy    dyz    dz2    dxz  x2-y2    tot
    1  0.029  0.000  0.000  0.019  0.000  0.000  0.001  0.000  0.001  0.049
    2  0.186  0.001  0.000  0.054  0.000  0.000  0.000  0.000  0.000  0.241
    3  0.186  0.001  0.000  0.054  0.000  0.000  0.000  0.000  0.000  0.241
tot    0.400  0.002  0.000  0.126  0.000  0.000  0.001  0.000  0.001  0.530
 
band     2 # energy   -0.59382501 # occ.  2.00000000
 
ion      s     py     pz     px    dxy    dyz    dz2    dxz  x2-y2    tot
    1  0.010  0.019  0.000  0.003  0.004  0.000  0.001  0.000  0.000  0.037
    2  0.140  0.047  0.000  0.081  0.000  0.000  0.000  0.000  0.000  0.267
    3  0.140  0.047  0.000  0.081  0.000  0.000  0.000  0.000  0.000  0.267
tot    0.289  0.113  0.000  0.164  0.004  0.000  0.001  0.000  0.000  0.572
 
band     3 # energy    1.06069509 # occ.  2.00000000
 
ion      s     py     pz     px    dxy    dyz    dz2    dxz  x2-y2    tot
    1  0.028  0.006  0.000  0.013  0.001  0.000  0.004  0.000  0.000  0.051
    2  0.035  0.159  0.000  0.059  0.000  0.000  0.000  0.000  0.000  0.253
    3  0.035  0.159  0.000  0.059  0.000  0.000  0.000  0.000  0.000  0.253
tot    0.099  0.323  0.000  0.131  0.001  0.000  0.004  0.000  0.000  0.557
 
band     4 # energy    5.40783095 # occ.  0.36715480
 
ion      s     py     pz     px    dxy    dyz    dz2    dxz  x2-y2    tot
    1  0.000  0.000  0.019  0.000  0.000  0.001  0.000  0.029  0.000  0.048
    2  0.000  0.000  0.220  0.000  0.000  0.000  0.000  0.000  0.000  0.220
    3  0.000  0.000  0.220  0.000  0.000  0.000  0.000  0.000  0.000  0.220
tot    0.000  0.000  0.460  0.000  0.000  0.001  0.000  0.029  0.000  0.489
 
band     5 # energy    9.08125583 # occ.  0.00000000
 
ion      s     py     pz     px    dxy    dyz    dz2    dxz  x2-y2    tot
    1  0.000  0.000  0.005  0.000  0.000  0.029  0.000  0.000  0.000  0.034
    2  0.000  0.000  0.240  0.000  0.000  0.000  0.000  0.000  0.000  0.240
    3  0.000  0.000  0.240  0.000  0.000  0.000  0.000  0.000  0.000  0.240
tot    0.000  0.000  0.485  0.000  0.000  0.029  0.000  0.000  0.000  0.514
 
band     6 # energy   10.12424675 # occ.  0.00000000
 
ion      s     py     pz     px    dxy    dyz    dz2    dxz  x2-y2    tot
    1  0.044  0.001  0.000  0.084  0.001  0.000  0.015  0.000  0.011  0.155
    2  0.040  0.023  0.000  0.031  0.000  0.000  0.000  0.000  0.000  0.093
    3  0.040  0.023  0.000  0.031  0.000  0.000  0.000  0.000  0.000  0.093
tot    0.124  0.047  0.000  0.145  0.001  0.000  0.015  0.000  0.011  0.342
 
band     7 # energy   12.22444751 # occ.  0.00000000
 
ion      s     py     pz     px    dxy    dyz    dz2    dxz  x2-y2    tot
    1  0.005  0.029  0.000  0.003  0.054  0.000  0.003  0.000  0.001  0.096
    2  0.013  0.061  0.000  0.072  0.000  0.000  0.000  0.000  0.000  0.146
    3  0.013  0.061  0.000  0.072  0.000  0.000  0.000  0.000  0.000  0.146
tot    0.032  0.151  0.000  0.146  0.054  0.000  0.003  0.000  0.001  0.387
 
band     8 # energy   13.74735006 # occ.  0.00000000
 
ion      s     py     pz     px    dxy    dyz    dz2    dxz  x2-y2    tot
    1  0.208  0.016  0.000  0.003  0.004  0.000  0.003  0.000  0.003  0.237
    2  0.044  0.118  0.000  0.010  0.000  0.000  0.000  0.000  0.000  0.172
    3  0.044  0.118  0.000  0.010  0.000  0.000  0.000  0.000  0.000  0.172
tot    0.297  0.252  0.000  0.022  0.004  0.000  0.003  0.000  0.003  0.580
 

 k-point    25 :    0.37500000 0.20833333 0.00000000     weight = 0.00308642

band     1 # energy   -2.82723972 # occ.  2.00000000
 
ion      s     py     pz     px    dxy    dyz    dz2    dxz  x2-y2    tot
    1  0.008  0.003  0.000  0.027  0.000  0.000  0.000  0.000  0.001  0.039
    2  0.196  0.008  0.000  0.053  0.000  0.000  0.000  0.000  0.000  0.257
    3  0.196  0.008  0.000  0.053  0.000  0.000  0.000  0.000  0.000  0.257
tot    0.400  0.018  0.000  0.132  0.000  0.000  0.000  0.000  0.001  0.552
 
band     2 # energy   -1.88423496 # occ.  2.00000000
 
ion      s     py     pz     px    dxy    dyz    dz2    dxz  x2-y2    tot
    1  0.033  0.013  0.000  0.000  0.003  0.000  0.002  0.000  0.000  0.051
    2  0.127  0.045  0.000  0.074  0.000  0.000  0.000  0.000  0.000  0.246
    3  0.127  0.045  0.000  0.074  0.000  0.000  0.000  0.000  0.000  0.246
tot    0.287  0.102  0.000  0.149  0.003  0.000  0.002  0.000  0.000  0.543
 
band     3 # energy    0.82014405 # occ.  2.00000000
 
ion      s     py     pz     px    dxy    dyz    dz2    dxz  x2-y2    tot
    1  0.027  0.012  0.000  0.006  0.001  0.000  0.003  0.000  0.000  0.049
    2  0.045  0.151  0.000  0.059  0.000  0.000  0.000  0.000  0.000  0.255
    3  0.045  0.151  0.000  0.059  0.000  0.000  0.000  0.000  0.000  0.255
tot    0.118  0.313  0.000  0.124  0.001  0.000  0.003  0.000  0.000  0.560
 
band     4 # energy    6.15677053 # occ. -0.00000000
 
ion      s     py     pz     px    dxy    dyz    dz2    dxz  x2-y2    tot
    1  0.000  0.000  0.002  0.000  0.000  0.006  0.000  0.032  0.000  0.040
    2  0.000  0.000  0.229  0.000  0.000  0.000  0.000  0.000  0.000  0.229
    3  0.000  0.000  0.229  0.000  0.000  0.000  0.000  0.000  0.000  0.229
tot    0.000  0.000  0.460  0.000  0.000  0.006  0.000  0.032  0.000  0.498
 
band     5 # energy    8.14938048 # occ.  0.00000000
 
ion      s     py     pz     px    dxy    dyz    dz2    dxz  x2-y2    tot
    1  0.000  0.000  0.019  0.000  0.000  0.022  0.000  0.002  0.000  0.043
    2  0.000  0.000  0.227  0.000  0.000  0.000  0.000  0.000  0.000  0.227
    3  0.000  0.000  0.227  0.000  0.000  0.000  0.000  0.000  0.000  0.227
tot    0.000  0.000  0.474  0.000  0.000  0.022  0.000  0.002  0.000  0.498
 
band     6 # energy   10.99129996 # occ.  0.00000000
 
ion      s     py     pz     px    dxy    dyz    dz2    dxz  x2-y2    tot
    1  0.007  0.010  0.000  0.104  0.000  0.000  0.004  0.000  0.016  0.141
    2  0.035  0.032  0.000  0.035  0.000  0.000  0.000  0.000  0.000  0.101
    3  0.035  0.032  0.000  0.035  0.000  0.000  0.000  0.000  0.000  0.101
tot    0.076  0.073  0.000  0.173  0.000  0.000  0.004  0.000  0.016  0.344
 
band     7 # energy   11.54487748 # occ.  0.00000000
 
ion      s     py     pz     px    dxy    dyz    dz2    dxz  x2-y2    tot
    1  0.004  0.043  0.000  0.002  0.044  0.000  0.011  0.000  0.004  0.107
    2  0.006  0.053  0.000  0.064  0.000  0.000  0.000  0.000  0.000  0.123
    3  0.006  0.053  0.000  0.064  0.000  0.000  0.000  0.000  0.000  0.123
tot    0.015  0.149  0.000  0.131  0.044  0.000  0.011  0.000  0.004  0.354
 
band     8 # energy   13.71216008 # occ.  0.00000000
 
ion      s     py     pz     px    dxy    dyz    dz2    dxz  x2-y2    tot
    1  0.264  0.011  0.000  0.001  0.000  0.000  0.000  0.000  0.000  0.276
    2  0.067  0.074  0.000  0.027  0.000  0.000  0.000  0.000  0.000  0.169
    3  0.067  0.074  0.000  0.027  0.000  0.000  0.000  0.000  0.000  0.169
tot    0.398  0.160  0.000  0.055  0.000  0.000  0.000  0.000  0.000  0.614
 

 k-point    26 :    0.45833333 0.20833333 0.00000000     weight = 0.00308642

band     1 # energy   -3.36196773 # occ.  2.00000000
 
ion      s     py     pz     px    dxy    dyz    dz2    dxz  x2-y2    tot
    1  0.021  0.013  0.000  0.009  0.001  0.000  0.001  0.000  0.000  0.045
    2  0.185  0.039  0.000  0.023  0.000  0.000  0.000  0.000  0.000  0.247
    3  0.185  0.039  0.000  0.023  0.000  0.000  0.000  0.000  0.000  0.247
tot    0.391  0.091  0.000  0.055  0.001  0.000  0.001  0.000  0.000  0.539
 
band     2 # energy   -1.27758878 # occ.  2.00000000
 
ion      s     py     pz     px    dxy    dyz    dz2    dxz  x2-y2    tot
    1  0.018  0.000  0.000  0.019  0.001  0.000  0.001  0.000  0.002  0.043
    2  0.139  0.016  0.000  0.103  0.000  0.000  0.000  0.000  0.000  0.258
    3  0.139  0.016  0.000  0.103  0.000  0.000  0.000  0.000  0.000  0.258
tot    0.296  0.033  0.000  0.225  0.001  0.000  0.001  0.000  0.002  0.558
 
band     3 # energy    0.89710828 # occ.  2.00000000
 
ion      s     py     pz     px    dxy    dyz    dz2    dxz  x2-y2    tot
    1  0.028  0.016  0.000  0.001  0.001  0.000  0.003  0.000  0.001  0.050
    2  0.042  0.149  0.000  0.064  0.000  0.000  0.000  0.000  0.000  0.255
    3  0.042  0.149  0.000  0.064  0.000  0.000  0.000  0.000  0.000  0.255
tot    0.112  0.314  0.000  0.128  0.001  0.000  0.003  0.000  0.001  0.559
 
band     4 # energy    5.84169339 # occ. -0.00000000
 
ion      s     py     pz     px    dxy    dyz    dz2    dxz  x2-y2    tot
    1  0.000  0.000  0.010  0.000  0.000  0.018  0.000  0.016  0.000  0.044
    2  0.000  0.000  0.225  0.000  0.000  0.000  0.000  0.000  0.000  0.225
    3  0.000  0.000  0.225  0.000  0.000  0.000  0.000  0.000  0.000  0.225
tot    0.000  0.000  0.459  0.000  0.000  0.018  0.000  0.016  0.000  0.493
 
band     5 # energy    8.52589860 # occ.  0.00000000
 
ion      s     py     pz     px    dxy    dyz    dz2    dxz  x2-y2    tot
    1  0.000  0.000  0.012  0.000  0.000  0.008  0.000  0.019  0.000  0.039
    2  0.000  0.000  0.233  0.000  0.000  0.000  0.000  0.000  0.000  0.233
    3  0.000  0.000  0.233  0.000  0.000  0.000  0.000  0.000  0.000  0.233
tot    0.000  0.000  0.478  0.000  0.000  0.008  0.000  0.019  0.000  0.505
 
band     6 # energy   10.57783913 # occ.  0.00000000
 
ion      s     py     pz     px    dxy    dyz    dz2    dxz  x2-y2    tot
    1  0.026  0.057  0.000  0.038  0.015  0.000  0.010  0.000  0.001  0.147
    2  0.035  0.026  0.000  0.037  0.000  0.000  0.000  0.000  0.000  0.097
    3  0.035  0.026  0.000  0.037  0.000  0.000  0.000  0.000  0.000  0.097
tot    0.095  0.109  0.000  0.112  0.015  0.000  0.010  0.000  0.001  0.342
 
band     7 # energy   11.88825782 # occ.  0.00000000
 
ion      s     py     pz     px    dxy    dyz    dz2    dxz  x2-y2    tot
    1  0.000  0.001  0.000  0.045  0.021  0.000  0.006  0.000  0.029  0.102
    2  0.010  0.077  0.000  0.045  0.000  0.000  0.000  0.000  0.000  0.133
    3  0.010  0.077  0.000  0.045  0.000  0.000  0.000  0.000  0.000  0.133
tot    0.021  0.155  0.000  0.136  0.021  0.000  0.006  0.000  0.029  0.368
 
band     8 # energy   13.75186297 # occ.  0.00000000
 
ion      s     py     pz     px    dxy    dyz    dz2    dxz  x2-y2    tot
    1  0.243  0.002  0.000  0.016  0.000  0.000  0.001  0.000  0.002  0.264
    2  0.058  0.030  0.000  0.080  0.000  0.000  0.000  0.000  0.000  0.168
    3  0.058  0.030  0.000  0.080  0.000  0.000  0.000  0.000  0.000  0.168
tot    0.359  0.062  0.000  0.176  0.000  0.000  0.001  0.000  0.002  0.600
 

 k-point    27 :   -0.45833333 0.20833333 0.00000000     weight = 0.00308642

band     1 # energy   -4.42768854 # occ.  2.00000000
 
ion      s     py     pz     px    dxy    dyz    dz2    dxz  x2-y2    tot
    1  0.034  0.011  0.000  0.005  0.000  0.000  0.001  0.000  0.000  0.052
    2  0.189  0.033  0.000  0.014  0.000  0.000  0.000  0.000  0.000  0.236
    3  0.189  0.033  0.000  0.014  0.000  0.000  0.000  0.000  0.000  0.236
tot    0.413  0.077  0.000  0.033  0.000  0.000  0.001  0.000  0.000  0.524
 
band     2 # energy    0.08004166 # occ.  2.00000000
 
ion      s     py     pz     px    dxy    dyz    dz2    dxz  x2-y2    tot
    1  0.003  0.002  0.000  0.021  0.002  0.000  0.000  0.000  0.004  0.031
    2  0.139  0.051  0.000  0.087  0.000  0.000  0.000  0.000  0.000  0.278
    3  0.139  0.051  0.000  0.087  0.000  0.000  0.000  0.000  0.000  0.278
tot    0.281  0.104  0.000  0.195  0.002  0.000  0.000  0.000  0.004  0.586
 
band     3 # energy    1.33657864 # occ.  2.00000000
 
ion      s     py     pz     px    dxy    dyz    dz2    dxz  x2-y2    tot
    1  0.028  0.018  0.000  0.001  0.000  0.000  0.004  0.000  0.000  0.052
    2  0.026  0.125  0.000  0.102  0.000  0.000  0.000  0.000  0.000  0.252
    3  0.026  0.125  0.000  0.102  0.000  0.000  0.000  0.000  0.000  0.252
tot    0.079  0.267  0.000  0.205  0.000  0.000  0.004  0.000  0.000  0.556
 
band     4 # energy    4.95913746 # occ.  2.00000013
 
ion      s     py     pz     px    dxy    dyz    dz2    dxz  x2-y2    tot
    1  0.000  0.000  0.027  0.000  0.000  0.017  0.000  0.008  0.000  0.051
    2  0.000  0.000  0.217  0.000  0.000  0.000  0.000  0.000  0.000  0.217
    3  0.000  0.000  0.217  0.000  0.000  0.000  0.000  0.000  0.000  0.217
tot    0.000  0.000  0.461  0.000  0.000  0.017  0.000  0.008  0.000  0.485
 
band     5 # energy    9.67367827 # occ.  0.00000000
 
ion      s     py     pz     px    dxy    dyz    dz2    dxz  x2-y2    tot
    1  0.061  0.051  0.000  0.022  0.007  0.000  0.019  0.000  0.001  0.161
    2  0.045  0.022  0.000  0.023  0.000  0.000  0.000  0.000  0.000  0.091
    3  0.045  0.022  0.000  0.023  0.000  0.000  0.000  0.000  0.000  0.091
tot    0.151  0.096  0.000  0.069  0.007  0.000  0.019  0.000  0.001  0.343
 
band     6 # energy    9.70270199 # occ.  0.00000000
 
ion      s     py     pz     px    dxy    dyz    dz2    dxz  x2-y2    tot
    1  0.000  0.000  0.001  0.000  0.000  0.006  0.000  0.023  0.000  0.029
    2  0.000  0.000  0.247  0.000  0.000  0.000  0.000  0.000  0.000  0.247
    3  0.000  0.000  0.247  0.000  0.000  0.000  0.000  0.000  0.000  0.247
tot    0.000  0.000  0.496  0.000  0.000  0.006  0.000  0.023  0.000  0.524
 
band     7 # energy   12.54117136 # occ.  0.00000000
 
ion      s     py     pz     px    dxy    dyz    dz2    dxz  x2-y2    tot
    1  0.010  0.003  0.000  0.017  0.022  0.000  0.002  0.000  0.036  0.089
    2  0.017  0.092  0.000  0.049  0.000  0.000  0.000  0.000  0.000  0.157
    3  0.017  0.092  0.000  0.049  0.000  0.000  0.000  0.000  0.000  0.157
tot    0.043  0.186  0.000  0.115  0.022  0.000  0.002  0.000  0.036  0.403
 
band     8 # energy   13.56528762 # occ.  0.00000000
 
ion      s     py     pz     px    dxy    dyz    dz2    dxz  x2-y2    tot
    1  0.172  0.000  0.000  0.010  0.000  0.000  0.007  0.000  0.010  0.199
    2  0.040  0.011  0.000  0.131  0.000  0.000  0.000  0.000  0.000  0.182
    3  0.040  0.011  0.000  0.131  0.000  0.000  0.000  0.000  0.000  0.182
tot    0.252  0.022  0.000  0.271  0.000  0.000  0.007  0.000  0.010  0.562
 

 k-point    28 :   -0.37500000 0.20833333 0.00000000     weight = 0.00308642

band     1 # energy   -5.30346296 # occ.  2.00000000
 
ion      s     py     pz     px    dxy    dyz    dz2    dxz  x2-y2    tot
    1  0.043  0.009  0.000  0.002  0.000  0.000  0.001  0.000  0.000  0.055
    2  0.197  0.026  0.000  0.006  0.000  0.000  0.000  0.000  0.000  0.229
    3  0.197  0.026  0.000  0.006  0.000  0.000  0.000  0.000  0.000  0.229
tot    0.437  0.061  0.000  0.015  0.000  0.000  0.001  0.000  0.000  0.514
 
band     2 # energy    1.16085401 # occ.  2.00000000
 
ion      s     py     pz     px    dxy    dyz    dz2    dxz  x2-y2    tot
    1  0.002  0.010  0.000  0.009  0.001  0.000  0.000  0.000  0.006  0.029
    2  0.117  0.142  0.000  0.026  0.000  0.000  0.000  0.000  0.000  0.285
    3  0.117  0.142  0.000  0.026  0.000  0.000  0.000  0.000  0.000  0.285
tot    0.236  0.295  0.000  0.062  0.001  0.000  0.000  0.000  0.006  0.599
 
band     3 # energy    2.36728380 # occ.  2.00000000
 
ion      s     py     pz     px    dxy    dyz    dz2    dxz  x2-y2    tot
    1  0.017  0.011  0.000  0.011  0.001  0.000  0.004  0.000  0.000  0.044
    2  0.018  0.047  0.000  0.201  0.000  0.000  0.000  0.000  0.000  0.266
    3  0.018  0.047  0.000  0.201  0.000  0.000  0.000  0.000  0.000  0.266
tot    0.053  0.105  0.000  0.414  0.001  0.000  0.004  0.000  0.000  0.576
 
band     4 # energy    4.14900326 # occ.  2.00000000
 
ion      s     py     pz     px    dxy    dyz    dz2    dxz  x2-y2    tot
    1  0.000  0.000  0.039  0.000  0.000  0.014  0.000  0.003  0.000  0.056
    2  0.000  0.000  0.212  0.000  0.000  0.000  0.000  0.000  0.000  0.212
    3  0.000  0.000  0.212  0.000  0.000  0.000  0.000  0.000  0.000  0.212
tot    0.000  0.000  0.464  0.000  0.000  0.014  0.000  0.003  0.000  0.481
 
band     5 # energy    8.84066084 # occ.  0.00000000
 
ion      s     py     pz     px    dxy    dyz    dz2    dxz  x2-y2    tot
    1  0.084  0.042  0.000  0.010  0.003  0.000  0.027  0.000  0.002  0.167
    2  0.052  0.020  0.000  0.014  0.000  0.000  0.000  0.000  0.000  0.086
    3  0.052  0.020  0.000  0.014  0.000  0.000  0.000  0.000  0.000  0.086
tot    0.188  0.083  0.000  0.038  0.003  0.000  0.027  0.000  0.002  0.340
 
band     6 # energy   10.97018680 # occ.  0.00000000
 
ion      s     py     pz     px    dxy    dyz    dz2    dxz  x2-y2    tot
    1  0.000  0.000  0.001  0.000  0.000  0.008  0.000  0.015  0.000  0.024
    2  0.000  0.000  0.260  0.000  0.000  0.000  0.000  0.000  0.000  0.260
    3  0.000  0.000  0.260  0.000  0.000  0.000  0.000  0.000  0.000  0.260
tot    0.000  0.000  0.520  0.000  0.000  0.008  0.000  0.015  0.000  0.543
 
band     7 # energy   12.48203945 # occ.  0.00000000
 
ion      s     py     pz     px    dxy    dyz    dz2    dxz  x2-y2    tot
    1  0.074  0.000  0.000  0.001  0.000  0.000  0.006  0.000  0.029  0.111
    2  0.064  0.020  0.000  0.102  0.000  0.000  0.000  0.000  0.000  0.185
    3  0.064  0.020  0.000  0.102  0.000  0.000  0.000  0.000  0.000  0.185
tot    0.201  0.040  0.000  0.205  0.000  0.000  0.006  0.000  0.029  0.482
 
band     8 # energy   13.27074732 # occ.  0.00000000
 
ion      s     py     pz     px    dxy    dyz    dz2    dxz  x2-y2    tot
    1  0.068  0.008  0.000  0.000  0.018  0.000  0.004  0.000  0.018  0.117
    2  0.034  0.097  0.000  0.051  0.000  0.000  0.000  0.000  0.000  0.182
    3  0.034  0.097  0.000  0.051  0.000  0.000  0.000  0.000  0.000  0.182
tot    0.136  0.203  0.000  0.103  0.018  0.000  0.004  0.000  0.018  0.482
 

 k-point    29 :   -0.29166667 0.20833333 0.00000000     weight = 0.00308642

band     1 # energy   -5.95751779 # occ.  2.00000000
 
ion      s     py     pz     px    dxy    dyz    dz2    dxz  x2-y2    tot
    1  0.050  0.007  0.000  0.001  0.000  0.000  0.000  0.000  0.000  0.058
    2  0.204  0.019  0.000  0.002  0.000  0.000  0.000  0.000  0.000  0.224
    3  0.204  0.019  0.000  0.002  0.000  0.000  0.000  0.000  0.000  0.224
tot    0.457  0.045  0.000  0.004  0.000  0.000  0.000  0.000  0.000  0.507
 
band     2 # energy    2.00674684 # occ.  2.00000000
 
ion      s     py     pz     px    dxy    dyz    dz2    dxz  x2-y2    tot
    1  0.005  0.016  0.000  0.002  0.000  0.000  0.001  0.000  0.007  0.031
    2  0.089  0.191  0.000  0.005  0.000  0.000  0.000  0.000  0.000  0.285
    3  0.089  0.191  0.000  0.005  0.000  0.000  0.000  0.000  0.000  0.285
tot    0.183  0.398  0.000  0.011  0.000  0.000  0.001  0.000  0.007  0.600
 
band     3 # energy    3.52570361 # occ.  2.00000000
 
ion      s     py     pz     px    dxy    dyz    dz2    dxz  x2-y2    tot
    1  0.000  0.000  0.048  0.000  0.000  0.010  0.000  0.001  0.000  0.059
    2  0.000  0.000  0.209  0.000  0.000  0.000  0.000  0.000  0.000  0.209
    3  0.000  0.000  0.209  0.000  0.000  0.000  0.000  0.000  0.000  0.209
tot    0.000  0.000  0.466  0.000  0.000  0.010  0.000  0.001  0.000  0.478
 
band     4 # energy    3.69532956 # occ.  2.00000000
 
ion      s     py     pz     px    dxy    dyz    dz2    dxz  x2-y2    tot
    1  0.004  0.004  0.000  0.016  0.003  0.000  0.002  0.000  0.000  0.029
    2  0.010  0.012  0.000  0.276  0.000  0.000  0.000  0.000  0.000  0.297
    3  0.010  0.012  0.000  0.276  0.000  0.000  0.000  0.000  0.000  0.297
tot    0.023  0.027  0.000  0.568  0.003  0.000  0.002  0.000  0.000  0.623
 
band     5 # energy    8.15736557 # occ.  0.00000000
 
ion      s     py     pz     px    dxy    dyz    dz2    dxz  x2-y2    tot
    1  0.093  0.035  0.000  0.002  0.001  0.000  0.034  0.000  0.003  0.166
    2  0.054  0.021  0.000  0.007  0.000  0.000  0.000  0.000  0.000  0.081
    3  0.054  0.021  0.000  0.007  0.000  0.000  0.000  0.000  0.000  0.081
tot    0.200  0.076  0.000  0.016  0.001  0.000  0.034  0.000  0.003  0.329
 
band     6 # energy   11.41100685 # occ.  0.00000000
 
ion      s     py     pz     px    dxy    dyz    dz2    dxz  x2-y2    tot
    1  0.087  0.004  0.000  0.000  0.000  0.000  0.006  0.000  0.019  0.117
    2  0.105  0.036  0.000  0.036  0.000  0.000  0.000  0.000  0.000  0.178
    3  0.105  0.036  0.000  0.036  0.000  0.000  0.000  0.000  0.000  0.178
tot    0.298  0.076  0.000  0.073  0.000  0.000  0.006  0.000  0.019  0.472
 
band     7 # energy   12.14552662 # occ.  0.00000000
 
ion      s     py     pz     px    dxy    dyz    dz2    dxz  x2-y2    tot
    1  0.000  0.000  0.005  0.000  0.000  0.011  0.000  0.005  0.000  0.021
    2  0.000  0.000  0.272  0.000  0.000  0.000  0.000  0.000  0.000  0.272
    3  0.000  0.000  0.272  0.000  0.000  0.000  0.000  0.000  0.000  0.272
tot    0.000  0.000  0.550  0.000  0.000  0.011  0.000  0.005  0.000  0.565
 
band     8 # energy   13.98386550 # occ.  0.00000000
 
ion      s     py     pz     px    dxy    dyz    dz2    dxz  x2-y2    tot
    1  0.041  0.013  0.000  0.006  0.012  0.000  0.002  0.000  0.021  0.094
    2  0.034  0.096  0.000  0.067  0.000  0.000  0.000  0.000  0.000  0.196
    3  0.034  0.096  0.000  0.067  0.000  0.000  0.000  0.000  0.000  0.196
tot    0.109  0.204  0.000  0.139  0.012  0.000  0.002  0.000  0.021  0.487
 

 k-point    30 :   -0.20833333 0.20833333 0.00000000     weight = 0.00154321

band     1 # energy   -6.37813053 # occ.  2.00000000
 
ion      s     py     pz     px    dxy    dyz    dz2    dxz  x2-y2    tot
    1  0.054  0.005  0.000  0.000  0.000  0.000  0.000  0.000  0.000  0.059
    2  0.208  0.013  0.000  0.000  0.000  0.000  0.000  0.000  0.000  0.221
    3  0.208  0.013  0.000  0.000  0.000  0.000  0.000  0.000  0.000  0.221
tot    0.470  0.032  0.000  0.000  0.000  0.000  0.000  0.000  0.000  0.502
 
band     2 # energy    2.87125399 # occ.  2.00000000
 
ion      s     py     pz     px    dxy    dyz    dz2    dxz  x2-y2    tot
    1  0.004  0.016  0.000  0.000  0.000  0.000  0.001  0.000  0.008  0.028
    2  0.071  0.220  0.000  0.000  0.000  0.000  0.000  0.000  0.000  0.291
    3  0.071  0.220  0.000  0.000  0.000  0.000  0.000  0.000  0.000  0.291
tot    0.145  0.456  0.000  0.000  0.000  0.000  0.001  0.000  0.008  0.610
 
band     3 # energy    3.12124246 # occ.  2.00000000
 
ion      s     py     pz     px    dxy    dyz    dz2    dxz  x2-y2    tot
    1  0.000  0.000  0.054  0.000  0.000  0.007  0.000  0.000  0.000  0.061
    2  0.000  0.000  0.208  0.000  0.000  0.000  0.000  0.000  0.000  0.208
    3  0.000  0.000  0.208  0.000  0.000  0.000  0.000  0.000  0.000  0.208
tot    0.000  0.000  0.469  0.000  0.000  0.007  0.000  0.000  0.000  0.476
 
band     4 # energy    4.51417221 # occ.  2.00000000
 
ion      s     py     pz     px    dxy    dyz    dz2    dxz  x2-y2    tot
    1  0.000  0.000  0.000  0.016  0.005  0.000  0.000  0.000  0.000  0.021
    2  0.000  0.000  0.000  0.318  0.000  0.000  0.000  0.000  0.000  0.318
    3  0.000  0.000  0.000  0.318  0.000  0.000  0.000  0.000  0.000  0.318
tot    0.000  0.000  0.000  0.651  0.005  0.000  0.000  0.000  0.000  0.656
 
band     5 # energy    7.72217447 # occ. -0.00000000
 
ion      s     py     pz     px    dxy    dyz    dz2    dxz  x2-y2    tot
    1  0.101  0.027  0.000  0.000  0.000  0.000  0.038  0.000  0.002  0.169
    2  0.057  0.019  0.000  0.000  0.000  0.000  0.000  0.000  0.000  0.076
    3  0.057  0.019  0.000  0.000  0.000  0.000  0.000  0.000  0.000  0.076
tot    0.215  0.066  0.000  0.000  0.000  0.000  0.038  0.000  0.002  0.321
 
band     6 # energy   11.08115734 # occ.  0.00000000
 
ion      s     py     pz     px    dxy    dyz    dz2    dxz  x2-y2    tot
    1  0.083  0.012  0.000  0.000  0.000  0.000  0.005  0.000  0.015  0.116
    2  0.112  0.059  0.000  0.000  0.000  0.000  0.000  0.000  0.000  0.171
    3  0.112  0.059  0.000  0.000  0.000  0.000  0.000  0.000  0.000  0.171
tot    0.308  0.130  0.000  0.000  0.000  0.000  0.005  0.000  0.015  0.458
 
band     7 # energy   13.10781422 # occ.  0.00000000
 
ion      s     py     pz     px    dxy    dyz    dz2    dxz  x2-y2    tot
    1  0.000  0.000  0.005  0.000  0.000  0.011  0.000  0.000  0.000  0.016
    2  0.000  0.000  0.290  0.000  0.000  0.000  0.000  0.000  0.000  0.290
    3  0.000  0.000  0.290  0.000  0.000  0.000  0.000  0.000  0.000  0.290
tot    0.000  0.000  0.584  0.000  0.000  0.011  0.000  0.000  0.000  0.595
 
band     8 # energy   14.57114148 # occ.  0.00000000
 
ion      s     py     pz     px    dxy    dyz    dz2    dxz  x2-y2    tot
    1  0.000  0.000  0.000  0.064  0.009  0.000  0.000  0.000  0.000  0.073
    2  0.000  0.000  0.000  0.212  0.000  0.000  0.000  0.000  0.000  0.212
    3  0.000  0.000  0.000  0.212  0.000  0.000  0.000  0.000  0.000  0.212
tot    0.000  0.000  0.000  0.488  0.009  0.000  0.000  0.000  0.000  0.497
 

 k-point    31 :    0.29166667 0.29166667 0.00000000     weight = 0.00154321

band     1 # energy   -2.87680734 # occ.  2.00000000
 
ion      s     py     pz     px    dxy    dyz    dz2    dxz  x2-y2    tot
    1  0.016  0.000  0.000  0.025  0.000  0.000  0.001  0.000  0.001  0.042
    2  0.184  0.004  0.000  0.065  0.000  0.000  0.000  0.000  0.000  0.253
    3  0.184  0.004  0.000  0.065  0.000  0.000  0.000  0.000  0.000  0.253
tot    0.383  0.008  0.000  0.155  0.000  0.000  0.001  0.000  0.001  0.548
 
band     2 # energy   -1.20065412 # occ.  2.00000000
 
ion      s     py     pz     px    dxy    dyz    dz2    dxz  x2-y2    tot
    1  0.000  0.028  0.000  0.000  0.004  0.000  0.000  0.000  0.000  0.032
    2  0.174  0.038  0.000  0.060  0.000  0.000  0.000  0.000  0.000  0.272
    3  0.174  0.038  0.000  0.060  0.000  0.000  0.000  0.000  0.000  0.272
tot    0.348  0.104  0.000  0.120  0.004  0.000  0.000  0.000  0.000  0.576
 
band     3 # energy   -0.06306934 # occ.  2.00000000
 
ion      s     py     pz     px    dxy    dyz    dz2    dxz  x2-y2    tot
    1  0.054  0.000  0.000  0.008  0.000  0.000  0.005  0.000  0.000  0.066
    2  0.018  0.151  0.000  0.060  0.000  0.000  0.000  0.000  0.000  0.229
    3  0.018  0.151  0.000  0.060  0.000  0.000  0.000  0.000  0.000  0.229
tot    0.090  0.303  0.000  0.127  0.000  0.000  0.005  0.000  0.000  0.525
 
band     4 # energy    6.31554421 # occ. -0.00000000
 
ion      s     py     pz     px    dxy    dyz    dz2    dxz  x2-y2    tot
    1  0.000  0.000  0.007  0.000  0.000  0.000  0.000  0.035  0.000  0.042
    2  0.000  0.000  0.227  0.000  0.000  0.000  0.000  0.000  0.000  0.227
    3  0.000  0.000  0.227  0.000  0.000  0.000  0.000  0.000  0.000  0.227
tot    0.000  0.000  0.462  0.000  0.000  0.000  0.000  0.035  0.000  0.497
 
band     5 # energy    8.06786623 # occ. -0.00000000
 
ion      s     py     pz     px    dxy    dyz    dz2    dxz  x2-y2    tot
    1  0.000  0.000  0.000  0.000  0.000  0.034  0.000  0.000  0.000  0.034
    2  0.000  0.000  0.237  0.000  0.000  0.000  0.000  0.000  0.000  0.237
    3  0.000  0.000  0.237  0.000  0.000  0.000  0.000  0.000  0.000  0.237
tot    0.000  0.000  0.474  0.000  0.000  0.034  0.000  0.000  0.000  0.509
 
band     6 # energy   10.97747230 # occ.  0.00000000
 
ion      s     py     pz     px    dxy    dyz    dz2    dxz  x2-y2    tot
    1  0.017  0.000  0.000  0.104  0.000  0.000  0.005  0.000  0.019  0.146
    2  0.031  0.030  0.000  0.039  0.000  0.000  0.000  0.000  0.000  0.101
    3  0.031  0.030  0.000  0.039  0.000  0.000  0.000  0.000  0.000  0.101
tot    0.079  0.061  0.000  0.183  0.000  0.000  0.005  0.000  0.019  0.347
 
band     7 # energy   12.02628762 # occ.  0.00000000
 
ion      s     py     pz     px    dxy    dyz    dz2    dxz  x2-y2    tot
    1  0.000  0.073  0.000  0.000  0.047  0.000  0.000  0.000  0.000  0.120
    2  0.004  0.051  0.000  0.066  0.000  0.000  0.000  0.000  0.000  0.121
    3  0.004  0.051  0.000  0.066  0.000  0.000  0.000  0.000  0.000  0.121
tot    0.007  0.175  0.000  0.132  0.047  0.000  0.000  0.000  0.000  0.362
 
band     8 # energy   14.39828640 # occ.  0.00000000
 
ion      s     py     pz     px    dxy    dyz    dz2    dxz  x2-y2    tot
    1  0.301  0.000  0.000  0.001  0.000  0.000  0.001  0.000  0.002  0.305
    2  0.013  0.127  0.000  0.026  0.000  0.000  0.000  0.000  0.000  0.166
    3  0.013  0.127  0.000  0.026  0.000  0.000  0.000  0.000  0.000  0.166
tot    0.327  0.255  0.000  0.053  0.000  0.000  0.001  0.000  0.002  0.637
 

 k-point    32 :    0.37500000 0.29166667 0.00000000     weight = 0.00308642

band     1 # energy   -2.35465326 # occ.  2.00000000
 
ion      s     py     pz     px    dxy    dyz    dz2    dxz  x2-y2    tot
    1  0.005  0.017  0.000  0.012  0.001  0.000  0.000  0.000  0.001  0.037
    2  0.190  0.047  0.000  0.024  0.000  0.000  0.000  0.000  0.000  0.261
    3  0.190  0.047  0.000  0.024  0.000  0.000  0.000  0.000  0.000  0.261
tot    0.385  0.111  0.000  0.061  0.001  0.000  0.000  0.000  0.001  0.559
 
band     2 # energy   -1.63349290 # occ.  2.00000000
 
ion      s     py     pz     px    dxy    dyz    dz2    dxz  x2-y2    tot
    1  0.006  0.008  0.000  0.018  0.001  0.000  0.000  0.000  0.002  0.036
    2  0.171  0.024  0.000  0.070  0.000  0.000  0.000  0.000  0.000  0.265
    3  0.171  0.024  0.000  0.070  0.000  0.000  0.000  0.000  0.000  0.265
tot    0.349  0.056  0.000  0.158  0.001  0.000  0.000  0.000  0.002  0.566
 
band     3 # energy   -0.29561771 # occ.  2.00000000
 
ion      s     py     pz     px    dxy    dyz    dz2    dxz  x2-y2    tot
    1  0.058  0.005  0.000  0.000  0.000  0.000  0.005  0.000  0.000  0.068
    2  0.018  0.117  0.000  0.092  0.000  0.000  0.000  0.000  0.000  0.226
    3  0.018  0.117  0.000  0.092  0.000  0.000  0.000  0.000  0.000  0.226
tot    0.093  0.239  0.000  0.184  0.000  0.000  0.005  0.000  0.000  0.521
 
band     4 # energy    6.72408084 # occ. -0.00000000
 
ion      s     py     pz     px    dxy    dyz    dz2    dxz  x2-y2    tot
    1  0.000  0.000  0.001  0.000  0.000  0.020  0.000  0.018  0.000  0.039
    2  0.000  0.000  0.231  0.000  0.000  0.000  0.000  0.000  0.000  0.231
    3  0.000  0.000  0.231  0.000  0.000  0.000  0.000  0.000  0.000  0.231
tot    0.000  0.000  0.463  0.000  0.000  0.020  0.000  0.018  0.000  0.501
 
band     5 # energy    7.63831653 # occ. -0.00000000
 
ion      s     py     pz     px    dxy    dyz    dz2    dxz  x2-y2    tot
    1  0.000  0.000  0.001  0.000  0.000  0.016  0.000  0.019  0.000  0.036
    2  0.000  0.000  0.234  0.000  0.000  0.000  0.000  0.000  0.000  0.234
    3  0.000  0.000  0.234  0.000  0.000  0.000  0.000  0.000  0.000  0.234
tot    0.000  0.000  0.470  0.000  0.000  0.016  0.000  0.019  0.000  0.505
 
band     6 # energy   11.33127068 # occ.  0.00000000
 
ion      s     py     pz     px    dxy    dyz    dz2    dxz  x2-y2    tot
    1  0.004  0.064  0.000  0.046  0.016  0.000  0.001  0.000  0.009  0.139
    2  0.026  0.039  0.000  0.041  0.000  0.000  0.000  0.000  0.000  0.105
    3  0.026  0.039  0.000  0.041  0.000  0.000  0.000  0.000  0.000  0.105
tot    0.055  0.141  0.000  0.127  0.016  0.000  0.001  0.000  0.009  0.349
 
band     7 # energy   11.79228861 # occ.  0.00000000
 
ion      s     py     pz     px    dxy    dyz    dz2    dxz  x2-y2    tot
    1  0.002  0.030  0.000  0.054  0.017  0.000  0.001  0.000  0.024  0.127
    2  0.009  0.054  0.000  0.052  0.000  0.000  0.000  0.000  0.000  0.115
    3  0.009  0.054  0.000  0.052  0.000  0.000  0.000  0.000  0.000  0.115
tot    0.019  0.138  0.000  0.157  0.017  0.000  0.001  0.000  0.024  0.356
 
band     8 # energy   14.49934248 # occ.  0.00000000
 
ion      s     py     pz     px    dxy    dyz    dz2    dxz  x2-y2    tot
    1  0.333  0.000  0.000  0.000  0.001  0.000  0.000  0.000  0.000  0.334
    2  0.008  0.073  0.000  0.074  0.000  0.000  0.000  0.000  0.000  0.155
    3  0.008  0.073  0.000  0.074  0.000  0.000  0.000  0.000  0.000  0.155
tot    0.349  0.147  0.000  0.148  0.001  0.000  0.000  0.000  0.000  0.645
 

 k-point    33 :    0.45833333 0.29166667 0.00000000     weight = 0.00308642

band     1 # energy   -3.41314437 # occ.  2.00000000
 
ion      s     py     pz     px    dxy    dyz    dz2    dxz  x2-y2    tot
    1  0.023  0.017  0.000  0.004  0.001  0.000  0.001  0.000  0.000  0.046
    2  0.183  0.048  0.000  0.014  0.000  0.000  0.000  0.000  0.000  0.246
    3  0.183  0.048  0.000  0.014  0.000  0.000  0.000  0.000  0.000  0.246
tot    0.389  0.113  0.000  0.033  0.001  0.000  0.001  0.000  0.000  0.537
 
band     2 # energy   -0.86368837 # occ.  2.00000000
 
ion      s     py     pz     px    dxy    dyz    dz2    dxz  x2-y2    tot
    1  0.004  0.010  0.000  0.015  0.001  0.000  0.000  0.000  0.003  0.034
    2  0.157  0.093  0.000  0.020  0.000  0.000  0.000  0.000  0.000  0.271
    3  0.157  0.093  0.000  0.020  0.000  0.000  0.000  0.000  0.000  0.271
tot    0.319  0.197  0.000  0.054  0.001  0.000  0.000  0.000  0.003  0.575
 
band     3 # energy    0.41694738 # occ.  2.00000000
 
ion      s     py     pz     px    dxy    dyz    dz2    dxz  x2-y2    tot
    1  0.041  0.005  0.000  0.009  0.000  0.000  0.004  0.000  0.000  0.059
    2  0.029  0.046  0.000  0.166  0.000  0.000  0.000  0.000  0.000  0.240
    3  0.029  0.046  0.000  0.166  0.000  0.000  0.000  0.000  0.000  0.240
tot    0.098  0.096  0.000  0.340  0.000  0.000  0.004  0.000  0.000  0.539
 
band     4 # energy    5.85324142 # occ. -0.00000000
 
ion      s     py     pz     px    dxy    dyz    dz2    dxz  x2-y2    tot
    1  0.000  0.000  0.013  0.000  0.000  0.026  0.000  0.006  0.000  0.045
    2  0.000  0.000  0.224  0.000  0.000  0.000  0.000  0.000  0.000  0.224
    3  0.000  0.000  0.224  0.000  0.000  0.000  0.000  0.000  0.000  0.224
tot    0.000  0.000  0.460  0.000  0.000  0.026  0.000  0.006  0.000  0.492
 
band     5 # energy    8.57054342 # occ.  0.00000000
 
ion      s     py     pz     px    dxy    dyz    dz2    dxz  x2-y2    tot
    1  0.000  0.000  0.001  0.000  0.000  0.008  0.000  0.024  0.000  0.033
    2  0.000  0.000  0.239  0.000  0.000  0.000  0.000  0.000  0.000  0.239
    3  0.000  0.000  0.239  0.000  0.000  0.000  0.000  0.000  0.000  0.239
tot    0.000  0.000  0.479  0.000  0.000  0.008  0.000  0.024  0.000  0.511
 
band     6 # energy   10.56053278 # occ.  0.00000000
 
ion      s     py     pz     px    dxy    dyz    dz2    dxz  x2-y2    tot
    1  0.032  0.076  0.000  0.019  0.010  0.000  0.010  0.000  0.005  0.152
    2  0.036  0.035  0.000  0.025  0.000  0.000  0.000  0.000  0.000  0.097
    3  0.036  0.035  0.000  0.025  0.000  0.000  0.000  0.000  0.000  0.097
tot    0.104  0.146  0.000  0.070  0.010  0.000  0.010  0.000  0.005  0.345
 
band     7 # energy   12.20414524 # occ.  0.00000000
 
ion      s     py     pz     px    dxy    dyz    dz2    dxz  x2-y2    tot
    1  0.000  0.019  0.000  0.036  0.010  0.000  0.001  0.000  0.044  0.110
    2  0.001  0.064  0.000  0.064  0.000  0.000  0.000  0.000  0.000  0.130
    3  0.001  0.064  0.000  0.064  0.000  0.000  0.000  0.000  0.000  0.130
tot    0.003  0.148  0.000  0.164  0.010  0.000  0.001  0.000  0.044  0.369
 
band     8 # energy   14.11171630 # occ.  0.00000000
 
ion      s     py     pz     px    dxy    dyz    dz2    dxz  x2-y2    tot
    1  0.250  0.004  0.000  0.001  0.003  0.000  0.003  0.000  0.000  0.261
    2  0.030  0.043  0.000  0.105  0.000  0.000  0.000  0.000  0.000  0.178
    3  0.030  0.043  0.000  0.105  0.000  0.000  0.000  0.000  0.000  0.178
tot    0.311  0.090  0.000  0.210  0.003  0.000  0.003  0.000  0.000  0.616
 

 k-point    34 :   -0.45833333 0.29166667 0.00000000     weight = 0.00308642

band     1 # energy   -4.37025271 # occ.  2.00000000
 
ion      s     py     pz     px    dxy    dyz    dz2    dxz  x2-y2    tot
    1  0.033  0.015  0.000  0.002  0.000  0.000  0.001  0.000  0.000  0.051
    2  0.189  0.041  0.000  0.006  0.000  0.000  0.000  0.000  0.000  0.237
    3  0.189  0.041  0.000  0.006  0.000  0.000  0.000  0.000  0.000  0.237
tot    0.412  0.097  0.000  0.015  0.000  0.000  0.001  0.000  0.000  0.524
 
band     2 # energy   -0.32230158 # occ.  2.00000000
 
ion      s     py     pz     px    dxy    dyz    dz2    dxz  x2-y2    tot
    1  0.012  0.016  0.000  0.005  0.001  0.000  0.001  0.000  0.004  0.038
    2  0.128  0.133  0.000  0.005  0.000  0.000  0.000  0.000  0.000  0.266
    3  0.128  0.133  0.000  0.005  0.000  0.000  0.000  0.000  0.000  0.266
tot    0.268  0.281  0.000  0.016  0.001  0.000  0.001  0.000  0.004  0.570
 
band     3 # energy    1.77079946 # occ.  2.00000000
 
ion      s     py     pz     px    dxy    dyz    dz2    dxz  x2-y2    tot
    1  0.018  0.003  0.000  0.018  0.000  0.000  0.003  0.000  0.001  0.043
    2  0.033  0.015  0.000  0.218  0.000  0.000  0.000  0.000  0.000  0.267
    3  0.033  0.015  0.000  0.218  0.000  0.000  0.000  0.000  0.000  0.267
tot    0.085  0.033  0.000  0.454  0.000  0.000  0.003  0.000  0.001  0.577
 
band     4 # energy    4.99530011 # occ.  2.00000197
 
ion      s     py     pz     px    dxy    dyz    dz2    dxz  x2-y2    tot
    1  0.000  0.000  0.025  0.000  0.000  0.023  0.000  0.003  0.000  0.051
    2  0.000  0.000  0.218  0.000  0.000  0.000  0.000  0.000  0.000  0.218
    3  0.000  0.000  0.218  0.000  0.000  0.000  0.000  0.000  0.000  0.218
tot    0.000  0.000  0.460  0.000  0.000  0.023  0.000  0.003  0.000  0.486
 
band     5 # energy    9.58511551 # occ.  0.00000000
 
ion      s     py     pz     px    dxy    dyz    dz2    dxz  x2-y2    tot
    1  0.000  0.000  0.010  0.000  0.000  0.010  0.000  0.015  0.000  0.035
    2  0.000  0.000  0.241  0.000  0.000  0.000  0.000  0.000  0.000  0.241
    3  0.000  0.000  0.241  0.000  0.000  0.000  0.000  0.000  0.000  0.241
tot    0.000  0.000  0.492  0.000  0.000  0.010  0.000  0.015  0.000  0.517
 
band     6 # energy    9.68762914 # occ.  0.00000000
 
ion      s     py     pz     px    dxy    dyz    dz2    dxz  x2-y2    tot
    1  0.052  0.065  0.000  0.008  0.003  0.000  0.020  0.000  0.007  0.155
    2  0.041  0.033  0.000  0.017  0.000  0.000  0.000  0.000  0.000  0.091
    3  0.041  0.033  0.000  0.017  0.000  0.000  0.000  0.000  0.000  0.091
tot    0.135  0.130  0.000  0.042  0.003  0.000  0.020  0.000  0.007  0.337
 
band     7 # energy   11.94518608 # occ.  0.00000000
 
ion      s     py     pz     px    dxy    dyz    dz2    dxz  x2-y2    tot
    1  0.035  0.011  0.000  0.002  0.002  0.000  0.006  0.000  0.041  0.097
    2  0.052  0.027  0.000  0.086  0.000  0.000  0.000  0.000  0.000  0.165
    3  0.052  0.027  0.000  0.086  0.000  0.000  0.000  0.000  0.000  0.165
tot    0.138  0.065  0.000  0.174  0.002  0.000  0.006  0.000  0.041  0.426
 
band     8 # energy   13.61115103 # occ.  0.00000000
 
ion      s     py     pz     px    dxy    dyz    dz2    dxz  x2-y2    tot
    1  0.164  0.027  0.000  0.010  0.008  0.000  0.001  0.000  0.011  0.221
    2  0.033  0.089  0.000  0.031  0.000  0.000  0.000  0.000  0.000  0.153
    3  0.033  0.089  0.000  0.031  0.000  0.000  0.000  0.000  0.000  0.153
tot    0.229  0.205  0.000  0.073  0.008  0.000  0.001  0.000  0.011  0.527
 

 k-point    35 :   -0.37500000 0.29166667 0.00000000     weight = 0.00308642

band     1 # energy   -5.12633780 # occ.  2.00000000
 
ion      s     py     pz     px    dxy    dyz    dz2    dxz  x2-y2    tot
    1  0.041  0.012  0.000  0.001  0.000  0.000  0.001  0.000  0.000  0.055
    2  0.196  0.033  0.000  0.002  0.000  0.000  0.000  0.000  0.000  0.231
    3  0.196  0.033  0.000  0.002  0.000  0.000  0.000  0.000  0.000  0.231
tot    0.433  0.079  0.000  0.004  0.000  0.000  0.001  0.000  0.000  0.516
 
band     2 # energy    0.32199340 # occ.  2.00000000
 
ion      s     py     pz     px    dxy    dyz    dz2    dxz  x2-y2    tot
    1  0.013  0.018  0.000  0.001  0.000  0.000  0.001  0.000  0.005  0.039
    2  0.111  0.154  0.000  0.001  0.000  0.000  0.000  0.000  0.000  0.267
    3  0.111  0.154  0.000  0.001  0.000  0.000  0.000  0.000  0.000  0.267
tot    0.236  0.326  0.000  0.004  0.000  0.000  0.001  0.000  0.005  0.572
 
band     3 # energy    3.13079568 # occ.  2.00000000
 
ion      s     py     pz     px    dxy    dyz    dz2    dxz  x2-y2    tot
    1  0.005  0.001  0.000  0.021  0.001  0.000  0.001  0.000  0.001  0.030
    2  0.014  0.005  0.000  0.275  0.000  0.000  0.000  0.000  0.000  0.295
    3  0.014  0.005  0.000  0.275  0.000  0.000  0.000  0.000  0.000  0.295
tot    0.033  0.012  0.000  0.571  0.001  0.000  0.001  0.000  0.001  0.620
 
band     4 # energy    4.30076958 # occ.  2.00000000
 
ion      s     py     pz     px    dxy    dyz    dz2    dxz  x2-y2    tot
    1  0.000  0.000  0.036  0.000  0.000  0.019  0.000  0.001  0.000  0.055
    2  0.000  0.000  0.213  0.000  0.000  0.000  0.000  0.000  0.000  0.213
    3  0.000  0.000  0.213  0.000  0.000  0.000  0.000  0.000  0.000  0.213
tot    0.000  0.000  0.462  0.000  0.000  0.019  0.000  0.001  0.000  0.482
 
band     5 # energy    8.87545143 # occ.  0.00000000
 
ion      s     py     pz     px    dxy    dyz    dz2    dxz  x2-y2    tot
    1  0.054  0.054  0.000  0.002  0.001  0.000  0.030  0.000  0.009  0.149
    2  0.041  0.034  0.000  0.009  0.000  0.000  0.000  0.000  0.000  0.085
    3  0.041  0.034  0.000  0.009  0.000  0.000  0.000  0.000  0.000  0.085
tot    0.136  0.122  0.000  0.020  0.001  0.000  0.030  0.000  0.009  0.318
 
band     6 # energy   10.55630193 # occ.  0.00000000
 
ion      s     py     pz     px    dxy    dyz    dz2    dxz  x2-y2    tot
    1  0.000  0.000  0.018  0.000  0.000  0.014  0.000  0.004  0.000  0.037
    2  0.000  0.000  0.243  0.000  0.000  0.000  0.000  0.000  0.000  0.243
    3  0.000  0.000  0.243  0.000  0.000  0.000  0.000  0.000  0.000  0.243
tot    0.000  0.000  0.505  0.000  0.000  0.014  0.000  0.004  0.000  0.523
 
band     7 # energy   10.99820092 # occ.  0.00000000
 
ion      s     py     pz     px    dxy    dyz    dz2    dxz  x2-y2    tot
    1  0.093  0.003  0.000  0.000  0.000  0.000  0.005  0.000  0.024  0.125
    2  0.120  0.014  0.000  0.033  0.000  0.000  0.000  0.000  0.000  0.167
    3  0.120  0.014  0.000  0.033  0.000  0.000  0.000  0.000  0.000  0.167
tot    0.333  0.031  0.000  0.066  0.000  0.000  0.005  0.000  0.024  0.458
 
band     8 # energy   14.00551768 # occ.  0.00000000
 
ion      s     py     pz     px    dxy    dyz    dz2    dxz  x2-y2    tot
    1  0.108  0.051  0.000  0.002  0.005  0.000  0.000  0.000  0.030  0.196
    2  0.009  0.120  0.000  0.012  0.000  0.000  0.000  0.000  0.000  0.141
    3  0.009  0.120  0.000  0.012  0.000  0.000  0.000  0.000  0.000  0.141
tot    0.127  0.290  0.000  0.025  0.005  0.000  0.000  0.000  0.030  0.478
 

 k-point    36 :   -0.29166667 0.29166667 0.00000000     weight = 0.00154321

band     1 # energy   -5.65895170 # occ.  2.00000000
 
ion      s     py     pz     px    dxy    dyz    dz2    dxz  x2-y2    tot
    1  0.047  0.009  0.000  0.000  0.000  0.000  0.000  0.000  0.000  0.057
    2  0.201  0.026  0.000  0.000  0.000  0.000  0.000  0.000  0.000  0.227
    3  0.201  0.026  0.000  0.000  0.000  0.000  0.000  0.000  0.000  0.227
tot    0.448  0.061  0.000  0.000  0.000  0.000  0.000  0.000  0.000  0.510
 
band     2 # energy    1.12328735 # occ.  2.00000000
 
ion      s     py     pz     px    dxy    dyz    dz2    dxz  x2-y2    tot
    1  0.010  0.019  0.000  0.000  0.000  0.000  0.002  0.000  0.006  0.036
    2  0.098  0.174  0.000  0.000  0.000  0.000  0.000  0.000  0.000  0.272
    3  0.098  0.174  0.000  0.000  0.000  0.000  0.000  0.000  0.000  0.272
tot    0.206  0.367  0.000  0.000  0.000  0.000  0.002  0.000  0.006  0.581
 
band     3 # energy    3.80523691 # occ.  2.00000000
 
ion      s     py     pz     px    dxy    dyz    dz2    dxz  x2-y2    tot
    1  0.000  0.000  0.044  0.000  0.000  0.014  0.000  0.000  0.000  0.058
    2  0.000  0.000  0.211  0.000  0.000  0.000  0.000  0.000  0.000  0.211
    3  0.000  0.000  0.211  0.000  0.000  0.000  0.000  0.000  0.000  0.211
tot    0.000  0.000  0.465  0.000  0.000  0.014  0.000  0.000  0.000  0.479
 
band     4 # energy    3.90674596 # occ.  2.00000000
 
ion      s     py     pz     px    dxy    dyz    dz2    dxz  x2-y2    tot
    1  0.000  0.000  0.000  0.020  0.003  0.000  0.000  0.000  0.000  0.023
    2  0.000  0.000  0.000  0.314  0.000  0.000  0.000  0.000  0.000  0.314
    3  0.000  0.000  0.000  0.314  0.000  0.000  0.000  0.000  0.000  0.314
tot    0.000  0.000  0.000  0.647  0.003  0.000  0.000  0.000  0.000  0.650
 
band     5 # energy    8.33021758 # occ.  0.00000000
 
ion      s     py     pz     px    dxy    dyz    dz2    dxz  x2-y2    tot
    1  0.062  0.046  0.000  0.000  0.000  0.000  0.035  0.000  0.007  0.151
    2  0.044  0.033  0.000  0.000  0.000  0.000  0.000  0.000  0.000  0.078
    3  0.044  0.033  0.000  0.000  0.000  0.000  0.000  0.000  0.000  0.078
tot    0.151  0.113  0.000  0.000  0.000  0.000  0.035  0.000  0.007  0.307
 
band     6 # energy   10.64074006 # occ.  0.00000000
 
ion      s     py     pz     px    dxy    dyz    dz2    dxz  x2-y2    tot
    1  0.109  0.000  0.000  0.000  0.000  0.000  0.004  0.000  0.020  0.132
    2  0.141  0.022  0.000  0.000  0.000  0.000  0.000  0.000  0.000  0.163
    3  0.141  0.022  0.000  0.000  0.000  0.000  0.000  0.000  0.000  0.163
tot    0.391  0.043  0.000  0.000  0.000  0.000  0.004  0.000  0.020  0.458
 
band     7 # energy   11.45471775 # occ.  0.00000000
 
ion      s     py     pz     px    dxy    dyz    dz2    dxz  x2-y2    tot
    1  0.000  0.000  0.017  0.000  0.000  0.016  0.000  0.000  0.000  0.032
    2  0.000  0.000  0.253  0.000  0.000  0.000  0.000  0.000  0.000  0.253
    3  0.000  0.000  0.253  0.000  0.000  0.000  0.000  0.000  0.000  0.253
tot    0.000  0.000  0.524  0.000  0.000  0.016  0.000  0.000  0.000  0.539
 
band     8 # energy   14.54812813 # occ.  0.00000000
 
ion      s     py     pz     px    dxy    dyz    dz2    dxz  x2-y2    tot
    1  0.079  0.060  0.000  0.000  0.000  0.000  0.000  0.000  0.038  0.176
    2  0.004  0.144  0.000  0.000  0.000  0.000  0.000  0.000  0.000  0.148
    3  0.004  0.144  0.000  0.000  0.000  0.000  0.000  0.000  0.000  0.148
tot    0.087  0.348  0.000  0.000  0.000  0.000  0.000  0.000  0.038  0.473
 

 k-point    37 :    0.37500000 0.37500000 0.00000000     weight = 0.00154321

band     1 # energy   -2.47574958 # occ.  2.00000000
 
ion      s     py     pz     px    dxy    dyz    dz2    dxz  x2-y2    tot
    1  0.000  0.033  0.000  0.000  0.002  0.000  0.000  0.000  0.000  0.034
    2  0.203  0.039  0.000  0.022  0.000  0.000  0.000  0.000  0.000  0.263
    3  0.203  0.039  0.000  0.022  0.000  0.000  0.000  0.000  0.000  0.263
tot    0.405  0.111  0.000  0.044  0.002  0.000  0.000  0.000  0.000  0.561
 
band     2 # energy   -1.85807349 # occ.  2.00000000
 
ion      s     py     pz     px    dxy    dyz    dz2    dxz  x2-y2    tot
    1  0.029  0.000  0.000  0.015  0.000  0.000  0.001  0.000  0.003  0.049
    2  0.132  0.116  0.000  0.000  0.000  0.000  0.000  0.000  0.000  0.249
    3  0.132  0.116  0.000  0.000  0.000  0.000  0.000  0.000  0.000  0.249
tot    0.294  0.232  0.000  0.016  0.000  0.000  0.001  0.000  0.003  0.546
 
band     3 # energy    0.18334832 # occ.  2.00000000
 
ion      s     py     pz     px    dxy    dyz    dz2    dxz  x2-y2    tot
    1  0.040  0.000  0.000  0.013  0.000  0.000  0.004  0.000  0.001  0.057
    2  0.040  0.025  0.000  0.177  0.000  0.000  0.000  0.000  0.000  0.242
    3  0.040  0.025  0.000  0.177  0.000  0.000  0.000  0.000  0.000  0.242
tot    0.120  0.050  0.000  0.366  0.000  0.000  0.004  0.000  0.001  0.542
 
band     4 # energy    6.48292248 # occ. -0.00000000
 
ion      s     py     pz     px    dxy    dyz    dz2    dxz  x2-y2    tot
    1  0.000  0.000  0.000  0.000  0.000  0.039  0.000  0.000  0.000  0.039
    2  0.000  0.000  0.231  0.000  0.000  0.000  0.000  0.000  0.000  0.231
    3  0.000  0.000  0.231  0.000  0.000  0.000  0.000  0.000  0.000  0.231
tot    0.000  0.000  0.462  0.000  0.000  0.039  0.000  0.000  0.000  0.501
 
band     5 # energy    7.85791053 # occ. -0.00000000
 
ion      s     py     pz     px    dxy    dyz    dz2    dxz  x2-y2    tot
    1  0.000  0.000  0.009  0.000  0.000  0.000  0.000  0.030  0.000  0.039
    2  0.000  0.000  0.231  0.000  0.000  0.000  0.000  0.000  0.000  0.231
    3  0.000  0.000  0.231  0.000  0.000  0.000  0.000  0.000  0.000  0.231
tot    0.000  0.000  0.472  0.000  0.000  0.000  0.000  0.030  0.000  0.502
 
band     6 # energy   11.24253733 # occ.  0.00000000
 
ion      s     py     pz     px    dxy    dyz    dz2    dxz  x2-y2    tot
    1  0.000  0.121  0.000  0.000  0.019  0.000  0.000  0.000  0.000  0.140
    2  0.032  0.043  0.000  0.028  0.000  0.000  0.000  0.000  0.000  0.103
    3  0.032  0.043  0.000  0.028  0.000  0.000  0.000  0.000  0.000  0.103
tot    0.065  0.208  0.000  0.055  0.019  0.000  0.000  0.000  0.000  0.346
 
band     7 # energy   11.68212688 # occ.  0.00000000
 
ion      s     py     pz     px    dxy    dyz    dz2    dxz  x2-y2    tot
    1  0.010  0.000  0.000  0.057  0.000  0.000  0.007  0.000  0.047  0.121
    2  0.002  0.059  0.000  0.056  0.000  0.000  0.000  0.000  0.000  0.117
    3  0.002  0.059  0.000  0.056  0.000  0.000  0.000  0.000  0.000  0.117
tot    0.015  0.117  0.000  0.170  0.000  0.000  0.007  0.000  0.047  0.356
 
band     8 # energy   14.19205749 # occ.  0.00000000
 
ion      s     py     pz     px    dxy    dyz    dz2    dxz  x2-y2    tot
    1  0.293  0.000  0.000  0.003  0.000  0.000  0.000  0.000  0.001  0.297
    2  0.036  0.028  0.000  0.105  0.000  0.000  0.000  0.000  0.000  0.168
    3  0.036  0.028  0.000  0.105  0.000  0.000  0.000  0.000  0.000  0.168
tot    0.365  0.056  0.000  0.212  0.000  0.000  0.000  0.000  0.001  0.634
 

 k-point    38 :    0.45833333 0.37500000 0.00000000     weight = 0.00308642

band     1 # energy   -3.26689617 # occ.  2.00000000
 
ion      s     py     pz     px    dxy    dyz    dz2    dxz  x2-y2    tot
    1  0.017  0.024  0.000  0.001  0.000  0.000  0.000  0.000  0.000  0.044
    2  0.190  0.052  0.000  0.007  0.000  0.000  0.000  0.000  0.000  0.249
    3  0.190  0.052  0.000  0.007  0.000  0.000  0.000  0.000  0.000  0.249
tot    0.397  0.127  0.000  0.016  0.000  0.000  0.000  0.000  0.000  0.541
 
band     2 # energy   -1.75481563 # occ.  2.00000000
 
ion      s     py     pz     px    dxy    dyz    dz2    dxz  x2-y2    tot
    1  0.030  0.010  0.000  0.004  0.000  0.000  0.002  0.000  0.003  0.049
    2  0.129  0.116  0.000  0.003  0.000  0.000  0.000  0.000  0.000  0.248
    3  0.129  0.116  0.000  0.003  0.000  0.000  0.000  0.000  0.000  0.248
tot    0.288  0.242  0.000  0.010  0.000  0.000  0.002  0.000  0.003  0.544
 
band     3 # energy    1.50097193 # occ.  2.00000000
 
ion      s     py     pz     px    dxy    dyz    dz2    dxz  x2-y2    tot
    1  0.019  0.000  0.000  0.020  0.000  0.000  0.003  0.000  0.001  0.043
    2  0.040  0.009  0.000  0.218  0.000  0.000  0.000  0.000  0.000  0.267
    3  0.040  0.009  0.000  0.218  0.000  0.000  0.000  0.000  0.000  0.267
tot    0.099  0.018  0.000  0.456  0.000  0.000  0.003  0.000  0.001  0.577
 
band     4 # energy    5.81348114 # occ. -0.00000001
 
ion      s     py     pz     px    dxy    dyz    dz2    dxz  x2-y2    tot
    1  0.000  0.000  0.006  0.000  0.000  0.036  0.000  0.001  0.000  0.043
    2  0.000  0.000  0.226  0.000  0.000  0.000  0.000  0.000  0.000  0.226
    3  0.000  0.000  0.226  0.000  0.000  0.000  0.000  0.000  0.000  0.226
tot    0.000  0.000  0.459  0.000  0.000  0.036  0.000  0.001  0.000  0.495
 
band     5 # energy    8.46355067 # occ.  0.00000000
 
ion      s     py     pz     px    dxy    dyz    dz2    dxz  x2-y2    tot
    1  0.000  0.000  0.028  0.000  0.000  0.003  0.000  0.016  0.000  0.047
    2  0.000  0.000  0.224  0.000  0.000  0.000  0.000  0.000  0.000  0.224
    3  0.000  0.000  0.224  0.000  0.000  0.000  0.000  0.000  0.000  0.224
tot    0.000  0.000  0.476  0.000  0.000  0.003  0.000  0.016  0.000  0.495
 
band     6 # energy   10.58321163 # occ.  0.00000000
 
ion      s     py     pz     px    dxy    dyz    dz2    dxz  x2-y2    tot
    1  0.014  0.079  0.000  0.007  0.004  0.000  0.013  0.000  0.017  0.133
    2  0.030  0.044  0.000  0.027  0.000  0.000  0.000  0.000  0.000  0.102
    3  0.030  0.044  0.000  0.027  0.000  0.000  0.000  0.000  0.000  0.102
tot    0.074  0.167  0.000  0.061  0.004  0.000  0.013  0.000  0.017  0.337
 
band     7 # energy   11.36151860 # occ.  0.00000000
 
ion      s     py     pz     px    dxy    dyz    dz2    dxz  x2-y2    tot
    1  0.002  0.047  0.000  0.005  0.004  0.000  0.009  0.000  0.036  0.102
    2  0.031  0.042  0.000  0.058  0.000  0.000  0.000  0.000  0.000  0.132
    3  0.031  0.042  0.000  0.058  0.000  0.000  0.000  0.000  0.000  0.132
tot    0.065  0.131  0.000  0.121  0.004  0.000  0.009  0.000  0.036  0.366
 
band     8 # energy   13.31745719 # occ.  0.00000000
 
ion      s     py     pz     px    dxy    dyz    dz2    dxz  x2-y2    tot
    1  0.251  0.007  0.000  0.015  0.001  0.000  0.000  0.000  0.002  0.277
    2  0.077  0.039  0.000  0.037  0.000  0.000  0.000  0.000  0.000  0.153
    3  0.077  0.039  0.000  0.037  0.000  0.000  0.000  0.000  0.000  0.153
tot    0.406  0.085  0.000  0.090  0.001  0.000  0.000  0.000  0.002  0.584
 

 k-point    39 :   -0.45833333 0.37500000 0.00000000     weight = 0.00308642

band     1 # energy   -4.08602344 # occ.  2.00000000
 
ion      s     py     pz     px    dxy    dyz    dz2    dxz  x2-y2    tot
    1  0.029  0.018  0.000  0.000  0.000  0.000  0.001  0.000  0.001  0.049
    2  0.189  0.049  0.000  0.002  0.000  0.000  0.000  0.000  0.000  0.240
    3  0.189  0.049  0.000  0.002  0.000  0.000  0.000  0.000  0.000  0.240
tot    0.407  0.116  0.000  0.004  0.000  0.000  0.001  0.000  0.001  0.528
 
band     2 # energy   -1.26795457 # occ.  2.00000000
 
ion      s     py     pz     px    dxy    dyz    dz2    dxz  x2-y2    tot
    1  0.025  0.016  0.000  0.001  0.000  0.000  0.002  0.000  0.003  0.047
    2  0.127  0.124  0.000  0.001  0.000  0.000  0.000  0.000  0.000  0.252
    3  0.127  0.124  0.000  0.001  0.000  0.000  0.000  0.000  0.000  0.252
tot    0.278  0.264  0.000  0.003  0.000  0.000  0.002  0.000  0.003  0.550
 
band     3 # energy    2.78286828 # occ.  2.00000000
 
ion      s     py     pz     px    dxy    dyz    dz2    dxz  x2-y2    tot
    1  0.006  0.000  0.000  0.023  0.000  0.000  0.001  0.000  0.001  0.031
    2  0.017  0.003  0.000  0.274  0.000  0.000  0.000  0.000  0.000  0.294
    3  0.017  0.003  0.000  0.274  0.000  0.000  0.000  0.000  0.000  0.294
tot    0.039  0.007  0.000  0.571  0.000  0.000  0.001  0.000  0.001  0.619
 
band     4 # energy    5.16814128 # occ.  2.01664972
 
ion      s     py     pz     px    dxy    dyz    dz2    dxz  x2-y2    tot
    1  0.000  0.000  0.017  0.000  0.000  0.030  0.000  0.000  0.000  0.048
    2  0.000  0.000  0.221  0.000  0.000  0.000  0.000  0.000  0.000  0.221
    3  0.000  0.000  0.221  0.000  0.000  0.000  0.000  0.000  0.000  0.221
tot    0.000  0.000  0.459  0.000  0.000  0.030  0.000  0.000  0.000  0.490
 
band     5 # energy    9.13902859 # occ.  0.00000000
 
ion      s     py     pz     px    dxy    dyz    dz2    dxz  x2-y2    tot
    1  0.000  0.000  0.039  0.000  0.000  0.009  0.000  0.004  0.000  0.051
    2  0.000  0.000  0.221  0.000  0.000  0.000  0.000  0.000  0.000  0.221
    3  0.000  0.000  0.221  0.000  0.000  0.000  0.000  0.000  0.000  0.221
tot    0.000  0.000  0.481  0.000  0.000  0.009  0.000  0.004  0.000  0.494
 
band     6 # energy    9.59003535 # occ.  0.00000000
 
ion      s     py     pz     px    dxy    dyz    dz2    dxz  x2-y2    tot
    1  0.008  0.046  0.000  0.001  0.001  0.000  0.027  0.000  0.027  0.109
    2  0.036  0.045  0.000  0.020  0.000  0.000  0.000  0.000  0.000  0.101
    3  0.036  0.045  0.000  0.020  0.000  0.000  0.000  0.000  0.000  0.101
tot    0.080  0.136  0.000  0.041  0.001  0.000  0.027  0.000  0.027  0.311
 
band     7 # energy   10.78470815 # occ.  0.00000000
 
ion      s     py     pz     px    dxy    dyz    dz2    dxz  x2-y2    tot
    1  0.069  0.053  0.000  0.000  0.001  0.000  0.002  0.000  0.016  0.140
    2  0.102  0.016  0.000  0.020  0.000  0.000  0.000  0.000  0.000  0.138
    3  0.102  0.016  0.000  0.020  0.000  0.000  0.000  0.000  0.000  0.138
tot    0.273  0.085  0.000  0.041  0.001  0.000  0.002  0.000  0.016  0.417
 
band     8 # energy   13.22847967 # occ.  0.00000000
 
ion      s     py     pz     px    dxy    dyz    dz2    dxz  x2-y2    tot
    1  0.198  0.038  0.000  0.005  0.001  0.000  0.001  0.000  0.018  0.261
    2  0.049  0.073  0.000  0.005  0.000  0.000  0.000  0.000  0.000  0.126
    3  0.049  0.073  0.000  0.005  0.000  0.000  0.000  0.000  0.000  0.126
tot    0.295  0.184  0.000  0.015  0.001  0.000  0.001  0.000  0.018  0.513
 

 k-point    40 :   -0.37500000 0.37500000 0.00000000     weight = 0.00154321

band     1 # energy   -4.71672677 # occ.  2.00000000
 
ion      s     py     pz     px    dxy    dyz    dz2    dxz  x2-y2    tot
    1  0.037  0.015  0.000  0.000  0.000  0.000  0.001  0.000  0.000  0.053
    2  0.193  0.041  0.000  0.000  0.000  0.000  0.000  0.000  0.000  0.234
    3  0.193  0.041  0.000  0.000  0.000  0.000  0.000  0.000  0.000  0.234
tot    0.422  0.098  0.000  0.000  0.000  0.000  0.001  0.000  0.000  0.521
 
band     2 # energy   -0.55787684 # occ.  2.00000000
 
ion      s     py     pz     px    dxy    dyz    dz2    dxz  x2-y2    tot
    1  0.020  0.018  0.000  0.000  0.000  0.000  0.002  0.000  0.004  0.044
    2  0.119  0.138  0.000  0.000  0.000  0.000  0.000  0.000  0.000  0.257
    3  0.119  0.138  0.000  0.000  0.000  0.000  0.000  0.000  0.000  0.257
tot    0.258  0.294  0.000  0.000  0.000  0.000  0.002  0.000  0.004  0.558
 
band     3 # energy    3.46709178 # occ.  2.00000000
 
ion      s     py     pz     px    dxy    dyz    dz2    dxz  x2-y2    tot
    1  0.000  0.000  0.000  0.023  0.001  0.000  0.000  0.000  0.000  0.024
    2  0.000  0.000  0.000  0.312  0.000  0.000  0.000  0.000  0.000  0.312
    3  0.000  0.000  0.000  0.312  0.000  0.000  0.000  0.000  0.000  0.312
tot    0.000  0.000  0.000  0.646  0.001  0.000  0.000  0.000  0.000  0.647
 
band     4 # energy    4.64787693 # occ.  2.00000000
 
ion      s     py     pz     px    dxy    dyz    dz2    dxz  x2-y2    tot
    1  0.000  0.000  0.028  0.000  0.000  0.024  0.000  0.000  0.000  0.052
    2  0.000  0.000  0.216  0.000  0.000  0.000  0.000  0.000  0.000  0.216
    3  0.000  0.000  0.216  0.000  0.000  0.000  0.000  0.000  0.000  0.216
tot    0.000  0.000  0.460  0.000  0.000  0.024  0.000  0.000  0.000  0.485
 
band     5 # energy    8.95977510 # occ.  0.00000000
 
ion      s     py     pz     px    dxy    dyz    dz2    dxz  x2-y2    tot
    1  0.013  0.047  0.000  0.000  0.000  0.000  0.033  0.000  0.022  0.115
    2  0.042  0.046  0.000  0.000  0.000  0.000  0.000  0.000  0.000  0.088
    3  0.042  0.046  0.000  0.000  0.000  0.000  0.000  0.000  0.000  0.088
tot    0.096  0.140  0.000  0.000  0.000  0.000  0.033  0.000  0.022  0.291
 
band     6 # energy    9.86230471 # occ.  0.00000000
 
ion      s     py     pz     px    dxy    dyz    dz2    dxz  x2-y2    tot
    1  0.000  0.000  0.035  0.000  0.000  0.013  0.000  0.000  0.000  0.048
    2  0.000  0.000  0.227  0.000  0.000  0.000  0.000  0.000  0.000  0.227
    3  0.000  0.000  0.227  0.000  0.000  0.000  0.000  0.000  0.000  0.227
tot    0.000  0.000  0.489  0.000  0.000  0.013  0.000  0.000  0.000  0.502
 
band     7 # energy   10.44468903 # occ.  0.00000000
 
ion      s     py     pz     px    dxy    dyz    dz2    dxz  x2-y2    tot
    1  0.114  0.027  0.000  0.000  0.000  0.000  0.001  0.000  0.014  0.156
    2  0.137  0.007  0.000  0.000  0.000  0.000  0.000  0.000  0.000  0.144
    3  0.137  0.007  0.000  0.000  0.000  0.000  0.000  0.000  0.000  0.144
tot    0.387  0.042  0.000  0.000  0.000  0.000  0.001  0.000  0.014  0.444
 
band     8 # energy   13.65867396 # occ.  0.00000000
 
ion      s     py     pz     px    dxy    dyz    dz2    dxz  x2-y2    tot
    1  0.149  0.060  0.000  0.000  0.000  0.000  0.001  0.000  0.028  0.238
    2  0.025  0.096  0.000  0.000  0.000  0.000  0.000  0.000  0.000  0.122
    3  0.025  0.096  0.000  0.000  0.000  0.000  0.000  0.000  0.000  0.122
tot    0.200  0.253  0.000  0.000  0.000  0.000  0.001  0.000  0.028  0.481
 

 k-point    41 :    0.45833333 0.45833333 0.00000000     weight = 0.00154321

band     1 # energy   -3.11865347 # occ.  2.00000000
 
ion      s     py     pz     px    dxy    dyz    dz2    dxz  x2-y2    tot
    1  0.000  0.035  0.000  0.000  0.000  0.000  0.000  0.000  0.000  0.036
    2  0.216  0.039  0.000  0.002  0.000  0.000  0.000  0.000  0.000  0.258
    3  0.216  0.039  0.000  0.002  0.000  0.000  0.000  0.000  0.000  0.258
tot    0.432  0.114  0.000  0.005  0.000  0.000  0.000  0.000  0.000  0.552
 
band     2 # energy   -2.42338774 # occ.  2.00000000
 
ion      s     py     pz     px    dxy    dyz    dz2    dxz  x2-y2    tot
    1  0.055  0.000  0.000  0.001  0.000  0.000  0.002  0.000  0.003  0.061
    2  0.102  0.129  0.000  0.000  0.000  0.000  0.000  0.000  0.000  0.231
    3  0.102  0.129  0.000  0.000  0.000  0.000  0.000  0.000  0.000  0.231
tot    0.259  0.258  0.000  0.002  0.000  0.000  0.002  0.000  0.003  0.524
 
band     3 # energy    2.66572102 # occ.  2.00000000
 
ion      s     py     pz     px    dxy    dyz    dz2    dxz  x2-y2    tot
    1  0.006  0.000  0.000  0.023  0.000  0.000  0.001  0.000  0.001  0.031
    2  0.017  0.003  0.000  0.274  0.000  0.000  0.000  0.000  0.000  0.294
    3  0.017  0.003  0.000  0.274  0.000  0.000  0.000  0.000  0.000  0.294
tot    0.041  0.005  0.000  0.571  0.000  0.000  0.001  0.000  0.001  0.619
 
band     4 # energy    5.67357260 # occ. -0.00012787
 
ion      s     py     pz     px    dxy    dyz    dz2    dxz  x2-y2    tot
    1  0.000  0.000  0.000  0.000  0.000  0.041  0.000  0.000  0.000  0.041
    2  0.000  0.000  0.228  0.000  0.000  0.000  0.000  0.000  0.000  0.228
    3  0.000  0.000  0.228  0.000  0.000  0.000  0.000  0.000  0.000  0.228
tot    0.000  0.000  0.457  0.000  0.000  0.041  0.000  0.000  0.000  0.497
 
band     5 # energy    8.44007272 # occ.  0.00000000
 
ion      s     py     pz     px    dxy    dyz    dz2    dxz  x2-y2    tot
    1  0.000  0.000  0.057  0.000  0.000  0.000  0.000  0.004  0.000  0.061
    2  0.000  0.000  0.209  0.000  0.000  0.000  0.000  0.000  0.000  0.209
    3  0.000  0.000  0.209  0.000  0.000  0.000  0.000  0.000  0.000  0.209
tot    0.000  0.000  0.475  0.000  0.000  0.000  0.000  0.004  0.000  0.479
 
band     6 # energy    9.90344011 # occ.  0.00000000
 
ion      s     py     pz     px    dxy    dyz    dz2    dxz  x2-y2    tot
    1  0.002  0.000  0.000  0.000  0.000  0.000  0.026  0.000  0.047  0.076
    2  0.056  0.039  0.000  0.035  0.000  0.000  0.000  0.000  0.000  0.129
    3  0.056  0.039  0.000  0.035  0.000  0.000  0.000  0.000  0.000  0.129
tot    0.114  0.077  0.000  0.070  0.000  0.000  0.026  0.000  0.047  0.335
 
band     7 # energy   10.80848057 # occ.  0.00000000
 
ion      s     py     pz     px    dxy    dyz    dz2    dxz  x2-y2    tot
    1  0.000  0.144  0.000  0.000  0.002  0.000  0.000  0.000  0.000  0.146
    2  0.054  0.040  0.000  0.003  0.000  0.000  0.000  0.000  0.000  0.097
    3  0.054  0.040  0.000  0.003  0.000  0.000  0.000  0.000  0.000  0.097
tot    0.107  0.225  0.000  0.006  0.002  0.000  0.000  0.000  0.000  0.341
 
band     8 # energy   12.74469412 # occ.  0.00000000
 
ion      s     py     pz     px    dxy    dyz    dz2    dxz  x2-y2    tot
    1  0.279  0.000  0.000  0.007  0.000  0.000  0.002  0.000  0.010  0.298
    2  0.085  0.043  0.000  0.006  0.000  0.000  0.000  0.000  0.000  0.133
    3  0.085  0.043  0.000  0.006  0.000  0.000  0.000  0.000  0.000  0.133
tot    0.448  0.085  0.000  0.018  0.000  0.000  0.002  0.000  0.010  0.564
 

 k-point    42 :   -0.45833333 0.45833333 0.00000000     weight = 0.00154321

band     1 # energy   -3.59783941 # occ.  2.00000000
 
ion      s     py     pz     px    dxy    dyz    dz2    dxz  x2-y2    tot
    1  0.020  0.024  0.000  0.000  0.000  0.000  0.000  0.000  0.001  0.045
    2  0.194  0.052  0.000  0.000  0.000  0.000  0.000  0.000  0.000  0.246
    3  0.194  0.052  0.000  0.000  0.000  0.000  0.000  0.000  0.000  0.246
tot    0.407  0.129  0.000  0.000  0.000  0.000  0.000  0.000  0.001  0.537
 
band     2 # energy   -2.05760147 # occ.  2.00000000
 
ion      s     py     pz     px    dxy    dyz    dz2    dxz  x2-y2    tot
    1  0.037  0.011  0.000  0.000  0.000  0.000  0.002  0.000  0.003  0.053
    2  0.125  0.117  0.000  0.000  0.000  0.000  0.000  0.000  0.000  0.242
    3  0.125  0.117  0.000  0.000  0.000  0.000  0.000  0.000  0.000  0.242
tot    0.287  0.246  0.000  0.000  0.000  0.000  0.002  0.000  0.003  0.537
 
band     3 # energy    3.24318875 # occ.  2.00000000
 
ion      s     py     pz     px    dxy    dyz    dz2    dxz  x2-y2    tot
    1  0.000  0.000  0.000  0.024  0.000  0.000  0.000  0.000  0.000  0.025
    2  0.000  0.000  0.000  0.311  0.000  0.000  0.000  0.000  0.000  0.311
    3  0.000  0.000  0.000  0.311  0.000  0.000  0.000  0.000  0.000  0.311
tot    0.000  0.000  0.000  0.647  0.000  0.000  0.000  0.000  0.000  0.647
 
band     4 # energy    5.42794068 # occ.  0.15058355
 
ion      s     py     pz     px    dxy    dyz    dz2    dxz  x2-y2    tot
    1  0.000  0.000  0.006  0.000  0.000  0.038  0.000  0.000  0.000  0.044
    2  0.000  0.000  0.226  0.000  0.000  0.000  0.000  0.000  0.000  0.226
    3  0.000  0.000  0.226  0.000  0.000  0.000  0.000  0.000  0.000  0.226
tot    0.000  0.000  0.458  0.000  0.000  0.038  0.000  0.000  0.000  0.495
 
band     5 # energy    8.68405792 # occ.  0.00000000
 
ion      s     py     pz     px    dxy    dyz    dz2    dxz  x2-y2    tot
    1  0.000  0.000  0.059  0.000  0.000  0.003  0.000  0.000  0.000  0.062
    2  0.000  0.000  0.208  0.000  0.000  0.000  0.000  0.000  0.000  0.208
    3  0.000  0.000  0.208  0.000  0.000  0.000  0.000  0.000  0.000  0.208
tot    0.000  0.000  0.476  0.000  0.000  0.003  0.000  0.000  0.000  0.479
 
band     6 # energy    9.29042246 # occ.  0.00000000
 
ion      s     py     pz     px    dxy    dyz    dz2    dxz  x2-y2    tot
    1  0.003  0.008  0.000  0.000  0.000  0.000  0.029  0.000  0.042  0.082
    2  0.074  0.040  0.000  0.000  0.000  0.000  0.000  0.000  0.000  0.114
    3  0.074  0.040  0.000  0.000  0.000  0.000  0.000  0.000  0.000  0.114
tot    0.152  0.087  0.000  0.000  0.000  0.000  0.029  0.000  0.042  0.310
 
band     7 # energy   10.66479200 # occ.  0.00000000
 
ion      s     py     pz     px    dxy    dyz    dz2    dxz  x2-y2    tot
    1  0.034  0.121  0.000  0.000  0.000  0.000  0.000  0.000  0.001  0.156
    2  0.075  0.031  0.000  0.000  0.000  0.000  0.000  0.000  0.000  0.105
    3  0.075  0.031  0.000  0.000  0.000  0.000  0.000  0.000  0.000  0.105
tot    0.183  0.183  0.000  0.000  0.000  0.000  0.000  0.000  0.001  0.367
 
band     8 # energy   12.77514231 # occ.  0.00000000
 
ion      s     py     pz     px    dxy    dyz    dz2    dxz  x2-y2    tot
    1  0.251  0.017  0.000  0.000  0.000  0.000  0.004  0.000  0.016  0.287
    2  0.069  0.055  0.000  0.000  0.000  0.000  0.000  0.000  0.000  0.124
    3  0.069  0.055  0.000  0.000  0.000  0.000  0.000  0.000  0.000  0.124
tot    0.389  0.127  0.000  0.000  0.000  0.000  0.004  0.000  0.016  0.535
 

 k-point    43 :    0.04166667 0.04166667 0.11111111     weight = 0.00308642

band     1 # energy   -6.93941700 # occ.  2.00000000
 
ion      s     py     pz     px    dxy    dyz    dz2    dxz  x2-y2    tot
    1  0.057  0.000  0.002  0.001  0.000  0.000  0.000  0.000  0.000  0.060
    2  0.217  0.000  0.001  0.002  0.000  0.000  0.000  0.000  0.000  0.219
    3  0.217  0.000  0.001  0.002  0.000  0.000  0.000  0.000  0.000  0.219
tot    0.491  0.000  0.003  0.004  0.000  0.000  0.000  0.000  0.000  0.498
 
band     2 # energy    1.67688036 # occ.  2.00000000
 
ion      s     py     pz     px    dxy    dyz    dz2    dxz  x2-y2    tot
    1  0.031  0.000  0.049  0.001  0.000  0.000  0.002  0.001  0.000  0.083
    2  0.013  0.000  0.169  0.000  0.000  0.000  0.000  0.000  0.000  0.182
    3  0.013  0.000  0.169  0.000  0.000  0.000  0.000  0.000  0.000  0.182
tot    0.058  0.000  0.386  0.001  0.000  0.000  0.002  0.001  0.000  0.447
 
band     3 # energy    5.36469665 # occ.  1.03697999
 
ion      s     py     pz     px    dxy    dyz    dz2    dxz  x2-y2    tot
    1  0.000  0.003  0.000  0.000  0.011  0.000  0.000  0.000  0.000  0.014
    2  0.016  0.008  0.000  0.308  0.000  0.000  0.000  0.000  0.000  0.332
    3  0.016  0.008  0.000  0.308  0.000  0.000  0.000  0.000  0.000  0.332
tot    0.032  0.020  0.000  0.615  0.011  0.000  0.000  0.000  0.000  0.678
 
band     4 # energy    5.58118834 # occ. -0.00980296
 
ion      s     py     pz     px    dxy    dyz    dz2    dxz  x2-y2    tot
    1  0.000  0.000  0.000  0.004  0.000  0.000  0.000  0.000  0.010  0.014
    2  0.000  0.324  0.000  0.010  0.000  0.000  0.000  0.000  0.000  0.334
    3  0.000  0.324  0.000  0.010  0.000  0.000  0.000  0.000  0.000  0.334
tot    0.000  0.649  0.000  0.023  0.000  0.000  0.000  0.000  0.010  0.683
 
band     5 # energy    8.15859895 # occ.  0.00000000
 
ion      s     py     pz     px    dxy    dyz    dz2    dxz  x2-y2    tot
    1  0.107  0.000  0.011  0.004  0.000  0.000  0.042  0.000  0.000  0.163
    2  0.055  0.001  0.039  0.003  0.000  0.000  0.000  0.000  0.000  0.097
    3  0.055  0.001  0.039  0.003  0.000  0.000  0.000  0.000  0.000  0.097
tot    0.216  0.001  0.089  0.010  0.000  0.000  0.042  0.000  0.000  0.358
 
band     6 # energy   11.82906686 # occ.  0.00000000
 
ion      s     py     pz     px    dxy    dyz    dz2    dxz  x2-y2    tot
    1  0.020  0.000  0.001  0.055  0.000  0.000  0.002  0.005  0.002  0.085
    2  0.014  0.016  0.000  0.152  0.000  0.000  0.000  0.000  0.000  0.183
    3  0.014  0.016  0.000  0.152  0.000  0.000  0.000  0.000  0.000  0.183
tot    0.049  0.032  0.002  0.359  0.000  0.000  0.002  0.005  0.002  0.451
 
band     7 # energy   12.18467914 # occ.  0.00000000
 
ion      s     py     pz     px    dxy    dyz    dz2    dxz  x2-y2    tot
    1  0.000  0.062  0.000  0.000  0.002  0.005  0.000  0.000  0.000  0.070
    2  0.008  0.173  0.000  0.008  0.000  0.000  0.000  0.000  0.000  0.190
    3  0.008  0.173  0.000  0.008  0.000  0.000  0.000  0.000  0.000  0.190
tot    0.017  0.408  0.001  0.016  0.002  0.005  0.000  0.000  0.000  0.450
 
band     8 # energy   13.73510050 # occ.  0.00000000
 
ion      s     py     pz     px    dxy    dyz    dz2    dxz  x2-y2    tot
    1  0.000  0.003  0.000  0.000  0.004  0.000  0.000  0.000  0.000  0.007
    2  0.163  0.003  0.071  0.027  0.000  0.000  0.000  0.000  0.000  0.264
    3  0.163  0.003  0.071  0.027  0.000  0.000  0.000  0.000  0.000  0.264
tot    0.326  0.008  0.142  0.055  0.004  0.000  0.000  0.000  0.000  0.536
 

 k-point    44 :    0.12500000 0.04166667 0.11111111     weight = 0.00617284

band     1 # energy   -6.63679659 # occ.  2.00000000
 
ion      s     py     pz     px    dxy    dyz    dz2    dxz  x2-y2    tot
    1  0.054  0.000  0.002  0.002  0.000  0.000  0.000  0.000  0.000  0.059
    2  0.214  0.001  0.001  0.007  0.000  0.000  0.000  0.000  0.000  0.221
    3  0.214  0.001  0.001  0.007  0.000  0.000  0.000  0.000  0.000  0.221
tot    0.481  0.001  0.003  0.015  0.000  0.000  0.000  0.000  0.000  0.501
 
band     2 # energy    1.97967570 # occ.  2.00000000
 
ion      s     py     pz     px    dxy    dyz    dz2    dxz  x2-y2    tot
    1  0.028  0.000  0.046  0.002  0.000  0.000  0.002  0.002  0.000  0.082
    2  0.013  0.000  0.169  0.001  0.000  0.000  0.000  0.000  0.000  0.183
    3  0.013  0.000  0.169  0.001  0.000  0.000  0.000  0.000  0.000  0.183
tot    0.053  0.000  0.385  0.004  0.000  0.000  0.002  0.002  0.000  0.447
 
band     3 # energy    4.14605996 # occ.  2.00000000
 
ion      s     py     pz     px    dxy    dyz    dz2    dxz  x2-y2    tot
    1  0.001  0.006  0.000  0.004  0.008  0.000  0.000  0.000  0.001  0.020
    2  0.049  0.045  0.000  0.217  0.000  0.000  0.000  0.000  0.000  0.312
    3  0.049  0.045  0.000  0.217  0.000  0.000  0.000  0.000  0.000  0.312
tot    0.099  0.096  0.001  0.438  0.008  0.000  0.000  0.000  0.001  0.644
 
band     4 # energy    4.95595687 # occ.  2.00000010
 
ion      s     py     pz     px    dxy    dyz    dz2    dxz  x2-y2    tot
    1  0.001  0.003  0.000  0.007  0.001  0.000  0.000  0.001  0.005  0.019
    2  0.001  0.261  0.000  0.059  0.000  0.000  0.000  0.000  0.000  0.321
    3  0.001  0.261  0.000  0.059  0.000  0.000  0.000  0.000  0.000  0.321
tot    0.003  0.525  0.000  0.124  0.001  0.000  0.000  0.001  0.005  0.661
 
band     5 # energy    8.42243628 # occ.  0.00000000
 
ion      s     py     pz     px    dxy    dyz    dz2    dxz  x2-y2    tot
    1  0.092  0.001  0.009  0.012  0.000  0.000  0.040  0.001  0.000  0.157
    2  0.047  0.004  0.038  0.009  0.000  0.000  0.000  0.000  0.000  0.098
    3  0.047  0.004  0.038  0.009  0.000  0.000  0.000  0.000  0.000  0.098
tot    0.186  0.010  0.086  0.030  0.000  0.000  0.040  0.001  0.000  0.353
 
band     6 # energy   11.64529098 # occ.  0.00000000
 
ion      s     py     pz     px    dxy    dyz    dz2    dxz  x2-y2    tot
    1  0.057  0.005  0.004  0.022  0.005  0.001  0.004  0.002  0.003  0.103
    2  0.068  0.040  0.004  0.068  0.000  0.000  0.000  0.000  0.000  0.181
    3  0.068  0.040  0.004  0.068  0.000  0.000  0.000  0.000  0.000  0.181
tot    0.194  0.085  0.012  0.159  0.005  0.001  0.004  0.002  0.003  0.464
 
band     7 # energy   13.02566901 # occ.  0.00000000
 
ion      s     py     pz     px    dxy    dyz    dz2    dxz  x2-y2    tot
    1  0.006  0.015  0.000  0.014  0.013  0.005  0.001  0.000  0.000  0.054
    2  0.032  0.104  0.058  0.023  0.000  0.000  0.000  0.000  0.000  0.217
    3  0.032  0.104  0.058  0.023  0.000  0.000  0.000  0.000  0.000  0.217
tot    0.071  0.223  0.116  0.059  0.013  0.005  0.001  0.000  0.000  0.489
 
band     8 # energy   13.55351278 # occ.  0.00000000
 
ion      s     py     pz     px    dxy    dyz    dz2    dxz  x2-y2    tot
    1  0.001  0.037  0.000  0.000  0.003  0.000  0.000  0.001  0.002  0.044
    2  0.000  0.056  0.156  0.038  0.000  0.000  0.000  0.000  0.000  0.249
    3  0.000  0.056  0.156  0.038  0.000  0.000  0.000  0.000  0.000  0.249
tot    0.001  0.149  0.311  0.076  0.003  0.000  0.000  0.001  0.002  0.543
 

 k-point    45 :    0.20833333 0.04166667 0.11111111     weight = 0.00617284

band     1 # energy   -6.09590505 # occ.  2.00000000
 
ion      s     py     pz     px    dxy    dyz    dz2    dxz  x2-y2    tot
    1  0.049  0.001  0.002  0.005  0.000  0.000  0.000  0.000  0.000  0.057
    2  0.208  0.002  0.000  0.015  0.000  0.000  0.000  0.000  0.000  0.225
    3  0.208  0.002  0.000  0.015  0.000  0.000  0.000  0.000  0.000  0.225
tot    0.465  0.005  0.003  0.034  0.000  0.000  0.000  0.000  0.000  0.507
 
band     2 # energy    2.43486059 # occ.  2.00000000
 
ion      s     py     pz     px    dxy    dyz    dz2    dxz  x2-y2    tot
    1  0.003  0.006  0.021  0.014  0.003  0.000  0.003  0.001  0.000  0.050
    2  0.042  0.031  0.072  0.092  0.000  0.000  0.000  0.000  0.000  0.237
    3  0.042  0.031  0.072  0.092  0.000  0.000  0.000  0.000  0.000  0.237
tot    0.086  0.068  0.166  0.198  0.003  0.000  0.003  0.001  0.000  0.525
 
band     3 # energy    2.58582270 # occ.  2.00000000
 
ion      s     py     pz     px    dxy    dyz    dz2    dxz  x2-y2    tot
    1  0.027  0.001  0.020  0.000  0.003  0.001  0.000  0.005  0.001  0.058
    2  0.050  0.020  0.099  0.068  0.000  0.000  0.000  0.000  0.000  0.237
    3  0.050  0.020  0.099  0.068  0.000  0.000  0.000  0.000  0.000  0.237
tot    0.126  0.042  0.218  0.136  0.003  0.001  0.000  0.005  0.001  0.532
 
band     4 # energy    4.25657255 # occ.  2.00000000
 
ion      s     py     pz     px    dxy    dyz    dz2    dxz  x2-y2    tot
    1  0.001  0.008  0.000  0.008  0.001  0.001  0.000  0.001  0.003  0.022
    2  0.003  0.232  0.000  0.078  0.000  0.000  0.000  0.000  0.000  0.313
    3  0.003  0.232  0.000  0.078  0.000  0.000  0.000  0.000  0.000  0.313
tot    0.007  0.473  0.000  0.163  0.001  0.001  0.000  0.001  0.003  0.649
 
band     5 # energy    8.87360006 # occ.  0.00000000
 
ion      s     py     pz     px    dxy    dyz    dz2    dxz  x2-y2    tot
    1  0.066  0.004  0.006  0.024  0.002  0.001  0.038  0.003  0.002  0.144
    2  0.037  0.009  0.037  0.017  0.000  0.000  0.000  0.000  0.000  0.100
    3  0.037  0.009  0.037  0.017  0.000  0.000  0.000  0.000  0.000  0.100
tot    0.139  0.023  0.080  0.057  0.002  0.001  0.038  0.003  0.002  0.343
 
band     6 # energy   11.14880428 # occ.  0.00000000
 
ion      s     py     pz     px    dxy    dyz    dz2    dxz  x2-y2    tot
    1  0.072  0.000  0.008  0.001  0.016  0.001  0.002  0.001  0.005  0.107
    2  0.102  0.023  0.029  0.023  0.000  0.000  0.000  0.000  0.000  0.177
    3  0.102  0.023  0.029  0.023  0.000  0.000  0.000  0.000  0.000  0.177
tot    0.275  0.047  0.067  0.047  0.016  0.001  0.002  0.001  0.005  0.462
 
band     7 # energy   12.04178680 # occ.  0.00000000
 
ion      s     py     pz     px    dxy    dyz    dz2    dxz  x2-y2    tot
    1  0.032  0.007  0.001  0.012  0.006  0.004  0.001  0.003  0.000  0.067
    2  0.016  0.012  0.190  0.016  0.000  0.000  0.000  0.000  0.000  0.234
    3  0.016  0.012  0.190  0.016  0.000  0.000  0.000  0.000  0.000  0.234
tot    0.064  0.031  0.382  0.045  0.006  0.004  0.001  0.003  0.000  0.535
 
band     8 # energy   14.68772762 # occ.  0.00000000
 
ion      s     py     pz     px    dxy    dyz    dz2    dxz  x2-y2    tot
    1  0.013  0.019  0.001  0.018  0.011  0.001  0.001  0.002  0.002  0.066
    2  0.034  0.155  0.019  0.020  0.000  0.000  0.000  0.000  0.000  0.228
    3  0.034  0.155  0.019  0.020  0.000  0.000  0.000  0.000  0.000  0.228
tot    0.080  0.328  0.040  0.058  0.011  0.001  0.001  0.002  0.002  0.522
 

 k-point    46 :    0.29166667 0.04166667 0.11111111     weight = 0.00617284

band     1 # energy   -5.32353919 # occ.  2.00000000
 
ion      s     py     pz     px    dxy    dyz    dz2    dxz  x2-y2    tot
    1  0.041  0.002  0.002  0.009  0.000  0.000  0.000  0.000  0.000  0.054
    2  0.200  0.005  0.000  0.025  0.000  0.000  0.000  0.000  0.000  0.231
    3  0.200  0.005  0.000  0.025  0.000  0.000  0.000  0.000  0.000  0.231
tot    0.442  0.011  0.002  0.060  0.000  0.000  0.000  0.000  0.000  0.516
 
band     2 # energy    0.77399449 # occ.  2.00000000
 
ion      s     py     pz     px    dxy    dyz    dz2    dxz  x2-y2    tot
    1  0.010  0.006  0.001  0.011  0.004  0.000  0.001  0.000  0.001  0.036
    2  0.105  0.045  0.000  0.121  0.000  0.000  0.000  0.000  0.000  0.271
    3  0.105  0.045  0.000  0.121  0.000  0.000  0.000  0.000  0.000  0.271
tot    0.219  0.097  0.002  0.253  0.004  0.000  0.001  0.000  0.001  0.579
 
band     3 # energy    3.27550861 # occ.  2.00000000
 
ion      s     py     pz     px    dxy    dyz    dz2    dxz  x2-y2    tot
    1  0.019  0.001  0.032  0.009  0.000  0.002  0.001  0.010  0.000  0.074
    2  0.011  0.001  0.173  0.005  0.000  0.000  0.000  0.000  0.000  0.189
    3  0.011  0.001  0.173  0.005  0.000  0.000  0.000  0.000  0.000  0.189
tot    0.041  0.002  0.378  0.018  0.000  0.002  0.001  0.010  0.000  0.452
 
band     4 # energy    3.67552485 # occ.  2.00000000
 
ion      s     py     pz     px    dxy    dyz    dz2    dxz  x2-y2    tot
    1  0.002  0.012  0.000  0.006  0.001  0.001  0.000  0.001  0.001  0.025
    2  0.005  0.224  0.002  0.078  0.000  0.000  0.000  0.000  0.000  0.309
    3  0.005  0.224  0.002  0.078  0.000  0.000  0.000  0.000  0.000  0.309
tot    0.012  0.460  0.004  0.163  0.001  0.001  0.000  0.001  0.001  0.643
 
band     5 # energy    9.31193973 # occ.  0.00000000
 
ion      s     py     pz     px    dxy    dyz    dz2    dxz  x2-y2    tot
    1  0.024  0.004  0.000  0.020  0.013  0.003  0.032  0.006  0.006  0.107
    2  0.025  0.017  0.047  0.026  0.000  0.000  0.000  0.000  0.000  0.114
    3  0.025  0.017  0.047  0.026  0.000  0.000  0.000  0.000  0.000  0.114
tot    0.074  0.037  0.093  0.072  0.013  0.003  0.032  0.006  0.006  0.335
 
band     6 # energy   10.27336904 # occ.  0.00000000
 
ion      s     py     pz     px    dxy    dyz    dz2    dxz  x2-y2    tot
    1  0.006  0.010  0.021  0.024  0.008  0.003  0.003  0.002  0.001  0.078
    2  0.018  0.003  0.156  0.010  0.000  0.000  0.000  0.000  0.000  0.187
    3  0.018  0.003  0.156  0.010  0.000  0.000  0.000  0.000  0.000  0.187
tot    0.041  0.016  0.332  0.045  0.008  0.003  0.003  0.002  0.001  0.451
 
band     7 # energy   11.07781674 # occ.  0.00000000
 
ion      s     py     pz     px    dxy    dyz    dz2    dxz  x2-y2    tot
    1  0.136  0.001  0.001  0.000  0.004  0.001  0.002  0.002  0.002  0.147
    2  0.130  0.013  0.035  0.004  0.000  0.000  0.000  0.000  0.000  0.182
    3  0.130  0.013  0.035  0.004  0.000  0.000  0.000  0.000  0.000  0.182
tot    0.396  0.027  0.072  0.007  0.004  0.001  0.002  0.002  0.002  0.511
 
band     8 # energy   15.03295748 # occ.  0.00000000
 
ion      s     py     pz     px    dxy    dyz    dz2    dxz  x2-y2    tot
    1  0.075  0.008  0.002  0.038  0.025  0.001  0.000  0.001  0.002  0.152
    2  0.004  0.058  0.053  0.070  0.000  0.000  0.000  0.000  0.000  0.184
    3  0.004  0.058  0.053  0.070  0.000  0.000  0.000  0.000  0.000  0.184
tot    0.082  0.124  0.107  0.178  0.025  0.001  0.000  0.001  0.002  0.520
 

 k-point    47 :    0.37500000 0.04166667 0.11111111     weight = 0.00617284

band     1 # energy   -4.33465766 # occ.  2.00000000
 
ion      s     py     pz     px    dxy    dyz    dz2    dxz  x2-y2    tot
    1  0.031  0.003  0.001  0.013  0.000  0.000  0.001  0.000  0.000  0.050
    2  0.192  0.008  0.000  0.038  0.000  0.000  0.000  0.000  0.000  0.239
    3  0.192  0.008  0.000  0.038  0.000  0.000  0.000  0.000  0.000  0.239
tot    0.416  0.019  0.002  0.089  0.000  0.000  0.001  0.000  0.000  0.528
 
band     2 # energy   -0.86102856 # occ.  2.00000000
 
ion      s     py     pz     px    dxy    dyz    dz2    dxz  x2-y2    tot
    1  0.021  0.006  0.001  0.010  0.003  0.000  0.001  0.000  0.001  0.044
    2  0.124  0.038  0.000  0.095  0.000  0.000  0.000  0.000  0.000  0.256
    3  0.124  0.038  0.000  0.095  0.000  0.000  0.000  0.000  0.000  0.256
tot    0.268  0.082  0.002  0.200  0.003  0.000  0.001  0.000  0.001  0.556
 
band     3 # energy    3.27824180 # occ.  2.00000000
 
ion      s     py     pz     px    dxy    dyz    dz2    dxz  x2-y2    tot
    1  0.001  0.014  0.000  0.007  0.001  0.001  0.000  0.000  0.000  0.025
    2  0.005  0.223  0.000  0.080  0.000  0.000  0.000  0.000  0.000  0.308
    3  0.005  0.223  0.000  0.080  0.000  0.000  0.000  0.000  0.000  0.308
tot    0.011  0.459  0.001  0.168  0.001  0.001  0.000  0.000  0.000  0.641
 
band     4 # energy    4.18033217 # occ.  2.00000000
 
ion      s     py     pz     px    dxy    dyz    dz2    dxz  x2-y2    tot
    1  0.012  0.003  0.019  0.011  0.000  0.004  0.001  0.017  0.000  0.067
    2  0.010  0.002  0.182  0.002  0.000  0.000  0.000  0.000  0.000  0.195
    3  0.010  0.002  0.182  0.002  0.000  0.000  0.000  0.000  0.000  0.195
tot    0.031  0.007  0.382  0.015  0.000  0.004  0.001  0.017  0.000  0.457
 
band     5 # energy    8.49607418 # occ.  0.00000000
 
ion      s     py     pz     px    dxy    dyz    dz2    dxz  x2-y2    tot
    1  0.014  0.001  0.024  0.001  0.016  0.005  0.005  0.006  0.005  0.077
    2  0.002  0.006  0.151  0.014  0.000  0.000  0.000  0.000  0.000  0.173
    3  0.002  0.006  0.151  0.014  0.000  0.000  0.000  0.000  0.000  0.173
tot    0.018  0.013  0.326  0.029  0.016  0.005  0.005  0.006  0.005  0.422
 
band     6 # energy    9.97882925 # occ.  0.00000000
 
ion      s     py     pz     px    dxy    dyz    dz2    dxz  x2-y2    tot
    1  0.008  0.009  0.005  0.024  0.009  0.000  0.024  0.000  0.005  0.084
    2  0.067  0.020  0.040  0.017  0.000  0.000  0.000  0.000  0.000  0.145
    3  0.067  0.020  0.040  0.017  0.000  0.000  0.000  0.000  0.000  0.145
tot    0.143  0.049  0.085  0.058  0.009  0.000  0.024  0.000  0.005  0.373
 
band     7 # energy   11.13870984 # occ.  0.00000000
 
ion      s     py     pz     px    dxy    dyz    dz2    dxz  x2-y2    tot
    1  0.114  0.009  0.004  0.038  0.003  0.001  0.001  0.004  0.000  0.173
    2  0.102  0.000  0.028  0.011  0.000  0.000  0.000  0.000  0.000  0.142
    3  0.102  0.000  0.028  0.011  0.000  0.000  0.000  0.000  0.000  0.142
tot    0.318  0.009  0.061  0.061  0.003  0.001  0.001  0.004  0.000  0.457
 
band     8 # energy   14.20874796 # occ.  0.00000000
 
ion      s     py     pz     px    dxy    dyz    dz2    dxz  x2-y2    tot
    1  0.140  0.014  0.004  0.031  0.017  0.002  0.002  0.001  0.003  0.213
    2  0.015  0.029  0.055  0.053  0.000  0.000  0.000  0.000  0.000  0.152
    3  0.015  0.029  0.055  0.053  0.000  0.000  0.000  0.000  0.000  0.152
tot    0.170  0.072  0.113  0.137  0.017  0.002  0.002  0.001  0.003  0.518
 

 k-point    48 :    0.45833333 0.04166667 0.11111111     weight = 0.00617284

band     1 # energy   -3.22719035 # occ.  2.00000000
 
ion      s     py     pz     px    dxy    dyz    dz2    dxz  x2-y2    tot
    1  0.009  0.006  0.000  0.022  0.000  0.000  0.000  0.001  0.000  0.039
    2  0.206  0.009  0.000  0.039  0.000  0.000  0.000  0.000  0.000  0.255
    3  0.206  0.009  0.000  0.039  0.000  0.000  0.000  0.000  0.000  0.255
tot    0.420  0.025  0.001  0.101  0.000  0.000  0.000  0.001  0.000  0.549
 
band     2 # energy   -2.25292884 # occ.  2.00000000
 
ion      s     py     pz     px    dxy    dyz    dz2    dxz  x2-y2    tot
    1  0.043  0.003  0.002  0.003  0.002  0.000  0.002  0.000  0.001  0.056
    2  0.116  0.034  0.000  0.089  0.000  0.000  0.000  0.000  0.000  0.238
    3  0.116  0.034  0.000  0.089  0.000  0.000  0.000  0.000  0.000  0.238
tot    0.274  0.071  0.003  0.180  0.002  0.000  0.002  0.000  0.001  0.533
 
band     3 # energy    3.10591043 # occ.  2.00000000
 
ion      s     py     pz     px    dxy    dyz    dz2    dxz  x2-y2    tot
    1  0.001  0.016  0.000  0.006  0.000  0.001  0.000  0.000  0.000  0.025
    2  0.005  0.226  0.000  0.077  0.000  0.000  0.000  0.000  0.000  0.308
    3  0.005  0.226  0.000  0.077  0.000  0.000  0.000  0.000  0.000  0.308
tot    0.012  0.467  0.000  0.159  0.000  0.001  0.000  0.000  0.000  0.641
 
band     4 # energy    4.90904654 # occ.  2.00000000
 
ion      s     py     pz     px    dxy    dyz    dz2    dxz  x2-y2    tot
    1  0.001  0.005  0.001  0.017  0.000  0.007  0.000  0.024  0.000  0.055
    2  0.009  0.001  0.194  0.002  0.000  0.000  0.000  0.000  0.000  0.206
    3  0.009  0.001  0.194  0.002  0.000  0.000  0.000  0.000  0.000  0.206
tot    0.019  0.007  0.389  0.021  0.000  0.007  0.000  0.024  0.000  0.467
 
band     5 # energy    7.52913273 # occ. -0.00000000
 
ion      s     py     pz     px    dxy    dyz    dz2    dxz  x2-y2    tot
    1  0.025  0.001  0.044  0.000  0.012  0.002  0.003  0.000  0.004  0.091
    2  0.000  0.004  0.148  0.011  0.000  0.000  0.000  0.000  0.000  0.164
    3  0.000  0.004  0.148  0.011  0.000  0.000  0.000  0.000  0.000  0.164
tot    0.025  0.010  0.341  0.023  0.012  0.002  0.003  0.000  0.004  0.419
 
band     6 # energy    9.96737397 # occ.  0.00000000
 
ion      s     py     pz     px    dxy    dyz    dz2    dxz  x2-y2    tot
    1  0.035  0.000  0.001  0.001  0.019  0.000  0.021  0.000  0.007  0.084
    2  0.106  0.014  0.019  0.015  0.000  0.000  0.000  0.000  0.000  0.154
    3  0.106  0.014  0.019  0.015  0.000  0.000  0.000  0.000  0.000  0.154
tot    0.247  0.029  0.039  0.030  0.019  0.000  0.021  0.000  0.007  0.391
 
band     7 # energy   11.62418731 # occ.  0.00000000
 
ion      s     py     pz     px    dxy    dyz    dz2    dxz  x2-y2    tot
    1  0.009  0.029  0.000  0.092  0.000  0.002  0.000  0.006  0.000  0.139
    2  0.047  0.007  0.036  0.028  0.000  0.000  0.000  0.000  0.000  0.119
    3  0.047  0.007  0.036  0.028  0.000  0.000  0.000  0.000  0.000  0.119
tot    0.104  0.044  0.073  0.149  0.000  0.002  0.000  0.006  0.000  0.378
 
band     8 # energy   13.45367354 # occ.  0.00000000
 
ion      s     py     pz     px    dxy    dyz    dz2    dxz  x2-y2    tot
    1  0.226  0.003  0.008  0.002  0.011  0.001  0.006  0.000  0.003  0.260
    2  0.043  0.015  0.054  0.036  0.000  0.000  0.000  0.000  0.000  0.148
    3  0.043  0.015  0.054  0.036  0.000  0.000  0.000  0.000  0.000  0.148
tot    0.312  0.034  0.115  0.074  0.011  0.001  0.006  0.000  0.003  0.556
 

 k-point    49 :   -0.45833333 0.04166667 0.11111111     weight = 0.00617284

band     1 # energy   -3.77377334 # occ.  2.00000000
 
ion      s     py     pz     px    dxy    dyz    dz2    dxz  x2-y2    tot
    1  0.024  0.006  0.001  0.014  0.001  0.000  0.001  0.000  0.000  0.046
    2  0.192  0.017  0.000  0.035  0.000  0.000  0.000  0.000  0.000  0.245
    3  0.192  0.017  0.000  0.035  0.000  0.000  0.000  0.000  0.000  0.245
tot    0.407  0.041  0.002  0.085  0.001  0.000  0.001  0.000  0.000  0.536
 
band     2 # energy   -1.61109541 # occ.  2.00000000
 
ion      s     py     pz     px    dxy    dyz    dz2    dxz  x2-y2    tot
    1  0.028  0.002  0.002  0.011  0.002  0.000  0.001  0.000  0.001  0.048
    2  0.128  0.026  0.000  0.095  0.000  0.000  0.000  0.000  0.000  0.249
    3  0.128  0.026  0.000  0.095  0.000  0.000  0.000  0.000  0.000  0.249
tot    0.284  0.054  0.002  0.202  0.002  0.000  0.001  0.000  0.001  0.546
 
band     3 # energy    3.16367034 # occ.  2.00000000
 
ion      s     py     pz     px    dxy    dyz    dz2    dxz  x2-y2    tot
    1  0.001  0.017  0.000  0.004  0.000  0.001  0.000  0.000  0.000  0.025
    2  0.005  0.229  0.000  0.074  0.000  0.000  0.000  0.000  0.000  0.308
    3  0.005  0.229  0.000  0.074  0.000  0.000  0.000  0.000  0.000  0.308
tot    0.011  0.475  0.000  0.152  0.000  0.001  0.000  0.000  0.000  0.641
 
band     4 # energy    4.61232605 # occ.  2.00000000
 
ion      s     py     pz     px    dxy    dyz    dz2    dxz  x2-y2    tot
    1  0.006  0.005  0.010  0.013  0.000  0.008  0.000  0.018  0.000  0.061
    2  0.009  0.001  0.188  0.003  0.000  0.000  0.000  0.000  0.000  0.200
    3  0.009  0.001  0.188  0.003  0.000  0.000  0.000  0.000  0.000  0.200
tot    0.024  0.006  0.386  0.019  0.000  0.008  0.000  0.018  0.000  0.462
 
band     5 # energy    7.91058258 # occ. -0.00000000
 
ion      s     py     pz     px    dxy    dyz    dz2    dxz  x2-y2    tot
    1  0.020  0.000  0.035  0.002  0.012  0.000  0.004  0.006  0.005  0.084
    2  0.000  0.005  0.152  0.012  0.000  0.000  0.000  0.000  0.000  0.169
    3  0.000  0.005  0.152  0.012  0.000  0.000  0.000  0.000  0.000  0.169
tot    0.020  0.010  0.340  0.025  0.012  0.000  0.004  0.006  0.005  0.423
 
band     6 # energy    9.97801888 # occ.  0.00000000
 
ion      s     py     pz     px    dxy    dyz    dz2    dxz  x2-y2    tot
    1  0.025  0.002  0.002  0.009  0.018  0.000  0.022  0.000  0.005  0.083
    2  0.094  0.008  0.024  0.025  0.000  0.000  0.000  0.000  0.000  0.151
    3  0.094  0.008  0.024  0.025  0.000  0.000  0.000  0.000  0.000  0.151
tot    0.213  0.017  0.050  0.059  0.018  0.000  0.022  0.000  0.005  0.384
 
band     7 # energy   11.39860800 # occ.  0.00000000
 
ion      s     py     pz     px    dxy    dyz    dz2    dxz  x2-y2    tot
    1  0.060  0.025  0.003  0.063  0.000  0.002  0.001  0.004  0.001  0.159
    2  0.069  0.011  0.034  0.013  0.000  0.000  0.000  0.000  0.000  0.127
    3  0.069  0.011  0.034  0.013  0.000  0.000  0.000  0.000  0.000  0.127
tot    0.199  0.047  0.071  0.089  0.000  0.002  0.001  0.004  0.001  0.414
 
band     8 # energy   13.76285135 # occ.  0.00000000
 
ion      s     py     pz     px    dxy    dyz    dz2    dxz  x2-y2    tot
    1  0.182  0.004  0.006  0.023  0.011  0.000  0.004  0.002  0.005  0.238
    2  0.030  0.011  0.054  0.053  0.000  0.000  0.000  0.000  0.000  0.148
    3  0.030  0.011  0.054  0.053  0.000  0.000  0.000  0.000  0.000  0.148
tot    0.241  0.026  0.114  0.130  0.011  0.000  0.004  0.002  0.005  0.534
 

 k-point    50 :   -0.37500000 0.04166667 0.11111111     weight = 0.00617284

band     1 # energy   -4.85464936 # occ.  2.00000000
 
ion      s     py     pz     px    dxy    dyz    dz2    dxz  x2-y2    tot
    1  0.037  0.004  0.001  0.008  0.000  0.000  0.000  0.000  0.000  0.052
    2  0.196  0.013  0.000  0.025  0.000  0.000  0.000  0.000  0.000  0.235
    3  0.196  0.013  0.000  0.025  0.000  0.000  0.000  0.000  0.000  0.235
tot    0.429  0.031  0.002  0.059  0.000  0.000  0.000  0.000  0.000  0.521
 
band     2 # energy   -0.06086824 # occ.  2.00000000
 
ion      s     py     pz     px    dxy    dyz    dz2    dxz  x2-y2    tot
    1  0.015  0.003  0.001  0.015  0.003  0.000  0.001  0.001  0.001  0.040
    2  0.115  0.033  0.000  0.115  0.000  0.000  0.000  0.000  0.000  0.264
    3  0.115  0.033  0.000  0.115  0.000  0.000  0.000  0.000  0.000  0.264
tot    0.245  0.068  0.002  0.246  0.003  0.000  0.001  0.001  0.001  0.567
 
band     3 # energy    3.44426302 # occ.  2.00000000
 
ion      s     py     pz     px    dxy    dyz    dz2    dxz  x2-y2    tot
    1  0.000  0.019  0.001  0.002  0.000  0.001  0.001  0.001  0.001  0.025
    2  0.004  0.230  0.003  0.069  0.000  0.000  0.000  0.000  0.000  0.306
    3  0.004  0.230  0.003  0.069  0.000  0.000  0.000  0.000  0.000  0.306
tot    0.008  0.479  0.007  0.140  0.000  0.001  0.001  0.001  0.001  0.637
 
band     4 # energy    3.72470896 # occ.  2.00000000
 
ion      s     py     pz     px    dxy    dyz    dz2    dxz  x2-y2    tot
    1  0.018  0.002  0.025  0.009  0.000  0.006  0.001  0.010  0.000  0.071
    2  0.011  0.003  0.175  0.006  0.000  0.000  0.000  0.000  0.000  0.194
    3  0.011  0.003  0.175  0.006  0.000  0.000  0.000  0.000  0.000  0.194
tot    0.039  0.007  0.375  0.020  0.000  0.006  0.001  0.010  0.000  0.459
 
band     5 # energy    9.09676280 # occ.  0.00000000
 
ion      s     py     pz     px    dxy    dyz    dz2    dxz  x2-y2    tot
    1  0.012  0.001  0.010  0.000  0.020  0.001  0.013  0.012  0.007  0.076
    2  0.009  0.009  0.119  0.022  0.000  0.000  0.000  0.000  0.000  0.159
    3  0.009  0.009  0.119  0.022  0.000  0.000  0.000  0.000  0.000  0.159
tot    0.030  0.018  0.249  0.044  0.020  0.001  0.013  0.012  0.007  0.395
 
band     6 # energy    9.97756830 # occ.  0.00000000
 
ion      s     py     pz     px    dxy    dyz    dz2    dxz  x2-y2    tot
    1  0.000  0.013  0.014  0.042  0.002  0.000  0.020  0.000  0.000  0.091
    2  0.033  0.004  0.087  0.026  0.000  0.000  0.000  0.000  0.000  0.150
    3  0.033  0.004  0.087  0.026  0.000  0.000  0.000  0.000  0.000  0.150
tot    0.066  0.021  0.187  0.095  0.002  0.000  0.020  0.000  0.000  0.390
 
band     7 # energy   11.00553956 # occ.  0.00000000
 
ion      s     py     pz     px    dxy    dyz    dz2    dxz  x2-y2    tot
    1  0.143  0.005  0.003  0.007  0.005  0.001  0.000  0.002  0.002  0.168
    2  0.132  0.005  0.022  0.002  0.000  0.000  0.000  0.000  0.000  0.162
    3  0.132  0.005  0.022  0.002  0.000  0.000  0.000  0.000  0.000  0.162
tot    0.408  0.015  0.048  0.012  0.005  0.001  0.000  0.002  0.002  0.492
 
band     8 # energy   14.66728529 # occ.  0.00000000
 
ion      s     py     pz     px    dxy    dyz    dz2    dxz  x2-y2    tot
    1  0.105  0.012  0.002  0.039  0.015  0.000  0.000  0.003  0.010  0.187
    2  0.005  0.015  0.055  0.088  0.000  0.000  0.000  0.000  0.000  0.163
    3  0.005  0.015  0.055  0.088  0.000  0.000  0.000  0.000  0.000  0.163
tot    0.115  0.042  0.113  0.216  0.015  0.000  0.000  0.003  0.010  0.513
 

 k-point    51 :   -0.29166667 0.04166667 0.11111111     weight = 0.00617284

band     1 # energy   -5.73810687 # occ.  2.00000000
 
ion      s     py     pz     px    dxy    dyz    dz2    dxz  x2-y2    tot
    1  0.045  0.003  0.002  0.005  0.000  0.000  0.000  0.000  0.000  0.056
    2  0.204  0.009  0.000  0.014  0.000  0.000  0.000  0.000  0.000  0.228
    3  0.204  0.009  0.000  0.014  0.000  0.000  0.000  0.000  0.000  0.228
tot    0.454  0.020  0.003  0.034  0.000  0.000  0.000  0.000  0.000  0.511
 
band     2 # energy    1.62882955 # occ.  2.00000000
 
ion      s     py     pz     px    dxy    dyz    dz2    dxz  x2-y2    tot
    1  0.006  0.003  0.001  0.015  0.004  0.000  0.001  0.000  0.002  0.033
    2  0.091  0.045  0.001  0.142  0.000  0.000  0.000  0.000  0.000  0.279
    3  0.091  0.045  0.001  0.142  0.000  0.000  0.000  0.000  0.000  0.279
tot    0.189  0.092  0.003  0.298  0.004  0.000  0.001  0.000  0.002  0.590
 
band     3 # energy    2.87855014 # occ.  2.00000000
 
ion      s     py     pz     px    dxy    dyz    dz2    dxz  x2-y2    tot
    1  0.024  0.003  0.036  0.003  0.000  0.003  0.001  0.006  0.000  0.077
    2  0.013  0.002  0.172  0.001  0.000  0.000  0.000  0.000  0.000  0.187
    3  0.013  0.002  0.172  0.001  0.000  0.000  0.000  0.000  0.000  0.187
tot    0.049  0.007  0.380  0.005  0.000  0.003  0.001  0.006  0.000  0.452
 
band     4 # energy    3.94478454 # occ.  2.00000000
 
ion      s     py     pz     px    dxy    dyz    dz2    dxz  x2-y2    tot
    1  0.002  0.015  0.000  0.002  0.000  0.001  0.000  0.000  0.002  0.023
    2  0.004  0.231  0.000  0.076  0.000  0.000  0.000  0.000  0.000  0.311
    3  0.004  0.231  0.000  0.076  0.000  0.000  0.000  0.000  0.000  0.311
tot    0.009  0.478  0.001  0.154  0.000  0.001  0.000  0.000  0.002  0.646
 
band     5 # energy    9.12916288 # occ.  0.00000000
 
ion      s     py     pz     px    dxy    dyz    dz2    dxz  x2-y2    tot
    1  0.047  0.011  0.003  0.021  0.007  0.001  0.036  0.004  0.001  0.131
    2  0.031  0.008  0.036  0.027  0.000  0.000  0.000  0.000  0.000  0.102
    3  0.031  0.008  0.036  0.027  0.000  0.000  0.000  0.000  0.000  0.102
tot    0.108  0.026  0.076  0.076  0.007  0.001  0.036  0.004  0.001  0.335
 
band     6 # energy   10.79428604 # occ.  0.00000000
 
ion      s     py     pz     px    dxy    dyz    dz2    dxz  x2-y2    tot
    1  0.040  0.001  0.015  0.004  0.016  0.000  0.000  0.005  0.008  0.090
    2  0.065  0.007  0.096  0.015  0.000  0.000  0.000  0.000  0.000  0.183
    3  0.065  0.007  0.096  0.015  0.000  0.000  0.000  0.000  0.000  0.183
tot    0.170  0.015  0.207  0.034  0.016  0.000  0.000  0.005  0.008  0.456
 
band     7 # energy   11.41314419 # occ.  0.00000000
 
ion      s     py     pz     px    dxy    dyz    dz2    dxz  x2-y2    tot
    1  0.084  0.001  0.000  0.012  0.000  0.000  0.002  0.005  0.000  0.106
    2  0.070  0.001  0.115  0.025  0.000  0.000  0.000  0.000  0.000  0.211
    3  0.070  0.001  0.115  0.025  0.000  0.000  0.000  0.000  0.000  0.211
tot    0.223  0.004  0.231  0.062  0.000  0.000  0.002  0.005  0.000  0.528
 
band     8 # energy   15.12751536 # occ.  0.00000000
 
ion      s     py     pz     px    dxy    dyz    dz2    dxz  x2-y2    tot
    1  0.043  0.024  0.002  0.007  0.007  0.001  0.001  0.001  0.016  0.100
    2  0.022  0.019  0.040  0.135  0.000  0.000  0.000  0.000  0.000  0.216
    3  0.022  0.019  0.040  0.135  0.000  0.000  0.000  0.000  0.000  0.216
tot    0.086  0.062  0.082  0.278  0.007  0.001  0.001  0.001  0.016  0.532
 

 k-point    52 :   -0.20833333 0.04166667 0.11111111     weight = 0.00617284

band     1 # energy   -6.39579016 # occ.  2.00000000
 
ion      s     py     pz     px    dxy    dyz    dz2    dxz  x2-y2    tot
    1  0.052  0.002  0.002  0.002  0.000  0.000  0.000  0.000  0.000  0.058
    2  0.211  0.005  0.001  0.006  0.000  0.000  0.000  0.000  0.000  0.223
    3  0.211  0.005  0.001  0.006  0.000  0.000  0.000  0.000  0.000  0.223
tot    0.474  0.011  0.003  0.015  0.000  0.000  0.000  0.000  0.000  0.504
 
band     2 # energy    2.21881573 # occ.  2.00000000
 
ion      s     py     pz     px    dxy    dyz    dz2    dxz  x2-y2    tot
    1  0.026  0.002  0.044  0.003  0.000  0.002  0.002  0.002  0.000  0.080
    2  0.012  0.001  0.170  0.001  0.000  0.000  0.000  0.000  0.000  0.183
    3  0.012  0.001  0.170  0.001  0.000  0.000  0.000  0.000  0.000  0.183
tot    0.049  0.003  0.383  0.005  0.000  0.002  0.002  0.002  0.000  0.447
 
band     3 # energy    3.35140123 # occ.  2.00000000
 
ion      s     py     pz     px    dxy    dyz    dz2    dxz  x2-y2    tot
    1  0.003  0.001  0.000  0.011  0.005  0.000  0.001  0.001  0.003  0.025
    2  0.065  0.069  0.001  0.165  0.000  0.000  0.000  0.000  0.000  0.300
    3  0.065  0.069  0.001  0.165  0.000  0.000  0.000  0.000  0.000  0.300
tot    0.134  0.139  0.002  0.341  0.005  0.000  0.001  0.001  0.003  0.625
 
band     4 # energy    4.60014364 # occ.  2.00000000
 
ion      s     py     pz     px    dxy    dyz    dz2    dxz  x2-y2    tot
    1  0.001  0.013  0.000  0.000  0.001  0.001  0.000  0.000  0.004  0.021
    2  0.002  0.223  0.000  0.091  0.000  0.000  0.000  0.000  0.000  0.317
    3  0.002  0.223  0.000  0.091  0.000  0.000  0.000  0.000  0.000  0.317
tot    0.005  0.459  0.000  0.183  0.001  0.001  0.000  0.000  0.004  0.654
 
band     5 # energy    8.62943837 # occ.  0.00000000
 
ion      s     py     pz     px    dxy    dyz    dz2    dxz  x2-y2    tot
    1  0.081  0.008  0.008  0.012  0.002  0.001  0.039  0.001  0.000  0.152
    2  0.042  0.005  0.038  0.014  0.000  0.000  0.000  0.000  0.000  0.099
    3  0.042  0.005  0.038  0.014  0.000  0.000  0.000  0.000  0.000  0.099
tot    0.165  0.018  0.083  0.040  0.002  0.001  0.039  0.001  0.000  0.349
 
band     6 # energy   11.41895493 # occ.  0.00000000
 
ion      s     py     pz     px    dxy    dyz    dz2    dxz  x2-y2    tot
    1  0.070  0.003  0.006  0.009  0.011  0.000  0.003  0.002  0.003  0.108
    2  0.093  0.014  0.010  0.062  0.000  0.000  0.000  0.000  0.000  0.179
    3  0.093  0.014  0.010  0.062  0.000  0.000  0.000  0.000  0.000  0.179
tot    0.257  0.030  0.026  0.132  0.011  0.000  0.003  0.002  0.003  0.465
 
band     7 # energy   12.72033389 # occ.  0.00000000
 
ion      s     py     pz     px    dxy    dyz    dz2    dxz  x2-y2    tot
    1  0.015  0.004  0.000  0.010  0.005  0.000  0.001  0.005  0.008  0.048
    2  0.005  0.009  0.204  0.029  0.000  0.000  0.000  0.000  0.000  0.246
    3  0.005  0.009  0.204  0.029  0.000  0.000  0.000  0.000  0.000  0.246
tot    0.024  0.021  0.408  0.067  0.005  0.000  0.001  0.005  0.008  0.540
 
band     8 # energy   13.97464879 # occ.  0.00000000
 
ion      s     py     pz     px    dxy    dyz    dz2    dxz  x2-y2    tot
    1  0.003  0.033  0.001  0.015  0.000  0.003  0.000  0.000  0.006  0.062
    2  0.025  0.106  0.022  0.069  0.000  0.000  0.000  0.000  0.000  0.221
    3  0.025  0.106  0.022  0.069  0.000  0.000  0.000  0.000  0.000  0.221
tot    0.053  0.245  0.044  0.152  0.000  0.003  0.000  0.000  0.006  0.505
 

 k-point    53 :   -0.12500000 0.04166667 0.11111111     weight = 0.00617284

band     1 # energy   -6.81817975 # occ.  2.00000000
 
ion      s     py     pz     px    dxy    dyz    dz2    dxz  x2-y2    tot
    1  0.056  0.001  0.002  0.001  0.000  0.000  0.000  0.000  0.000  0.060
    2  0.215  0.002  0.001  0.002  0.000  0.000  0.000  0.000  0.000  0.220
    3  0.215  0.002  0.001  0.002  0.000  0.000  0.000  0.000  0.000  0.220
tot    0.487  0.005  0.003  0.004  0.000  0.000  0.000  0.000  0.000  0.499
 
band     2 # energy    1.79816768 # occ.  2.00000000
 
ion      s     py     pz     px    dxy    dyz    dz2    dxz  x2-y2    tot
    1  0.030  0.001  0.048  0.001  0.000  0.001  0.002  0.001  0.000  0.082
    2  0.013  0.000  0.169  0.000  0.000  0.000  0.000  0.000  0.000  0.182
    3  0.013  0.000  0.169  0.000  0.000  0.000  0.000  0.000  0.000  0.182
tot    0.056  0.001  0.385  0.001  0.000  0.001  0.002  0.001  0.000  0.447
 
band     3 # energy    4.84080943 # occ.  2.00000000
 
ion      s     py     pz     px    dxy    dyz    dz2    dxz  x2-y2    tot
    1  0.000  0.000  0.000  0.006  0.005  0.000  0.000  0.000  0.005  0.017
    2  0.032  0.142  0.000  0.149  0.000  0.000  0.000  0.000  0.000  0.323
    3  0.032  0.142  0.000  0.149  0.000  0.000  0.000  0.000  0.000  0.323
tot    0.063  0.285  0.000  0.303  0.005  0.000  0.000  0.000  0.005  0.662
 
band     4 # energy    5.29903328 # occ.  1.90427573
 
ion      s     py     pz     px    dxy    dyz    dz2    dxz  x2-y2    tot
    1  0.000  0.007  0.000  0.000  0.004  0.001  0.000  0.000  0.004  0.016
    2  0.001  0.168  0.000  0.158  0.000  0.000  0.000  0.000  0.000  0.327
    3  0.001  0.168  0.000  0.158  0.000  0.000  0.000  0.000  0.000  0.327
tot    0.001  0.344  0.000  0.317  0.004  0.001  0.000  0.000  0.004  0.671
 
band     5 # energy    8.26345635 # occ.  0.00000000
 
ion      s     py     pz     px    dxy    dyz    dz2    dxz  x2-y2    tot
    1  0.101  0.005  0.010  0.004  0.000  0.000  0.041  0.000  0.000  0.160
    2  0.051  0.003  0.039  0.004  0.000  0.000  0.000  0.000  0.000  0.098
    3  0.051  0.003  0.039  0.004  0.000  0.000  0.000  0.000  0.000  0.098
tot    0.203  0.011  0.088  0.012  0.000  0.000  0.041  0.000  0.000  0.356
 
band     6 # energy   11.79388114 # occ.  0.00000000
 
ion      s     py     pz     px    dxy    dyz    dz2    dxz  x2-y2    tot
    1  0.040  0.020  0.003  0.023  0.004  0.001  0.003  0.002  0.000  0.095
    2  0.036  0.055  0.001  0.090  0.000  0.000  0.000  0.000  0.000  0.182
    3  0.036  0.055  0.001  0.090  0.000  0.000  0.000  0.000  0.000  0.182
tot    0.112  0.129  0.005  0.203  0.004  0.001  0.003  0.002  0.000  0.460
 
band     7 # energy   12.56741443 # occ.  0.00000000
 
ion      s     py     pz     px    dxy    dyz    dz2    dxz  x2-y2    tot
    1  0.001  0.030  0.000  0.022  0.000  0.003  0.000  0.003  0.006  0.065
    2  0.024  0.095  0.003  0.075  0.000  0.000  0.000  0.000  0.000  0.197
    3  0.024  0.095  0.003  0.075  0.000  0.000  0.000  0.000  0.000  0.197
tot    0.049  0.221  0.007  0.172  0.000  0.003  0.000  0.003  0.006  0.460
 
band     8 # energy   13.74245599 # occ.  0.00000000
 
ion      s     py     pz     px    dxy    dyz    dz2    dxz  x2-y2    tot
    1  0.001  0.001  0.000  0.011  0.004  0.000  0.000  0.000  0.004  0.021
    2  0.066  0.032  0.139  0.026  0.000  0.000  0.000  0.000  0.000  0.262
    3  0.066  0.032  0.139  0.026  0.000  0.000  0.000  0.000  0.000  0.262
tot    0.132  0.065  0.277  0.063  0.004  0.000  0.000  0.000  0.004  0.545
 

 k-point    54 :   -0.04166667 0.04166667 0.11111111     weight = 0.00308642

band     1 # energy   -7.00015861 # occ.  2.00000000
 
ion      s     py     pz     px    dxy    dyz    dz2    dxz  x2-y2    tot
    1  0.058  0.000  0.002  0.000  0.000  0.000  0.000  0.000  0.000  0.060
    2  0.217  0.001  0.001  0.000  0.000  0.000  0.000  0.000  0.000  0.218
    3  0.217  0.001  0.001  0.000  0.000  0.000  0.000  0.000  0.000  0.218
tot    0.493  0.001  0.003  0.000  0.000  0.000  0.000  0.000  0.000  0.497
 
band     2 # energy    1.61513935 # occ.  2.00000000
 
ion      s     py     pz     px    dxy    dyz    dz2    dxz  x2-y2    tot
    1  0.031  0.000  0.049  0.000  0.000  0.000  0.002  0.000  0.000  0.083
    2  0.014  0.000  0.168  0.000  0.000  0.000  0.000  0.000  0.000  0.182
    3  0.014  0.000  0.168  0.000  0.000  0.000  0.000  0.000  0.000  0.182
tot    0.058  0.000  0.386  0.000  0.000  0.000  0.002  0.000  0.000  0.447
 
band     3 # energy    5.65424590 # occ. -0.00037203
 
ion      s     py     pz     px    dxy    dyz    dz2    dxz  x2-y2    tot
    1  0.000  0.001  0.000  0.000  0.000  0.000  0.000  0.000  0.011  0.013
    2  0.006  0.331  0.000  0.000  0.000  0.000  0.000  0.000  0.000  0.337
    3  0.006  0.331  0.000  0.000  0.000  0.000  0.000  0.000  0.000  0.337
tot    0.012  0.664  0.000  0.000  0.000  0.000  0.000  0.000  0.011  0.687
 
band     4 # energy    5.73844501 # occ. -0.00000197
 
ion      s     py     pz     px    dxy    dyz    dz2    dxz  x2-y2    tot
    1  0.000  0.000  0.000  0.001  0.011  0.000  0.000  0.000  0.000  0.012
    2  0.000  0.000  0.000  0.339  0.000  0.000  0.000  0.000  0.000  0.339
    3  0.000  0.000  0.000  0.339  0.000  0.000  0.000  0.000  0.000  0.339
tot    0.000  0.000  0.000  0.679  0.011  0.000  0.000  0.000  0.000  0.690
 
band     5 # energy    8.10832834 # occ.  0.00000000
 
ion      s     py     pz     px    dxy    dyz    dz2    dxz  x2-y2    tot
    1  0.111  0.001  0.011  0.000  0.000  0.000  0.042  0.000  0.000  0.165
    2  0.057  0.001  0.039  0.000  0.000  0.000  0.000  0.000  0.000  0.097
    3  0.057  0.001  0.039  0.000  0.000  0.000  0.000  0.000  0.000  0.097
tot    0.224  0.004  0.090  0.000  0.000  0.000  0.042  0.000  0.000  0.360
 
band     6 # energy   11.81896149 # occ.  0.00000000
 
ion      s     py     pz     px    dxy    dyz    dz2    dxz  x2-y2    tot
    1  0.007  0.062  0.001  0.000  0.000  0.005  0.001  0.000  0.001  0.077
    2  0.006  0.177  0.000  0.000  0.000  0.000  0.000  0.000  0.000  0.183
    3  0.006  0.177  0.000  0.000  0.000  0.000  0.000  0.000  0.000  0.183
tot    0.020  0.416  0.001  0.000  0.000  0.005  0.001  0.000  0.001  0.443
 
band     7 # energy   11.96506684 # occ.  0.00000000
 
ion      s     py     pz     px    dxy    dyz    dz2    dxz  x2-y2    tot
    1  0.000  0.000  0.000  0.066  0.001  0.000  0.000  0.006  0.000  0.072
    2  0.000  0.000  0.000  0.186  0.000  0.000  0.000  0.000  0.000  0.186
    3  0.000  0.000  0.000  0.186  0.000  0.000  0.000  0.000  0.000  0.186
tot    0.000  0.000  0.000  0.438  0.001  0.000  0.000  0.006  0.000  0.444
 
band     8 # energy   13.68579856 # occ.  0.00000000
 
ion      s     py     pz     px    dxy    dyz    dz2    dxz  x2-y2    tot
    1  0.000  0.000  0.000  0.000  0.000  0.000  0.000  0.000  0.001  0.002
    2  0.209  0.010  0.047  0.000  0.000  0.000  0.000  0.000  0.000  0.266
    3  0.209  0.010  0.047  0.000  0.000  0.000  0.000  0.000  0.000  0.266
tot    0.418  0.019  0.095  0.000  0.000  0.000  0.000  0.000  0.001  0.533
 

 k-point    55 :    0.12500000 0.12500000 0.11111111     weight = 0.00308642

band     1 # energy   -6.21569152 # occ.  2.00000000
 
ion      s     py     pz     px    dxy    dyz    dz2    dxz  x2-y2    tot
    1  0.050  0.000  0.002  0.005  0.000  0.000  0.000  0.000  0.000  0.058
    2  0.209  0.000  0.000  0.015  0.000  0.000  0.000  0.000  0.000  0.224
    3  0.209  0.000  0.000  0.015  0.000  0.000  0.000  0.000  0.000  0.224
tot    0.468  0.000  0.003  0.034  0.000  0.000  0.000  0.000  0.000  0.506
 
band     2 # energy    2.39707357 # occ.  2.00000000
 
ion      s     py     pz     px    dxy    dyz    dz2    dxz  x2-y2    tot
    1  0.024  0.000  0.042  0.006  0.000  0.000  0.002  0.005  0.000  0.079
    2  0.011  0.000  0.170  0.002  0.000  0.000  0.000  0.000  0.000  0.183
    3  0.011  0.000  0.170  0.002  0.000  0.000  0.000  0.000  0.000  0.183
tot    0.046  0.001  0.382  0.010  0.000  0.000  0.002  0.005  0.000  0.446
 
band     3 # energy    3.09294866 # occ.  2.00000000
 
ion      s     py     pz     px    dxy    dyz    dz2    dxz  x2-y2    tot
    1  0.000  0.013  0.000  0.000  0.008  0.001  0.000  0.000  0.000  0.022
    2  0.079  0.029  0.000  0.197  0.000  0.000  0.000  0.000  0.000  0.305
    3  0.079  0.029  0.000  0.197  0.000  0.000  0.000  0.000  0.000  0.305
tot    0.157  0.070  0.000  0.395  0.008  0.001  0.000  0.000  0.000  0.631
 
band     4 # energy    3.97731651 # occ.  2.00000000
 
ion      s     py     pz     px    dxy    dyz    dz2    dxz  x2-y2    tot
    1  0.007  0.000  0.000  0.016  0.000  0.000  0.002  0.002  0.003  0.030
    2  0.007  0.242  0.001  0.045  0.000  0.000  0.000  0.000  0.000  0.295
    3  0.007  0.242  0.001  0.045  0.000  0.000  0.000  0.000  0.000  0.295
tot    0.021  0.484  0.002  0.106  0.000  0.000  0.002  0.002  0.003  0.621
 
band     5 # energy    8.83645195 # occ.  0.00000000
 
ion      s     py     pz     px    dxy    dyz    dz2    dxz  x2-y2    tot
    1  0.083  0.000  0.007  0.023  0.000  0.000  0.036  0.002  0.002  0.153
    2  0.043  0.010  0.038  0.012  0.000  0.000  0.000  0.000  0.000  0.102
    3  0.043  0.010  0.038  0.012  0.000  0.000  0.000  0.000  0.000  0.102
tot    0.168  0.020  0.083  0.046  0.000  0.000  0.036  0.002  0.002  0.358
 
band     6 # energy   12.07167544 # occ.  0.00000000
 
ion      s     py     pz     px    dxy    dyz    dz2    dxz  x2-y2    tot
    1  0.000  0.001  0.000  0.000  0.027  0.010  0.000  0.000  0.000  0.038
    2  0.015  0.022  0.175  0.017  0.000  0.000  0.000  0.000  0.000  0.229
    3  0.015  0.022  0.175  0.017  0.000  0.000  0.000  0.000  0.000  0.229
tot    0.031  0.045  0.351  0.033  0.027  0.010  0.000  0.000  0.000  0.497
 
band     7 # energy   12.18704196 # occ.  0.00000000
 
ion      s     py     pz     px    dxy    dyz    dz2    dxz  x2-y2    tot
    1  0.097  0.000  0.005  0.017  0.000  0.000  0.007  0.001  0.006  0.132
    2  0.057  0.087  0.002  0.040  0.000  0.000  0.000  0.000  0.000  0.186
    3  0.057  0.087  0.002  0.040  0.000  0.000  0.000  0.000  0.000  0.186
tot    0.211  0.175  0.009  0.097  0.000  0.000  0.007  0.001  0.006  0.505
 
band     8 # energy   13.46447593 # occ.  0.00000000
 
ion      s     py     pz     px    dxy    dyz    dz2    dxz  x2-y2    tot
    1  0.000  0.033  0.000  0.000  0.006  0.000  0.000  0.000  0.000  0.040
    2  0.078  0.093  0.071  0.000  0.000  0.000  0.000  0.000  0.000  0.242
    3  0.078  0.093  0.071  0.000  0.000  0.000  0.000  0.000  0.000  0.242
tot    0.156  0.219  0.143  0.001  0.006  0.000  0.000  0.000  0.000  0.524
 

 k-point    56 :    0.20833333 0.12500000 0.11111111     weight = 0.00617284

band     1 # energy   -5.56004105 # occ.  2.00000000
 
ion      s     py     pz     px    dxy    dyz    dz2    dxz  x2-y2    tot
    1  0.044  0.000  0.002  0.009  0.000  0.000  0.000  0.000  0.000  0.055
    2  0.202  0.001  0.000  0.026  0.000  0.000  0.000  0.000  0.000  0.229
    3  0.202  0.001  0.000  0.026  0.000  0.000  0.000  0.000  0.000  0.229
tot    0.448  0.001  0.003  0.060  0.000  0.000  0.000  0.000  0.000  0.513
 
band     2 # energy    1.65176995 # occ.  2.00000000
 
ion      s     py     pz     px    dxy    dyz    dz2    dxz  x2-y2    tot
    1  0.003  0.013  0.001  0.005  0.006  0.001  0.001  0.000  0.000  0.029
    2  0.101  0.046  0.000  0.139  0.000  0.000  0.000  0.000  0.000  0.286
    3  0.101  0.046  0.000  0.139  0.000  0.000  0.000  0.000  0.000  0.286
tot    0.205  0.104  0.001  0.283  0.006  0.001  0.001  0.000  0.000  0.601
 
band     3 # energy    2.96759539 # occ.  2.00000000
 
ion      s     py     pz     px    dxy    dyz    dz2    dxz  x2-y2    tot
    1  0.003  0.001  0.025  0.021  0.001  0.000  0.003  0.003  0.000  0.058
    2  0.005  0.073  0.101  0.039  0.000  0.000  0.000  0.000  0.000  0.218
    3  0.005  0.073  0.101  0.039  0.000  0.000  0.000  0.000  0.000  0.218
tot    0.013  0.147  0.227  0.099  0.001  0.000  0.003  0.003  0.000  0.494
 
band     4 # energy    3.18402765 # occ.  2.00000000
 
ion      s     py     pz     px    dxy    dyz    dz2    dxz  x2-y2    tot
    1  0.029  0.003  0.010  0.002  0.000  0.000  0.000  0.008  0.001  0.053
    2  0.023  0.128  0.073  0.030  0.000  0.000  0.000  0.000  0.000  0.254
    3  0.023  0.128  0.073  0.030  0.000  0.000  0.000  0.000  0.000  0.254
tot    0.075  0.259  0.156  0.062  0.000  0.000  0.000  0.008  0.001  0.561
 
band     5 # energy    9.43812382 # occ.  0.00000000
 
ion      s     py     pz     px    dxy    dyz    dz2    dxz  x2-y2    tot
    1  0.065  0.001  0.005  0.034  0.001  0.000  0.032  0.004  0.003  0.145
    2  0.035  0.016  0.038  0.017  0.000  0.000  0.000  0.000  0.000  0.107
    3  0.035  0.016  0.038  0.017  0.000  0.000  0.000  0.000  0.000  0.107
tot    0.136  0.033  0.081  0.069  0.001  0.000  0.032  0.004  0.003  0.359
 
band     6 # energy   10.74193340 # occ.  0.00000000
 
ion      s     py     pz     px    dxy    dyz    dz2    dxz  x2-y2    tot
    1  0.001  0.008  0.004  0.002  0.020  0.013  0.000  0.001  0.000  0.049
    2  0.004  0.007  0.192  0.014  0.000  0.000  0.000  0.000  0.000  0.218
    3  0.004  0.007  0.192  0.014  0.000  0.000  0.000  0.000  0.000  0.218
tot    0.009  0.023  0.388  0.031  0.020  0.013  0.000  0.001  0.000  0.484
 
band     7 # energy   12.14461374 # occ.  0.00000000
 
ion      s     py     pz     px    dxy    dyz    dz2    dxz  x2-y2    tot
    1  0.107  0.003  0.002  0.004  0.004  0.000  0.006  0.000  0.004  0.130
    2  0.088  0.079  0.019  0.009  0.000  0.000  0.000  0.000  0.000  0.194
    3  0.088  0.079  0.019  0.009  0.000  0.000  0.000  0.000  0.000  0.194
tot    0.283  0.160  0.039  0.022  0.004  0.000  0.006  0.000  0.004  0.519
 
band     8 # energy   14.07929335 # occ.  0.00000000
 
ion      s     py     pz     px    dxy    dyz    dz2    dxz  x2-y2    tot
    1  0.033  0.002  0.001  0.009  0.024  0.000  0.002  0.000  0.001  0.071
    2  0.050  0.111  0.031  0.030  0.000  0.000  0.000  0.000  0.000  0.223
    3  0.050  0.111  0.031  0.030  0.000  0.000  0.000  0.000  0.000  0.223
tot    0.134  0.224  0.063  0.069  0.024  0.000  0.002  0.000  0.001  0.516
 

 k-point    57 :    0.29166667 0.12500000 0.11111111     weight = 0.00617284

band     1 # energy   -4.68060470 # occ.  2.00000000
 
ion      s     py     pz     px    dxy    dyz    dz2    dxz  x2-y2    tot
    1  0.035  0.001  0.001  0.013  0.000  0.000  0.001  0.000  0.000  0.051
    2  0.194  0.002  0.000  0.039  0.000  0.000  0.000  0.000  0.000  0.236
    3  0.194  0.002  0.000  0.039  0.000  0.000  0.000  0.000  0.000  0.236
tot    0.424  0.005  0.002  0.091  0.000  0.000  0.001  0.000  0.000  0.523
 
band     2 # energy    0.05188770 # occ.  2.00000000
 
ion      s     py     pz     px    dxy    dyz    dz2    dxz  x2-y2    tot
    1  0.012  0.011  0.001  0.007  0.004  0.000  0.001  0.000  0.000  0.037
    2  0.119  0.049  0.000  0.100  0.000  0.000  0.000  0.000  0.000  0.268
    3  0.119  0.049  0.000  0.100  0.000  0.000  0.000  0.000  0.000  0.268
tot    0.249  0.109  0.001  0.207  0.004  0.000  0.001  0.000  0.000  0.573
 
band     3 # energy    2.52506602 # occ.  2.00000000
 
ion      s     py     pz     px    dxy    dyz    dz2    dxz  x2-y2    tot
    1  0.009  0.008  0.002  0.012  0.002  0.001  0.002  0.000  0.000  0.035
    2  0.025  0.182  0.001  0.074  0.000  0.000  0.000  0.000  0.000  0.282
    3  0.025  0.182  0.001  0.074  0.000  0.000  0.000  0.000  0.000  0.282
tot    0.058  0.373  0.003  0.160  0.002  0.001  0.002  0.000  0.000  0.598
 
band     4 # energy    3.90312576 # occ.  2.00000000
 
ion      s     py     pz     px    dxy    dyz    dz2    dxz  x2-y2    tot
    1  0.018  0.001  0.024  0.010  0.000  0.001  0.001  0.016  0.001  0.071
    2  0.011  0.003  0.178  0.001  0.000  0.000  0.000  0.000  0.000  0.193
    3  0.011  0.003  0.178  0.001  0.000  0.000  0.000  0.000  0.000  0.193
tot    0.039  0.007  0.380  0.013  0.000  0.001  0.001  0.016  0.001  0.457
 
band     5 # energy    9.19661521 # occ.  0.00000000
 
ion      s     py     pz     px    dxy    dyz    dz2    dxz  x2-y2    tot
    1  0.011  0.007  0.009  0.000  0.015  0.014  0.003  0.003  0.002  0.064
    2  0.000  0.007  0.175  0.013  0.000  0.000  0.000  0.000  0.000  0.196
    3  0.000  0.007  0.175  0.013  0.000  0.000  0.000  0.000  0.000  0.196
tot    0.011  0.022  0.359  0.027  0.015  0.014  0.003  0.003  0.002  0.456
 
band     6 # energy   10.25095998 # occ.  0.00000000
 
ion      s     py     pz     px    dxy    dyz    dz2    dxz  x2-y2    tot
    1  0.024  0.008  0.006  0.051  0.001  0.000  0.024  0.003  0.005  0.123
    2  0.029  0.024  0.048  0.020  0.000  0.000  0.000  0.000  0.000  0.121
    3  0.029  0.024  0.048  0.020  0.000  0.000  0.000  0.000  0.000  0.121
tot    0.082  0.056  0.101  0.091  0.001  0.000  0.024  0.003  0.005  0.364
 
band     7 # energy   11.78428054 # occ.  0.00000000
 
ion      s     py     pz     px    dxy    dyz    dz2    dxz  x2-y2    tot
    1  0.113  0.000  0.001  0.002  0.013  0.000  0.003  0.001  0.002  0.136
    2  0.105  0.050  0.015  0.013  0.000  0.000  0.000  0.000  0.000  0.183
    3  0.105  0.050  0.015  0.013  0.000  0.000  0.000  0.000  0.000  0.183
tot    0.322  0.100  0.030  0.029  0.013  0.000  0.003  0.001  0.002  0.502
 
band     8 # energy   14.31224759 # occ.  0.00000000
 
ion      s     py     pz     px    dxy    dyz    dz2    dxz  x2-y2    tot
    1  0.112  0.009  0.001  0.028  0.023  0.004  0.000  0.000  0.000  0.178
    2  0.003  0.071  0.048  0.045  0.000  0.000  0.000  0.000  0.000  0.167
    3  0.003  0.071  0.048  0.045  0.000  0.000  0.000  0.000  0.000  0.167
tot    0.118  0.150  0.097  0.119  0.023  0.004  0.000  0.000  0.000  0.512
 

 k-point    58 :    0.37500000 0.12500000 0.11111111     weight = 0.00617284

band     1 # energy   -3.60642479 # occ.  2.00000000
 
ion      s     py     pz     px    dxy    dyz    dz2    dxz  x2-y2    tot
    1  0.022  0.002  0.001  0.018  0.000  0.000  0.001  0.000  0.001  0.045
    2  0.190  0.005  0.000  0.051  0.000  0.000  0.000  0.000  0.000  0.246
    3  0.190  0.005  0.000  0.051  0.000  0.000  0.000  0.000  0.000  0.246
tot    0.402  0.011  0.002  0.121  0.000  0.000  0.001  0.000  0.001  0.538
 
band     2 # energy   -1.46270547 # occ.  2.00000000
 
ion      s     py     pz     px    dxy    dyz    dz2    dxz  x2-y2    tot
    1  0.025  0.009  0.001  0.006  0.003  0.000  0.001  0.000  0.000  0.046
    2  0.129  0.044  0.000  0.078  0.000  0.000  0.000  0.000  0.000  0.252
    3  0.129  0.044  0.000  0.078  0.000  0.000  0.000  0.000  0.000  0.252
tot    0.284  0.098  0.002  0.162  0.003  0.000  0.001  0.000  0.000  0.550
 
band     3 # energy    2.22266793 # occ.  2.00000000
 
ion      s     py     pz     px    dxy    dyz    dz2    dxz  x2-y2    tot
    1  0.010  0.013  0.001  0.008  0.001  0.001  0.002  0.000  0.000  0.035
    2  0.029  0.183  0.000  0.070  0.000  0.000  0.000  0.000  0.000  0.282
    3  0.029  0.183  0.000  0.070  0.000  0.000  0.000  0.000  0.000  0.282
tot    0.069  0.378  0.001  0.147  0.001  0.001  0.002  0.000  0.000  0.600
 
band     4 # energy    4.79811989 # occ.  2.00000000
 
ion      s     py     pz     px    dxy    dyz    dz2    dxz  x2-y2    tot
    1  0.006  0.003  0.009  0.016  0.000  0.003  0.000  0.023  0.001  0.061
    2  0.009  0.002  0.188  0.002  0.000  0.000  0.000  0.000  0.000  0.201
    3  0.009  0.002  0.188  0.002  0.000  0.000  0.000  0.000  0.000  0.201
tot    0.024  0.006  0.385  0.020  0.000  0.003  0.000  0.023  0.001  0.462
 
band     5 # energy    7.91824151 # occ. -0.00000000
 
ion      s     py     pz     px    dxy    dyz    dz2    dxz  x2-y2    tot
    1  0.018  0.007  0.025  0.000  0.010  0.011  0.002  0.001  0.002  0.076
    2  0.001  0.005  0.170  0.010  0.000  0.000  0.000  0.000  0.000  0.185
    3  0.001  0.005  0.170  0.010  0.000  0.000  0.000  0.000  0.000  0.185
tot    0.020  0.017  0.365  0.020  0.010  0.011  0.002  0.001  0.002  0.447
 
band     6 # energy   10.86227712 # occ.  0.00000000
 
ion      s     py     pz     px    dxy    dyz    dz2    dxz  x2-y2    tot
    1  0.001  0.004  0.002  0.029  0.013  0.000  0.022  0.002  0.010  0.084
    2  0.042  0.056  0.026  0.021  0.000  0.000  0.000  0.000  0.000  0.145
    3  0.042  0.056  0.026  0.021  0.000  0.000  0.000  0.000  0.000  0.145
tot    0.085  0.116  0.054  0.072  0.013  0.000  0.022  0.002  0.010  0.374
 
band     7 # energy   11.67675816 # occ.  0.00000000
 
ion      s     py     pz     px    dxy    dyz    dz2    dxz  x2-y2    tot
    1  0.071  0.012  0.000  0.049  0.009  0.001  0.000  0.005  0.000  0.148
    2  0.075  0.010  0.026  0.035  0.000  0.000  0.000  0.000  0.000  0.146
    3  0.075  0.010  0.026  0.035  0.000  0.000  0.000  0.000  0.000  0.146
tot    0.222  0.031  0.053  0.119  0.009  0.001  0.000  0.005  0.000  0.440
 
band     8 # energy   13.67384165 # occ.  0.00000000
 
ion      s     py     pz     px    dxy    dyz    dz2    dxz  x2-y2    tot
    1  0.201  0.012  0.000  0.014  0.011  0.007  0.002  0.001  0.001  0.247
    2  0.022  0.038  0.053  0.031  0.000  0.000  0.000  0.000  0.000  0.145
    3  0.022  0.038  0.053  0.031  0.000  0.000  0.000  0.000  0.000  0.145
tot    0.245  0.087  0.107  0.076  0.011  0.007  0.002  0.001  0.001  0.537
 

 k-point    59 :    0.45833333 0.12500000 0.11111111     weight = 0.00617284

band     1 # energy   -3.06494679 # occ.  2.00000000
 
ion      s     py     pz     px    dxy    dyz    dz2    dxz  x2-y2    tot
    1  0.008  0.010  0.000  0.018  0.001  0.000  0.000  0.001  0.000  0.038
    2  0.203  0.025  0.000  0.028  0.000  0.000  0.000  0.000  0.000  0.256
    3  0.203  0.025  0.000  0.028  0.000  0.000  0.000  0.000  0.000  0.256
tot    0.414  0.059  0.001  0.075  0.001  0.000  0.000  0.001  0.000  0.551
 
band     2 # energy   -2.09475777 # occ.  2.00000000
 
ion      s     py     pz     px    dxy    dyz    dz2    dxz  x2-y2    tot
    1  0.039  0.000  0.002  0.008  0.002  0.000  0.002  0.000  0.001  0.054
    2  0.117  0.022  0.000  0.101  0.000  0.000  0.000  0.000  0.000  0.241
    3  0.117  0.022  0.000  0.101  0.000  0.000  0.000  0.000  0.000  0.241
tot    0.274  0.044  0.003  0.210  0.002  0.000  0.002  0.000  0.001  0.536
 
band     3 # energy    2.16194293 # occ.  2.00000000
 
ion      s     py     pz     px    dxy    dyz    dz2    dxz  x2-y2    tot
    1  0.010  0.016  0.001  0.004  0.001  0.001  0.002  0.000  0.000  0.035
    2  0.030  0.188  0.000  0.064  0.000  0.000  0.000  0.000  0.000  0.282
    3  0.030  0.188  0.000  0.064  0.000  0.000  0.000  0.000  0.000  0.282
tot    0.071  0.391  0.001  0.133  0.001  0.001  0.002  0.000  0.000  0.600
 
band     4 # energy    5.10392437 # occ.  2.00127316
 
ion      s     py     pz     px    dxy    dyz    dz2    dxz  x2-y2    tot
    1  0.001  0.006  0.001  0.015  0.000  0.009  0.000  0.021  0.000  0.055
    2  0.008  0.001  0.194  0.003  0.000  0.000  0.000  0.000  0.000  0.206
    3  0.008  0.001  0.194  0.003  0.000  0.000  0.000  0.000  0.000  0.206
tot    0.018  0.009  0.389  0.020  0.000  0.009  0.000  0.021  0.000  0.467
 
band     5 # energy    7.52962955 # occ. -0.00000000
 
ion      s     py     pz     px    dxy    dyz    dz2    dxz  x2-y2    tot
    1  0.023  0.002  0.034  0.003  0.008  0.003  0.002  0.004  0.003  0.083
    2  0.001  0.006  0.164  0.009  0.000  0.000  0.000  0.000  0.000  0.179
    3  0.001  0.006  0.164  0.009  0.000  0.000  0.000  0.000  0.000  0.179
tot    0.026  0.013  0.361  0.020  0.008  0.003  0.002  0.004  0.003  0.441
 
band     6 # energy   10.98458274 # occ.  0.00000000
 
ion      s     py     pz     px    dxy    dyz    dz2    dxz  x2-y2    tot
    1  0.016  0.003  0.001  0.002  0.025  0.000  0.020  0.000  0.006  0.075
    2  0.061  0.045  0.017  0.040  0.000  0.000  0.000  0.000  0.000  0.163
    3  0.061  0.045  0.017  0.040  0.000  0.000  0.000  0.000  0.000  0.163
tot    0.138  0.093  0.035  0.082  0.025  0.000  0.020  0.000  0.006  0.401
 
band     7 # energy   11.75618692 # occ.  0.00000000
 
ion      s     py     pz     px    dxy    dyz    dz2    dxz  x2-y2    tot
    1  0.012  0.030  0.000  0.082  0.000  0.003  0.000  0.005  0.005  0.137
    2  0.044  0.024  0.035  0.020  0.000  0.000  0.000  0.000  0.000  0.123
    3  0.044  0.024  0.035  0.020  0.000  0.000  0.000  0.000  0.000  0.123
tot    0.100  0.079  0.071  0.121  0.000  0.003  0.000  0.005  0.005  0.384
 
band     8 # energy   13.42122189 # occ.  0.00000000
 
ion      s     py     pz     px    dxy    dyz    dz2    dxz  x2-y2    tot
    1  0.248  0.000  0.000  0.006  0.005  0.005  0.003  0.003  0.003  0.273
    2  0.036  0.011  0.053  0.045  0.000  0.000  0.000  0.000  0.000  0.145
    3  0.036  0.011  0.053  0.045  0.000  0.000  0.000  0.000  0.000  0.145
tot    0.320  0.022  0.107  0.095  0.005  0.005  0.003  0.003  0.003  0.563
 

 k-point    60 :   -0.45833333 0.12500000 0.11111111     weight = 0.00617284

band     1 # energy   -4.16335567 # occ.  2.00000000
 
ion      s     py     pz     px    dxy    dyz    dz2    dxz  x2-y2    tot
    1  0.030  0.008  0.001  0.008  0.001  0.000  0.001  0.000  0.000  0.049
    2  0.191  0.025  0.000  0.024  0.000  0.000  0.000  0.000  0.000  0.241
    3  0.191  0.025  0.000  0.024  0.000  0.000  0.000  0.000  0.000  0.241
tot    0.411  0.058  0.002  0.057  0.001  0.000  0.001  0.000  0.000  0.530
 
band     2 # energy   -0.72667783 # occ.  2.00000000
 
ion      s     py     pz     px    dxy    dyz    dz2    dxz  x2-y2    tot
    1  0.018  0.000  0.001  0.017  0.002  0.000  0.001  0.001  0.002  0.042
    2  0.126  0.022  0.000  0.112  0.000  0.000  0.000  0.000  0.000  0.260
    3  0.126  0.022  0.000  0.112  0.000  0.000  0.000  0.000  0.000  0.260
tot    0.270  0.045  0.002  0.240  0.002  0.000  0.001  0.001  0.002  0.561
 
band     3 # energy    2.34360728 # occ.  2.00000000
 
ion      s     py     pz     px    dxy    dyz    dz2    dxz  x2-y2    tot
    1  0.009  0.019  0.001  0.002  0.000  0.001  0.002  0.000  0.001  0.035
    2  0.028  0.192  0.000  0.062  0.000  0.000  0.000  0.000  0.000  0.282
    3  0.028  0.192  0.000  0.062  0.000  0.000  0.000  0.000  0.000  0.282
tot    0.065  0.404  0.002  0.125  0.000  0.001  0.002  0.000  0.001  0.600
 
band     4 # energy    4.36132067 # occ.  2.00000000
 
ion      s     py     pz     px    dxy    dyz    dz2    dxz  x2-y2    tot
    1  0.012  0.006  0.017  0.008  0.001  0.010  0.001  0.011  0.000  0.067
    2  0.010  0.001  0.183  0.003  0.000  0.000  0.000  0.000  0.000  0.196
    3  0.010  0.001  0.183  0.003  0.000  0.000  0.000  0.000  0.000  0.196
tot    0.032  0.008  0.383  0.014  0.001  0.010  0.001  0.011  0.000  0.459
 
band     5 # energy    8.51557568 # occ.  0.00000000
 
ion      s     py     pz     px    dxy    dyz    dz2    dxz  x2-y2    tot
    1  0.013  0.001  0.017  0.007  0.009  0.000  0.002  0.015  0.006  0.069
    2  0.000  0.007  0.175  0.009  0.000  0.000  0.000  0.000  0.000  0.192
    3  0.000  0.007  0.175  0.009  0.000  0.000  0.000  0.000  0.000  0.192
tot    0.014  0.016  0.367  0.025  0.009  0.000  0.002  0.015  0.006  0.453
 
band     6 # energy   10.59352382 # occ.  0.00000000
 
ion      s     py     pz     px    dxy    dyz    dz2    dxz  x2-y2    tot
    1  0.006  0.022  0.003  0.035  0.013  0.002  0.023  0.001  0.000  0.106
    2  0.029  0.016  0.037  0.044  0.000  0.000  0.000  0.000  0.000  0.126
    3  0.029  0.016  0.037  0.044  0.000  0.000  0.000  0.000  0.000  0.126
tot    0.064  0.055  0.077  0.123  0.013  0.002  0.023  0.001  0.000  0.358
 
band     7 # energy   11.67876092 # occ.  0.00000000
 
ion      s     py     pz     px    dxy    dyz    dz2    dxz  x2-y2    tot
    1  0.106  0.007  0.001  0.010  0.008  0.001  0.002  0.002  0.007  0.143
    2  0.099  0.044  0.018  0.009  0.000  0.000  0.000  0.000  0.000  0.170
    3  0.099  0.044  0.018  0.009  0.000  0.000  0.000  0.000  0.000  0.170
tot    0.304  0.095  0.036  0.029  0.008  0.001  0.002  0.002  0.007  0.484
 
band     8 # energy   14.02151767 # occ.  0.00000000
 
ion      s     py     pz     px    dxy    dyz    dz2    dxz  x2-y2    tot
    1  0.153  0.007  0.001  0.032  0.007  0.003  0.000  0.003  0.011  0.217
    2  0.009  0.003  0.052  0.086  0.000  0.000  0.000  0.000  0.000  0.150
    3  0.009  0.003  0.052  0.086  0.000  0.000  0.000  0.000  0.000  0.150
tot    0.170  0.013  0.106  0.204  0.007  0.003  0.000  0.003  0.011  0.517
 

 k-point    61 :   -0.37500000 0.12500000 0.11111111     weight = 0.00617284

band     1 # energy   -5.14737720 # occ.  2.00000000
 
ion      s     py     pz     px    dxy    dyz    dz2    dxz  x2-y2    tot
    1  0.040  0.006  0.002  0.005  0.000  0.000  0.000  0.000  0.000  0.053
    2  0.198  0.019  0.000  0.014  0.000  0.000  0.000  0.000  0.000  0.232
    3  0.198  0.019  0.000  0.014  0.000  0.000  0.000  0.000  0.000  0.232
tot    0.436  0.045  0.002  0.033  0.000  0.000  0.000  0.000  0.000  0.518
 
band     2 # energy    0.85313996 # occ.  2.00000000
 
ion      s     py     pz     px    dxy    dyz    dz2    dxz  x2-y2    tot
    1  0.007  0.000  0.001  0.018  0.002  0.000  0.001  0.001  0.003  0.033
    2  0.110  0.039  0.000  0.127  0.000  0.000  0.000  0.000  0.000  0.277
    3  0.110  0.039  0.000  0.127  0.000  0.000  0.000  0.000  0.000  0.277
tot    0.228  0.078  0.001  0.273  0.002  0.000  0.001  0.001  0.003  0.587
 
band     3 # energy    2.76586903 # occ.  2.00000000
 
ion      s     py     pz     px    dxy    dyz    dz2    dxz  x2-y2    tot
    1  0.006  0.022  0.003  0.000  0.000  0.001  0.002  0.000  0.002  0.036
    2  0.019  0.188  0.003  0.069  0.000  0.000  0.000  0.000  0.000  0.279
    3  0.019  0.188  0.003  0.069  0.000  0.000  0.000  0.000  0.000  0.279
tot    0.045  0.397  0.009  0.138  0.000  0.001  0.002  0.000  0.002  0.594
 
band     4 # energy    3.47056935 # occ.  2.00000000
 
ion      s     py     pz     px    dxy    dyz    dz2    dxz  x2-y2    tot
    1  0.023  0.003  0.028  0.004  0.000  0.008  0.001  0.006  0.000  0.074
    2  0.013  0.003  0.173  0.005  0.000  0.000  0.000  0.000  0.000  0.194
    3  0.013  0.003  0.173  0.005  0.000  0.000  0.000  0.000  0.000  0.194
tot    0.050  0.009  0.374  0.014  0.000  0.008  0.001  0.006  0.000  0.461
 
band     5 # energy    9.69358950 # occ.  0.00000000
 
ion      s     py     pz     px    dxy    dyz    dz2    dxz  x2-y2    tot
    1  0.043  0.018  0.000  0.005  0.012  0.001  0.023  0.010  0.002  0.114
    2  0.019  0.016  0.076  0.024  0.000  0.000  0.000  0.000  0.000  0.134
    3  0.019  0.016  0.076  0.024  0.000  0.000  0.000  0.000  0.000  0.134
tot    0.081  0.050  0.151  0.053  0.012  0.001  0.023  0.010  0.002  0.383
 
band     6 # energy   10.11108336 # occ.  0.00000000
 
ion      s     py     pz     px    dxy    dyz    dz2    dxz  x2-y2    tot
    1  0.009  0.005  0.011  0.029  0.001  0.002  0.006  0.007  0.007  0.078
    2  0.015  0.006  0.153  0.011  0.000  0.000  0.000  0.000  0.000  0.185
    3  0.015  0.006  0.153  0.011  0.000  0.000  0.000  0.000  0.000  0.185
tot    0.038  0.018  0.317  0.052  0.001  0.002  0.006  0.007  0.007  0.449
 
band     7 # energy   11.95361943 # occ.  0.00000000
 
ion      s     py     pz     px    dxy    dyz    dz2    dxz  x2-y2    tot
    1  0.111  0.000  0.001  0.001  0.010  0.000  0.005  0.001  0.003  0.131
    2  0.100  0.032  0.016  0.042  0.000  0.000  0.000  0.000  0.000  0.190
    3  0.100  0.032  0.016  0.042  0.000  0.000  0.000  0.000  0.000  0.190
tot    0.312  0.064  0.033  0.086  0.010  0.000  0.005  0.001  0.003  0.512
 
band     8 # energy   14.36798536 # occ.  0.00000000
 
ion      s     py     pz     px    dxy    dyz    dz2    dxz  x2-y2    tot
    1  0.070  0.011  0.000  0.011  0.006  0.001  0.001  0.001  0.022  0.120
    2  0.017  0.014  0.038  0.129  0.000  0.000  0.000  0.000  0.000  0.198
    3  0.017  0.014  0.038  0.129  0.000  0.000  0.000  0.000  0.000  0.198
tot    0.104  0.038  0.077  0.268  0.006  0.001  0.001  0.001  0.022  0.517
 

 k-point    62 :   -0.29166667 0.12500000 0.11111111     weight = 0.00617284

band     1 # energy   -5.91678890 # occ.  2.00000000
 
ion      s     py     pz     px    dxy    dyz    dz2    dxz  x2-y2    tot
    1  0.047  0.005  0.002  0.002  0.000  0.000  0.000  0.000  0.000  0.056
    2  0.206  0.013  0.000  0.006  0.000  0.000  0.000  0.000  0.000  0.226
    3  0.206  0.013  0.000  0.006  0.000  0.000  0.000  0.000  0.000  0.226
tot    0.459  0.032  0.003  0.015  0.000  0.000  0.000  0.000  0.000  0.509
 
band     2 # energy    2.41224824 # occ.  2.00000000
 
ion      s     py     pz     px    dxy    dyz    dz2    dxz  x2-y2    tot
    1  0.000  0.000  0.001  0.015  0.003  0.000  0.000  0.000  0.005  0.025
    2  0.089  0.092  0.002  0.111  0.000  0.000  0.000  0.000  0.000  0.295
    3  0.089  0.092  0.002  0.111  0.000  0.000  0.000  0.000  0.000  0.295
tot    0.179  0.184  0.006  0.237  0.003  0.000  0.000  0.000  0.005  0.614
 
band     3 # energy    2.69053368 # occ.  2.00000000
 
ion      s     py     pz     px    dxy    dyz    dz2    dxz  x2-y2    tot
    1  0.021  0.007  0.038  0.001  0.000  0.004  0.002  0.003  0.000  0.077
    2  0.011  0.010  0.166  0.000  0.000  0.000  0.000  0.000  0.000  0.187
    3  0.011  0.010  0.166  0.000  0.000  0.000  0.000  0.000  0.000  0.187
tot    0.043  0.026  0.370  0.001  0.000  0.004  0.002  0.003  0.000  0.451
 
band     4 # energy    3.50548442 # occ.  2.00000000
 
ion      s     py     pz     px    dxy    dyz    dz2    dxz  x2-y2    tot
    1  0.012  0.015  0.000  0.001  0.001  0.002  0.002  0.000  0.001  0.035
    2  0.013  0.142  0.004  0.129  0.000  0.000  0.000  0.000  0.000  0.288
    3  0.013  0.142  0.004  0.129  0.000  0.000  0.000  0.000  0.000  0.288
tot    0.038  0.299  0.008  0.259  0.001  0.002  0.002  0.000  0.001  0.610
 
band     5 # energy    9.12058673 # occ.  0.00000000
 
ion      s     py     pz     px    dxy    dyz    dz2    dxz  x2-y2    tot
    1  0.076  0.019  0.006  0.010  0.002  0.002  0.034  0.001  0.000  0.151
    2  0.040  0.012  0.038  0.015  0.000  0.000  0.000  0.000  0.000  0.104
    3  0.040  0.012  0.038  0.015  0.000  0.000  0.000  0.000  0.000  0.104
tot    0.155  0.043  0.082  0.040  0.002  0.002  0.034  0.001  0.000  0.359
 
band     6 # energy   11.43567614 # occ.  0.00000000
 
ion      s     py     pz     px    dxy    dyz    dz2    dxz  x2-y2    tot
    1  0.002  0.001  0.001  0.004  0.009  0.002  0.000  0.011  0.015  0.044
    2  0.008  0.016  0.187  0.013  0.000  0.000  0.000  0.000  0.000  0.224
    3  0.008  0.016  0.187  0.013  0.000  0.000  0.000  0.000  0.000  0.224
tot    0.017  0.033  0.375  0.031  0.009  0.002  0.000  0.011  0.015  0.492
 
band     7 # energy   12.27643539 # occ.  0.00000000
 
ion      s     py     pz     px    dxy    dyz    dz2    dxz  x2-y2    tot
    1  0.104  0.004  0.003  0.009  0.005  0.000  0.007  0.000  0.000  0.133
    2  0.067  0.028  0.018  0.081  0.000  0.000  0.000  0.000  0.000  0.193
    3  0.067  0.028  0.018  0.081  0.000  0.000  0.000  0.000  0.000  0.193
tot    0.238  0.059  0.040  0.170  0.005  0.000  0.007  0.000  0.000  0.520
 
band     8 # energy   13.66439126 # occ.  0.00000000
 
ion      s     py     pz     px    dxy    dyz    dz2    dxz  x2-y2    tot
    1  0.009  0.011  0.001  0.007  0.002  0.000  0.001  0.000  0.015  0.045
    2  0.080  0.036  0.040  0.079  0.000  0.000  0.000  0.000  0.000  0.234
    3  0.080  0.036  0.040  0.079  0.000  0.000  0.000  0.000  0.000  0.234
tot    0.168  0.084  0.080  0.165  0.002  0.000  0.001  0.000  0.015  0.513
 

 k-point    63 :   -0.20833333 0.12500000 0.11111111     weight = 0.00617284

band     1 # energy   -6.45596617 # occ.  2.00000000
 
ion      s     py     pz     px    dxy    dyz    dz2    dxz  x2-y2    tot
    1  0.052  0.003  0.002  0.001  0.000  0.000  0.000  0.000  0.000  0.058
    2  0.212  0.009  0.001  0.002  0.000  0.000  0.000  0.000  0.000  0.222
    3  0.212  0.009  0.001  0.002  0.000  0.000  0.000  0.000  0.000  0.222
tot    0.476  0.020  0.003  0.004  0.000  0.000  0.000  0.000  0.000  0.503
 
band     2 # energy    2.15980577 # occ.  2.00000000
 
ion      s     py     pz     px    dxy    dyz    dz2    dxz  x2-y2    tot
    1  0.027  0.003  0.044  0.001  0.000  0.003  0.002  0.001  0.000  0.081
    2  0.012  0.001  0.170  0.000  0.000  0.000  0.000  0.000  0.000  0.183
    3  0.012  0.001  0.170  0.000  0.000  0.000  0.000  0.000  0.000  0.183
tot    0.050  0.006  0.384  0.001  0.000  0.003  0.002  0.001  0.000  0.447
 
band     3 # energy    3.66180799 # occ.  2.00000000
 
ion      s     py     pz     px    dxy    dyz    dz2    dxz  x2-y2    tot
    1  0.001  0.006  0.000  0.004  0.001  0.000  0.000  0.000  0.008  0.021
    2  0.063  0.214  0.000  0.031  0.000  0.000  0.000  0.000  0.000  0.308
    3  0.063  0.214  0.000  0.031  0.000  0.000  0.000  0.000  0.000  0.308
tot    0.126  0.434  0.000  0.067  0.001  0.000  0.000  0.000  0.008  0.638
 
band     4 # energy    4.49965859 # occ.  2.00000000
 
ion      s     py     pz     px    dxy    dyz    dz2    dxz  x2-y2    tot
    1  0.003  0.007  0.000  0.007  0.005  0.001  0.001  0.001  0.000  0.024
    2  0.004  0.043  0.000  0.260  0.000  0.000  0.000  0.000  0.000  0.308
    3  0.004  0.043  0.000  0.260  0.000  0.000  0.000  0.000  0.000  0.308
tot    0.011  0.093  0.001  0.528  0.005  0.001  0.001  0.001  0.000  0.640
 
band     5 # energy    8.59999119 # occ.  0.00000000
 
ion      s     py     pz     px    dxy    dyz    dz2    dxz  x2-y2    tot
    1  0.088  0.015  0.008  0.003  0.001  0.002  0.038  0.000  0.001  0.155
    2  0.045  0.011  0.038  0.006  0.000  0.000  0.000  0.000  0.000  0.100
    3  0.045  0.011  0.038  0.006  0.000  0.000  0.000  0.000  0.000  0.100
tot    0.178  0.038  0.085  0.014  0.001  0.002  0.038  0.000  0.001  0.356
 
band     6 # energy   11.88203821 # occ.  0.00000000
 
ion      s     py     pz     px    dxy    dyz    dz2    dxz  x2-y2    tot
    1  0.070  0.019  0.004  0.001  0.001  0.002  0.005  0.000  0.009  0.111
    2  0.064  0.074  0.008  0.040  0.000  0.000  0.000  0.000  0.000  0.185
    3  0.064  0.074  0.008  0.040  0.000  0.000  0.000  0.000  0.000  0.185
tot    0.197  0.167  0.020  0.080  0.001  0.002  0.005  0.000  0.009  0.481
 
band     7 # energy   12.63166741 # occ.  0.00000000
 
ion      s     py     pz     px    dxy    dyz    dz2    dxz  x2-y2    tot
    1  0.010  0.003  0.000  0.004  0.008  0.002  0.001  0.005  0.014  0.047
    2  0.030  0.025  0.127  0.044  0.000  0.000  0.000  0.000  0.000  0.227
    3  0.030  0.025  0.127  0.044  0.000  0.000  0.000  0.000  0.000  0.227
tot    0.071  0.053  0.253  0.093  0.008  0.002  0.001  0.005  0.014  0.500
 
band     8 # energy   13.52036991 # occ.  0.00000000
 
ion      s     py     pz     px    dxy    dyz    dz2    dxz  x2-y2    tot
    1  0.000  0.007  0.000  0.038  0.001  0.000  0.000  0.000  0.000  0.047
    2  0.035  0.010  0.111  0.089  0.000  0.000  0.000  0.000  0.000  0.245
    3  0.035  0.010  0.111  0.089  0.000  0.000  0.000  0.000  0.000  0.245
tot    0.071  0.027  0.222  0.215  0.001  0.000  0.000  0.000  0.000  0.537
 

 k-point    64 :   -0.12500000 0.12500000 0.11111111     weight = 0.00308642

band     1 # energy   -6.75764551 # occ.  2.00000000
 
ion      s     py     pz     px    dxy    dyz    dz2    dxz  x2-y2    tot
    1  0.056  0.002  0.002  0.000  0.000  0.000  0.000  0.000  0.000  0.059
    2  0.215  0.005  0.001  0.000  0.000  0.000  0.000  0.000  0.000  0.220
    3  0.215  0.005  0.001  0.000  0.000  0.000  0.000  0.000  0.000  0.220
tot    0.485  0.012  0.003  0.000  0.000  0.000  0.000  0.000  0.000  0.500
 
band     2 # energy    1.85932088 # occ.  2.00000000
 
ion      s     py     pz     px    dxy    dyz    dz2    dxz  x2-y2    tot
    1  0.029  0.002  0.047  0.000  0.000  0.002  0.002  0.000  0.000  0.082
    2  0.013  0.001  0.169  0.000  0.000  0.000  0.000  0.000  0.000  0.183
    3  0.013  0.001  0.169  0.000  0.000  0.000  0.000  0.000  0.000  0.183
tot    0.055  0.003  0.385  0.000  0.000  0.002  0.002  0.000  0.000  0.447
 
band     3 # energy    4.55639076 # occ.  2.00000000
 
ion      s     py     pz     px    dxy    dyz    dz2    dxz  x2-y2    tot
    1  0.001  0.008  0.000  0.000  0.000  0.001  0.000  0.000  0.009  0.019
    2  0.038  0.278  0.000  0.000  0.000  0.000  0.000  0.000  0.000  0.317
    3  0.038  0.278  0.000  0.000  0.000  0.000  0.000  0.000  0.000  0.317
tot    0.077  0.564  0.000  0.000  0.000  0.001  0.000  0.000  0.009  0.652
 
band     4 # energy    5.23027049 # occ.  2.06587214
 
ion      s     py     pz     px    dxy    dyz    dz2    dxz  x2-y2    tot
    1  0.000  0.000  0.000  0.008  0.008  0.000  0.000  0.001  0.000  0.016
    2  0.000  0.000  0.000  0.328  0.000  0.000  0.000  0.000  0.000  0.328
    3  0.000  0.000  0.000  0.328  0.000  0.000  0.000  0.000  0.000  0.328
tot    0.000  0.000  0.000  0.665  0.008  0.000  0.000  0.001  0.000  0.673
 
band     5 # energy    8.31183857 # occ.  0.00000000
 
ion      s     py     pz     px    dxy    dyz    dz2    dxz  x2-y2    tot
    1  0.097  0.010  0.009  0.000  0.000  0.001  0.041  0.000  0.000  0.159
    2  0.049  0.009  0.039  0.000  0.000  0.000  0.000  0.000  0.000  0.097
    3  0.049  0.009  0.039  0.000  0.000  0.000  0.000  0.000  0.000  0.097
tot    0.195  0.029  0.087  0.000  0.000  0.001  0.041  0.000  0.000  0.353
 
band     6 # energy   11.61768983 # occ.  0.00000000
 
ion      s     py     pz     px    dxy    dyz    dz2    dxz  x2-y2    tot
    1  0.046  0.035  0.003  0.000  0.000  0.003  0.003  0.000  0.007  0.097
    2  0.060  0.118  0.003  0.000  0.000  0.000  0.000  0.000  0.000  0.180
    3  0.060  0.118  0.003  0.000  0.000  0.000  0.000  0.000  0.000  0.180
tot    0.166  0.270  0.008  0.000  0.000  0.003  0.003  0.000  0.007  0.457
 
band     7 # energy   12.97092508 # occ.  0.00000000
 
ion      s     py     pz     px    dxy    dyz    dz2    dxz  x2-y2    tot
    1  0.000  0.000  0.000  0.060  0.004  0.000  0.000  0.005  0.000  0.070
    2  0.000  0.000  0.000  0.200  0.000  0.000  0.000  0.000  0.000  0.200
    3  0.000  0.000  0.000  0.200  0.000  0.000  0.000  0.000  0.000  0.200
tot    0.000  0.000  0.000  0.459  0.004  0.000  0.000  0.005  0.000  0.469
 
band     8 # energy   13.60905435 # occ.  0.00000000
 
ion      s     py     pz     px    dxy    dyz    dz2    dxz  x2-y2    tot
    1  0.004  0.009  0.000  0.000  0.000  0.001  0.000  0.000  0.011  0.025
    2  0.047  0.046  0.168  0.000  0.000  0.000  0.000  0.000  0.000  0.262
    3  0.047  0.046  0.168  0.000  0.000  0.000  0.000  0.000  0.000  0.262
tot    0.099  0.101  0.336  0.000  0.000  0.001  0.000  0.000  0.011  0.549
 

 k-point    65 :    0.20833333 0.20833333 0.11111111     weight = 0.00308642

band     1 # energy   -4.79706432 # occ.  2.00000000
 
ion      s     py     pz     px    dxy    dyz    dz2    dxz  x2-y2    tot
    1  0.036  0.000  0.001  0.013  0.000  0.000  0.001  0.000  0.000  0.052
    2  0.195  0.000  0.000  0.039  0.000  0.000  0.000  0.000  0.000  0.235
    3  0.195  0.000  0.000  0.039  0.000  0.000  0.000  0.000  0.000  0.235
tot    0.426  0.000  0.002  0.092  0.000  0.000  0.001  0.000  0.000  0.522
 
band     2 # energy    0.74498631 # occ.  2.00000000
 
ion      s     py     pz     px    dxy    dyz    dz2    dxz  x2-y2    tot
    1  0.000  0.020  0.000  0.000  0.006  0.001  0.000  0.000  0.000  0.027
    2  0.133  0.036  0.000  0.118  0.000  0.000  0.000  0.000  0.000  0.287
    3  0.133  0.036  0.000  0.118  0.000  0.000  0.000  0.000  0.000  0.287
tot    0.266  0.092  0.001  0.236  0.006  0.001  0.000  0.000  0.000  0.601
 
band     3 # energy    1.81958653 # occ.  2.00000000
 
ion      s     py     pz     px    dxy    dyz    dz2    dxz  x2-y2    tot
    1  0.021  0.000  0.003  0.020  0.000  0.000  0.004  0.001  0.000  0.048
    2  0.018  0.184  0.001  0.055  0.000  0.000  0.000  0.000  0.000  0.257
    3  0.018  0.184  0.001  0.055  0.000  0.000  0.000  0.000  0.000  0.257
tot    0.056  0.367  0.004  0.129  0.000  0.000  0.004  0.001  0.000  0.561
 
band     4 # energy    3.80582909 # occ.  2.00000000
 
ion      s     py     pz     px    dxy    dyz    dz2    dxz  x2-y2    tot
    1  0.019  0.000  0.025  0.010  0.000  0.000  0.001  0.016  0.001  0.072
    2  0.011  0.002  0.177  0.001  0.000  0.000  0.000  0.000  0.000  0.192
    3  0.011  0.002  0.177  0.001  0.000  0.000  0.000  0.000  0.000  0.192
tot    0.042  0.005  0.380  0.012  0.000  0.000  0.001  0.016  0.001  0.457
 
band     5 # energy    9.55751479 # occ.  0.00000000
 
ion      s     py     pz     px    dxy    dyz    dz2    dxz  x2-y2    tot
    1  0.000  0.014  0.000  0.000  0.014  0.020  0.000  0.000  0.000  0.048
    2  0.000  0.005  0.200  0.011  0.000  0.000  0.000  0.000  0.000  0.216
    3  0.000  0.005  0.200  0.011  0.000  0.000  0.000  0.000  0.000  0.216
tot    0.001  0.024  0.399  0.022  0.014  0.020  0.000  0.000  0.000  0.481
 
band     6 # energy   10.19767443 # occ.  0.00000000
 
ion      s     py     pz     px    dxy    dyz    dz2    dxz  x2-y2    tot
    1  0.058  0.000  0.003  0.051  0.000  0.000  0.024  0.005  0.006  0.147
    2  0.034  0.018  0.038  0.022  0.000  0.000  0.000  0.000  0.000  0.111
    3  0.034  0.018  0.038  0.022  0.000  0.000  0.000  0.000  0.000  0.111
tot    0.125  0.035  0.080  0.094  0.000  0.000  0.024  0.005  0.006  0.369
 
band     7 # energy   13.15286141 # occ.  0.00000000
 
ion      s     py     pz     px    dxy    dyz    dz2    dxz  x2-y2    tot
    1  0.179  0.000  0.000  0.008  0.000  0.000  0.008  0.001  0.004  0.201
    2  0.045  0.129  0.004  0.000  0.000  0.000  0.000  0.000  0.000  0.178
    3  0.045  0.129  0.004  0.000  0.000  0.000  0.000  0.000  0.000  0.178
tot    0.269  0.258  0.008  0.008  0.000  0.000  0.008  0.001  0.004  0.557
 
band     8 # energy   13.51354136 # occ.  0.00000000
 
ion      s     py     pz     px    dxy    dyz    dz2    dxz  x2-y2    tot
    1  0.000  0.001  0.000  0.000  0.044  0.001  0.000  0.000  0.000  0.047
    2  0.040  0.075  0.037  0.059  0.000  0.000  0.000  0.000  0.000  0.210
    3  0.040  0.075  0.037  0.059  0.000  0.000  0.000  0.000  0.000  0.210
tot    0.081  0.151  0.073  0.118  0.044  0.001  0.000  0.000  0.000  0.467
 

 k-point    66 :    0.29166667 0.20833333 0.11111111     weight = 0.00617284

band     1 # energy   -3.82361083 # occ.  2.00000000
 
ion      s     py     pz     px    dxy    dyz    dz2    dxz  x2-y2    tot
    1  0.027  0.000  0.001  0.018  0.000  0.000  0.001  0.000  0.001  0.047
    2  0.188  0.001  0.000  0.054  0.000  0.000  0.000  0.000  0.000  0.243
    3  0.188  0.001  0.000  0.054  0.000  0.000  0.000  0.000  0.000  0.243
tot    0.402  0.002  0.002  0.126  0.000  0.000  0.001  0.000  0.001  0.534
 
band     2 # energy   -0.51833650 # occ.  2.00000000
 
ion      s     py     pz     px    dxy    dyz    dz2    dxz  x2-y2    tot
    1  0.009  0.018  0.001  0.003  0.004  0.001  0.001  0.000  0.000  0.035
    2  0.140  0.048  0.000  0.082  0.000  0.000  0.000  0.000  0.000  0.270
    3  0.140  0.048  0.000  0.082  0.000  0.000  0.000  0.000  0.000  0.270
tot    0.290  0.113  0.001  0.166  0.004  0.001  0.001  0.000  0.000  0.575
 
band     3 # energy    1.11938960 # occ.  2.00000000
 
ion      s     py     pz     px    dxy    dyz    dz2    dxz  x2-y2    tot
    1  0.025  0.005  0.002  0.012  0.001  0.000  0.003  0.000  0.000  0.049
    2  0.035  0.160  0.000  0.060  0.000  0.000  0.000  0.000  0.000  0.256
    3  0.035  0.160  0.000  0.060  0.000  0.000  0.000  0.000  0.000  0.256
tot    0.096  0.325  0.003  0.132  0.001  0.000  0.003  0.000  0.000  0.560
 
band     4 # energy    4.70393178 # occ.  2.00000000
 
ion      s     py     pz     px    dxy    dyz    dz2    dxz  x2-y2    tot
    1  0.011  0.000  0.015  0.015  0.000  0.000  0.000  0.022  0.001  0.065
    2  0.009  0.002  0.184  0.002  0.000  0.000  0.000  0.000  0.000  0.197
    3  0.009  0.002  0.184  0.002  0.000  0.000  0.000  0.000  0.000  0.197
tot    0.029  0.004  0.383  0.020  0.000  0.000  0.000  0.022  0.001  0.460
 
band     5 # energy    8.31658582 # occ.  0.00000000
 
ion      s     py     pz     px    dxy    dyz    dz2    dxz  x2-y2    tot
    1  0.003  0.016  0.004  0.000  0.010  0.021  0.000  0.000  0.000  0.055
    2  0.002  0.004  0.193  0.008  0.000  0.000  0.000  0.000  0.000  0.208
    3  0.002  0.004  0.193  0.008  0.000  0.000  0.000  0.000  0.000  0.208
tot    0.008  0.024  0.390  0.016  0.010  0.021  0.000  0.000  0.000  0.470
 
band     6 # energy   11.05503520 # occ.  0.00000000
 
ion      s     py     pz     px    dxy    dyz    dz2    dxz  x2-y2    tot
    1  0.035  0.002  0.001  0.067  0.000  0.000  0.015  0.007  0.010  0.137
    2  0.027  0.024  0.039  0.028  0.000  0.000  0.000  0.000  0.000  0.118
    3  0.027  0.024  0.039  0.028  0.000  0.000  0.000  0.000  0.000  0.118
tot    0.089  0.049  0.079  0.123  0.000  0.000  0.015  0.007  0.010  0.373
 
band     7 # energy   12.80668147 # occ.  0.00000000
 
ion      s     py     pz     px    dxy    dyz    dz2    dxz  x2-y2    tot
    1  0.083  0.008  0.004  0.000  0.028  0.001  0.004  0.002  0.002  0.131
    2  0.035  0.078  0.017  0.042  0.000  0.000  0.000  0.000  0.000  0.172
    3  0.035  0.078  0.017  0.042  0.000  0.000  0.000  0.000  0.000  0.172
tot    0.152  0.164  0.038  0.085  0.028  0.001  0.004  0.002  0.002  0.475
 
band     8 # energy   13.51809800 # occ.  0.00000000
 
ion      s     py     pz     px    dxy    dyz    dz2    dxz  x2-y2    tot
    1  0.149  0.008  0.031  0.020  0.014  0.004  0.000  0.004  0.000  0.232
    2  0.001  0.057  0.031  0.028  0.000  0.000  0.000  0.000  0.000  0.118
    3  0.001  0.057  0.031  0.028  0.000  0.000  0.000  0.000  0.000  0.118
tot    0.152  0.123  0.093  0.076  0.014  0.004  0.000  0.004  0.000  0.467
 

 k-point    67 :    0.37500000 0.20833333 0.11111111     weight = 0.00617284

band     1 # energy   -2.74233450 # occ.  2.00000000
 
ion      s     py     pz     px    dxy    dyz    dz2    dxz  x2-y2    tot
    1  0.007  0.003  0.000  0.025  0.000  0.000  0.000  0.001  0.001  0.037
    2  0.198  0.008  0.000  0.053  0.000  0.000  0.000  0.000  0.000  0.259
    3  0.198  0.008  0.000  0.053  0.000  0.000  0.000  0.000  0.000  0.259
tot    0.403  0.018  0.001  0.131  0.000  0.000  0.000  0.001  0.001  0.556
 
band     2 # energy   -1.80283017 # occ.  2.00000000
 
ion      s     py     pz     px    dxy    dyz    dz2    dxz  x2-y2    tot
    1  0.030  0.012  0.002  0.000  0.003  0.000  0.001  0.000  0.000  0.049
    2  0.128  0.045  0.000  0.075  0.000  0.000  0.000  0.000  0.000  0.248
    3  0.128  0.045  0.000  0.075  0.000  0.000  0.000  0.000  0.000  0.248
tot    0.285  0.103  0.002  0.151  0.003  0.000  0.001  0.000  0.000  0.546
 
band     3 # energy    0.88076785 # occ.  2.00000000
 
ion      s     py     pz     px    dxy    dyz    dz2    dxz  x2-y2    tot
    1  0.025  0.011  0.002  0.005  0.001  0.000  0.003  0.000  0.000  0.048
    2  0.046  0.152  0.000  0.060  0.000  0.000  0.000  0.000  0.000  0.258
    3  0.046  0.152  0.000  0.060  0.000  0.000  0.000  0.000  0.000  0.258
tot    0.116  0.315  0.002  0.125  0.001  0.000  0.003  0.000  0.000  0.563
 
band     4 # energy    5.48943115 # occ. -0.07091564
 
ion      s     py     pz     px    dxy    dyz    dz2    dxz  x2-y2    tot
    1  0.001  0.003  0.001  0.018  0.000  0.005  0.000  0.025  0.001  0.055
    2  0.008  0.002  0.194  0.003  0.000  0.000  0.000  0.000  0.000  0.206
    3  0.008  0.002  0.194  0.003  0.000  0.000  0.000  0.000  0.000  0.206
tot    0.016  0.007  0.389  0.023  0.000  0.005  0.000  0.025  0.001  0.467
 
band     5 # energy    7.36508664 # occ. -0.00000000
 
ion      s     py     pz     px    dxy    dyz    dz2    dxz  x2-y2    tot
    1  0.011  0.012  0.015  0.001  0.007  0.016  0.001  0.001  0.001  0.066
    2  0.003  0.004  0.182  0.007  0.000  0.000  0.000  0.000  0.000  0.197
    3  0.003  0.004  0.182  0.007  0.000  0.000  0.000  0.000  0.000  0.197
tot    0.018  0.020  0.380  0.014  0.007  0.016  0.001  0.001  0.001  0.459
 
band     6 # energy   11.88987930 # occ.  0.00000000
 
ion      s     py     pz     px    dxy    dyz    dz2    dxz  x2-y2    tot
    1  0.003  0.009  0.000  0.083  0.001  0.000  0.005  0.007  0.015  0.122
    2  0.024  0.037  0.037  0.030  0.000  0.000  0.000  0.000  0.000  0.128
    3  0.024  0.037  0.037  0.030  0.000  0.000  0.000  0.000  0.000  0.128
tot    0.051  0.082  0.074  0.143  0.001  0.000  0.005  0.007  0.015  0.378
 
band     7 # energy   12.31556348 # occ.  0.00000000
 
ion      s     py     pz     px    dxy    dyz    dz2    dxz  x2-y2    tot
    1  0.007  0.026  0.002  0.004  0.034  0.002  0.010  0.000  0.003  0.089
    2  0.016  0.059  0.026  0.058  0.000  0.000  0.000  0.000  0.000  0.159
    3  0.016  0.059  0.026  0.058  0.000  0.000  0.000  0.000  0.000  0.159
tot    0.040  0.144  0.053  0.120  0.034  0.002  0.010  0.000  0.003  0.407
 
band     8 # energy   13.10491068 # occ.  0.00000000
 
ion      s     py     pz     px    dxy    dyz    dz2    dxz  x2-y2    tot
    1  0.246  0.001  0.048  0.003  0.001  0.008  0.001  0.003  0.000  0.309
    2  0.011  0.032  0.028  0.019  0.000  0.000  0.000  0.000  0.000  0.090
    3  0.011  0.032  0.028  0.019  0.000  0.000  0.000  0.000  0.000  0.090
tot    0.269  0.064  0.103  0.041  0.001  0.008  0.001  0.003  0.000  0.489
 

 k-point    68 :    0.45833333 0.20833333 0.11111111     weight = 0.00617284

band     1 # energy   -3.27459277 # occ.  2.00000000
 
ion      s     py     pz     px    dxy    dyz    dz2    dxz  x2-y2    tot
    1  0.020  0.013  0.001  0.009  0.001  0.000  0.001  0.000  0.000  0.044
    2  0.187  0.039  0.000  0.023  0.000  0.000  0.000  0.000  0.000  0.249
    3  0.187  0.039  0.000  0.023  0.000  0.000  0.000  0.000  0.000  0.249
tot    0.393  0.091  0.002  0.055  0.001  0.000  0.001  0.000  0.000  0.542
 
band     2 # energy   -1.19962405 # occ.  2.00000000
 
ion      s     py     pz     px    dxy    dyz    dz2    dxz  x2-y2    tot
    1  0.017  0.000  0.001  0.018  0.001  0.000  0.001  0.001  0.002  0.041
    2  0.139  0.016  0.000  0.104  0.000  0.000  0.000  0.000  0.000  0.260
    3  0.139  0.016  0.000  0.104  0.000  0.000  0.000  0.000  0.000  0.260
tot    0.295  0.033  0.002  0.226  0.001  0.000  0.001  0.001  0.002  0.561
 
band     3 # energy    0.95708229 # occ.  2.00000000
 
ion      s     py     pz     px    dxy    dyz    dz2    dxz  x2-y2    tot
    1  0.025  0.015  0.002  0.001  0.001  0.001  0.003  0.000  0.001  0.048
    2  0.042  0.151  0.000  0.064  0.000  0.000  0.000  0.000  0.000  0.257
    3  0.042  0.151  0.000  0.064  0.000  0.000  0.000  0.000  0.000  0.257
tot    0.109  0.317  0.002  0.129  0.001  0.001  0.003  0.000  0.001  0.562
 
band     4 # energy    5.15508476 # occ.  2.01072222
 
ion      s     py     pz     px    dxy    dyz    dz2    dxz  x2-y2    tot
    1  0.006  0.010  0.008  0.009  0.001  0.014  0.000  0.012  0.000  0.060
    2  0.008  0.002  0.189  0.002  0.000  0.000  0.000  0.000  0.000  0.201
    3  0.008  0.002  0.189  0.002  0.000  0.000  0.000  0.000  0.000  0.201
tot    0.023  0.013  0.385  0.014  0.001  0.014  0.000  0.012  0.000  0.463
 
band     5 # energy    7.75488500 # occ. -0.00000000
 
ion      s     py     pz     px    dxy    dyz    dz2    dxz  x2-y2    tot
    1  0.007  0.004  0.009  0.011  0.004  0.005  0.000  0.015  0.004  0.060
    2  0.003  0.005  0.188  0.006  0.000  0.000  0.000  0.000  0.000  0.202
    3  0.003  0.005  0.188  0.006  0.000  0.000  0.000  0.000  0.000  0.202
tot    0.013  0.015  0.384  0.023  0.004  0.005  0.000  0.015  0.004  0.464
 
band     6 # energy   11.49215256 # occ.  0.00000000
 
ion      s     py     pz     px    dxy    dyz    dz2    dxz  x2-y2    tot
    1  0.018  0.043  0.001  0.035  0.013  0.005  0.011  0.002  0.001  0.128
    2  0.024  0.024  0.039  0.037  0.000  0.000  0.000  0.000  0.000  0.123
    3  0.024  0.024  0.039  0.037  0.000  0.000  0.000  0.000  0.000  0.123
tot    0.066  0.091  0.078  0.109  0.013  0.005  0.011  0.002  0.001  0.375
 
band     7 # energy   12.57088724 # occ.  0.00000000
 
ion      s     py     pz     px    dxy    dyz    dz2    dxz  x2-y2    tot
    1  0.044  0.001  0.004  0.020  0.015  0.000  0.005  0.002  0.019  0.111
    2  0.027  0.092  0.020  0.026  0.000  0.000  0.000  0.000  0.000  0.165
    3  0.027  0.092  0.020  0.026  0.000  0.000  0.000  0.000  0.000  0.165
tot    0.098  0.185  0.044  0.072  0.015  0.000  0.005  0.002  0.019  0.441
 
band     8 # energy   13.27993990 # occ.  0.00000000
 
ion      s     py     pz     px    dxy    dyz    dz2    dxz  x2-y2    tot
    1  0.198  0.005  0.043  0.015  0.001  0.008  0.000  0.002  0.005  0.277
    2  0.005  0.002  0.031  0.059  0.000  0.000  0.000  0.000  0.000  0.096
    3  0.005  0.002  0.031  0.059  0.000  0.000  0.000  0.000  0.000  0.096
tot    0.207  0.009  0.105  0.133  0.001  0.008  0.000  0.002  0.005  0.470
 

 k-point    69 :   -0.45833333 0.20833333 0.11111111     weight = 0.00617284

band     1 # energy   -4.33477096 # occ.  2.00000000
 
ion      s     py     pz     px    dxy    dyz    dz2    dxz  x2-y2    tot
    1  0.032  0.011  0.001  0.005  0.000  0.000  0.001  0.000  0.000  0.050
    2  0.191  0.033  0.000  0.014  0.000  0.000  0.000  0.000  0.000  0.239
    3  0.191  0.033  0.000  0.014  0.000  0.000  0.000  0.000  0.000  0.239
tot    0.414  0.077  0.002  0.033  0.000  0.000  0.001  0.000  0.000  0.527
 
band     2 # energy    0.15200488 # occ.  2.00000000
 
ion      s     py     pz     px    dxy    dyz    dz2    dxz  x2-y2    tot
    1  0.003  0.002  0.000  0.019  0.002  0.000  0.000  0.001  0.004  0.030
    2  0.139  0.052  0.000  0.088  0.000  0.000  0.000  0.000  0.000  0.280
    3  0.139  0.052  0.000  0.088  0.000  0.000  0.000  0.000  0.000  0.280
tot    0.281  0.105  0.001  0.196  0.002  0.000  0.000  0.001  0.004  0.590
 
band     3 # energy    1.39143508 # occ.  2.00000000
 
ion      s     py     pz     px    dxy    dyz    dz2    dxz  x2-y2    tot
    1  0.025  0.017  0.002  0.001  0.000  0.001  0.004  0.000  0.000  0.050
    2  0.025  0.126  0.000  0.103  0.000  0.000  0.000  0.000  0.000  0.254
    3  0.025  0.126  0.000  0.103  0.000  0.000  0.000  0.000  0.000  0.254
tot    0.075  0.269  0.003  0.206  0.000  0.001  0.004  0.000  0.000  0.558
 
band     4 # energy    4.24182480 # occ.  2.00000000
 
ion      s     py     pz     px    dxy    dyz    dz2    dxz  x2-y2    tot
    1  0.015  0.009  0.021  0.004  0.001  0.013  0.001  0.006  0.000  0.069
    2  0.010  0.002  0.180  0.002  0.000  0.000  0.000  0.000  0.000  0.194
    3  0.010  0.002  0.180  0.002  0.000  0.000  0.000  0.000  0.000  0.194
tot    0.036  0.012  0.382  0.008  0.001  0.013  0.001  0.006  0.000  0.458
 
band     5 # energy    8.93252998 # occ.  0.00000000
 
ion      s     py     pz     px    dxy    dyz    dz2    dxz  x2-y2    tot
    1  0.001  0.003  0.001  0.012  0.004  0.004  0.000  0.017  0.008  0.050
    2  0.001  0.008  0.197  0.006  0.000  0.000  0.000  0.000  0.000  0.213
    3  0.001  0.008  0.197  0.006  0.000  0.000  0.000  0.000  0.000  0.213
tot    0.003  0.019  0.395  0.024  0.004  0.004  0.000  0.017  0.008  0.476
 
band     6 # energy   10.61783933 # occ.  0.00000000
 
ion      s     py     pz     px    dxy    dyz    dz2    dxz  x2-y2    tot
    1  0.048  0.040  0.002  0.020  0.006  0.005  0.020  0.001  0.001  0.143
    2  0.031  0.021  0.039  0.023  0.000  0.000  0.000  0.000  0.000  0.114
    3  0.031  0.021  0.039  0.023  0.000  0.000  0.000  0.000  0.000  0.114
tot    0.110  0.082  0.080  0.066  0.006  0.005  0.020  0.001  0.001  0.372
 
band     7 # energy   13.05015480 # occ.  0.00000000
 
ion      s     py     pz     px    dxy    dyz    dz2    dxz  x2-y2    tot
    1  0.116  0.004  0.002  0.000  0.012  0.001  0.004  0.002  0.010  0.152
    2  0.040  0.084  0.014  0.040  0.000  0.000  0.000  0.000  0.000  0.178
    3  0.040  0.084  0.014  0.040  0.000  0.000  0.000  0.000  0.000  0.178
tot    0.197  0.172  0.031  0.080  0.012  0.001  0.004  0.002  0.010  0.509
 
band     8 # energy   13.61685782 # occ.  0.00000000
 
ion      s     py     pz     px    dxy    dyz    dz2    dxz  x2-y2    tot
    1  0.098  0.003  0.009  0.015  0.004  0.004  0.001  0.000  0.023  0.157
    2  0.012  0.008  0.030  0.115  0.000  0.000  0.000  0.000  0.000  0.164
    3  0.012  0.008  0.030  0.115  0.000  0.000  0.000  0.000  0.000  0.164
tot    0.121  0.020  0.068  0.245  0.004  0.004  0.001  0.000  0.023  0.486
 

 k-point    70 :   -0.37500000 0.20833333 0.11111111     weight = 0.00617284

band     1 # energy   -5.20622823 # occ.  2.00000000
 
ion      s     py     pz     px    dxy    dyz    dz2    dxz  x2-y2    tot
    1  0.040  0.009  0.002  0.002  0.000  0.000  0.000  0.000  0.000  0.054
    2  0.199  0.026  0.000  0.006  0.000  0.000  0.000  0.000  0.000  0.232
    3  0.199  0.026  0.000  0.006  0.000  0.000  0.000  0.000  0.000  0.232
tot    0.438  0.061  0.002  0.015  0.000  0.000  0.000  0.000  0.000  0.517
 
band     2 # energy    1.22821415 # occ.  2.00000000
 
ion      s     py     pz     px    dxy    dyz    dz2    dxz  x2-y2    tot
    1  0.002  0.010  0.000  0.009  0.001  0.000  0.000  0.000  0.005  0.027
    2  0.117  0.144  0.000  0.026  0.000  0.000  0.000  0.000  0.000  0.288
    3  0.117  0.144  0.000  0.026  0.000  0.000  0.000  0.000  0.000  0.288
tot    0.236  0.298  0.001  0.061  0.001  0.000  0.000  0.000  0.005  0.603
 
band     3 # energy    2.40693441 # occ.  2.00000000
 
ion      s     py     pz     px    dxy    dyz    dz2    dxz  x2-y2    tot
    1  0.012  0.011  0.003  0.011  0.001  0.000  0.004  0.000  0.000  0.042
    2  0.016  0.047  0.002  0.200  0.000  0.000  0.000  0.000  0.000  0.265
    3  0.016  0.047  0.002  0.200  0.000  0.000  0.000  0.000  0.000  0.265
tot    0.044  0.106  0.008  0.411  0.001  0.000  0.004  0.000  0.000  0.573
 
band     4 # energy    3.41681642 # occ.  2.00000000
 
ion      s     py     pz     px    dxy    dyz    dz2    dxz  x2-y2    tot
    1  0.024  0.006  0.029  0.001  0.000  0.011  0.001  0.003  0.000  0.074
    2  0.013  0.001  0.173  0.004  0.000  0.000  0.000  0.000  0.000  0.193
    3  0.013  0.001  0.173  0.004  0.000  0.000  0.000  0.000  0.000  0.193
tot    0.051  0.008  0.376  0.010  0.000  0.011  0.001  0.003  0.000  0.459
 
band     5 # energy    9.79607088 # occ.  0.00000000
 
ion      s     py     pz     px    dxy    dyz    dz2    dxz  x2-y2    tot
    1  0.062  0.030  0.004  0.010  0.002  0.005  0.027  0.000  0.004  0.145
    2  0.034  0.020  0.042  0.016  0.000  0.000  0.000  0.000  0.000  0.111
    3  0.034  0.020  0.042  0.016  0.000  0.000  0.000  0.000  0.000  0.111
tot    0.130  0.070  0.088  0.041  0.002  0.005  0.027  0.000  0.004  0.367
 
band     6 # energy   10.17615013 # occ.  0.00000000
 
ion      s     py     pz     px    dxy    dyz    dz2    dxz  x2-y2    tot
    1  0.001  0.010  0.002  0.005  0.004  0.004  0.001  0.012  0.012  0.050
    2  0.002  0.012  0.196  0.007  0.000  0.000  0.000  0.000  0.000  0.216
    3  0.002  0.012  0.196  0.007  0.000  0.000  0.000  0.000  0.000  0.216
tot    0.005  0.033  0.393  0.018  0.004  0.004  0.001  0.012  0.012  0.482
 
band     7 # energy   12.69099639 # occ.  0.00000000
 
ion      s     py     pz     px    dxy    dyz    dz2    dxz  x2-y2    tot
    1  0.123  0.004  0.001  0.000  0.000  0.000  0.007  0.000  0.010  0.147
    2  0.068  0.019  0.009  0.095  0.000  0.000  0.000  0.000  0.000  0.192
    3  0.068  0.019  0.009  0.095  0.000  0.000  0.000  0.000  0.000  0.192
tot    0.260  0.043  0.019  0.191  0.000  0.000  0.007  0.000  0.010  0.531
 
band     8 # energy   13.75183783 # occ.  0.00000000
 
ion      s     py     pz     px    dxy    dyz    dz2    dxz  x2-y2    tot
    1  0.031  0.003  0.000  0.002  0.012  0.000  0.001  0.001  0.020  0.069
    2  0.049  0.079  0.032  0.055  0.000  0.000  0.000  0.000  0.000  0.216
    3  0.049  0.079  0.032  0.055  0.000  0.000  0.000  0.000  0.000  0.216
tot    0.128  0.161  0.065  0.113  0.012  0.000  0.001  0.001  0.020  0.500
 

 k-point    71 :   -0.29166667 0.20833333 0.11111111     weight = 0.00617284

band     1 # energy   -5.85716878 # occ.  2.00000000
 
ion      s     py     pz     px    dxy    dyz    dz2    dxz  x2-y2    tot
    1  0.047  0.007  0.002  0.001  0.000  0.000  0.000  0.000  0.000  0.056
    2  0.205  0.019  0.000  0.002  0.000  0.000  0.000  0.000  0.000  0.227
    3  0.205  0.019  0.000  0.002  0.000  0.000  0.000  0.000  0.000  0.227
tot    0.457  0.045  0.003  0.004  0.000  0.000  0.000  0.000  0.000  0.510
 
band     2 # energy    2.06496934 # occ.  2.00000000
 
ion      s     py     pz     px    dxy    dyz    dz2    dxz  x2-y2    tot
    1  0.003  0.016  0.001  0.002  0.000  0.000  0.001  0.000  0.006  0.030
    2  0.087  0.192  0.002  0.004  0.000  0.000  0.000  0.000  0.000  0.285
    3  0.087  0.192  0.002  0.004  0.000  0.000  0.000  0.000  0.000  0.285
tot    0.177  0.400  0.005  0.010  0.000  0.000  0.001  0.000  0.006  0.600
 
band     3 # energy    2.76008097 # occ.  2.00000000
 
ion      s     py     pz     px    dxy    dyz    dz2    dxz  x2-y2    tot
    1  0.024  0.005  0.037  0.001  0.000  0.008  0.001  0.000  0.000  0.077
    2  0.013  0.003  0.170  0.002  0.000  0.000  0.000  0.000  0.000  0.188
    3  0.013  0.003  0.170  0.002  0.000  0.000  0.000  0.000  0.000  0.188
tot    0.050  0.011  0.376  0.006  0.000  0.008  0.001  0.000  0.000  0.452
 
band     4 # energy    3.74689256 # occ.  2.00000000
 
ion      s     py     pz     px    dxy    dyz    dz2    dxz  x2-y2    tot
    1  0.006  0.003  0.000  0.014  0.003  0.000  0.001  0.001  0.000  0.028
    2  0.011  0.011  0.002  0.277  0.000  0.000  0.000  0.000  0.000  0.300
    3  0.011  0.011  0.002  0.277  0.000  0.000  0.000  0.000  0.000  0.300
tot    0.028  0.024  0.003  0.568  0.003  0.000  0.001  0.001  0.000  0.629
 
band     5 # energy    9.12318297 # occ.  0.00000000
 
ion      s     py     pz     px    dxy    dyz    dz2    dxz  x2-y2    tot
    1  0.065  0.029  0.005  0.002  0.001  0.004  0.035  0.000  0.004  0.144
    2  0.036  0.023  0.037  0.008  0.000  0.000  0.000  0.000  0.000  0.103
    3  0.036  0.023  0.037  0.008  0.000  0.000  0.000  0.000  0.000  0.103
tot    0.136  0.074  0.080  0.017  0.001  0.004  0.035  0.000  0.004  0.350
 
band     6 # energy   11.15478760 # occ.  0.00000000
 
ion      s     py     pz     px    dxy    dyz    dz2    dxz  x2-y2    tot
    1  0.020  0.002  0.008  0.000  0.001  0.006  0.001  0.003  0.025  0.066
    2  0.038  0.019  0.129  0.016  0.000  0.000  0.000  0.000  0.000  0.202
    3  0.038  0.019  0.129  0.016  0.000  0.000  0.000  0.000  0.000  0.202
tot    0.095  0.039  0.267  0.032  0.001  0.006  0.001  0.003  0.025  0.470
 
band     7 # energy   11.81245998 # occ.  0.00000000
 
ion      s     py     pz     px    dxy    dyz    dz2    dxz  x2-y2    tot
    1  0.086  0.014  0.000  0.001  0.001  0.002  0.004  0.001  0.000  0.110
    2  0.071  0.033  0.085  0.020  0.000  0.000  0.000  0.000  0.000  0.209
    3  0.071  0.033  0.085  0.020  0.000  0.000  0.000  0.000  0.000  0.209
tot    0.228  0.080  0.170  0.042  0.001  0.002  0.004  0.001  0.000  0.528
 
band     8 # energy   14.41085228 # occ.  0.00000000
 
ion      s     py     pz     px    dxy    dyz    dz2    dxz  x2-y2    tot
    1  0.025  0.003  0.001  0.017  0.009  0.000  0.001  0.000  0.010  0.068
    2  0.048  0.061  0.028  0.091  0.000  0.000  0.000  0.000  0.000  0.228
    3  0.048  0.061  0.028  0.091  0.000  0.000  0.000  0.000  0.000  0.228
tot    0.121  0.126  0.058  0.198  0.009  0.000  0.001  0.000  0.010  0.524
 

 k-point    72 :   -0.20833333 0.20833333 0.11111111     weight = 0.00308642

band     1 # energy   -6.27566095 # occ.  2.00000000
 
ion      s     py     pz     px    dxy    dyz    dz2    dxz  x2-y2    tot
    1  0.051  0.005  0.002  0.000  0.000  0.000  0.000  0.000  0.000  0.058
    2  0.210  0.013  0.000  0.000  0.000  0.000  0.000  0.000  0.000  0.224
    3  0.210  0.013  0.000  0.000  0.000  0.000  0.000  0.000  0.000  0.224
tot    0.470  0.032  0.003  0.000  0.000  0.000  0.000  0.000  0.000  0.505
 
band     2 # energy    2.33364550 # occ.  2.00000000
 
ion      s     py     pz     px    dxy    dyz    dz2    dxz  x2-y2    tot
    1  0.023  0.006  0.042  0.000  0.000  0.005  0.002  0.000  0.000  0.079
    2  0.011  0.005  0.168  0.000  0.000  0.000  0.000  0.000  0.000  0.184
    3  0.011  0.005  0.168  0.000  0.000  0.000  0.000  0.000  0.000  0.184
tot    0.045  0.017  0.378  0.000  0.000  0.005  0.002  0.000  0.000  0.447
 
band     3 # energy    2.94237424 # occ.  2.00000000
 
ion      s     py     pz     px    dxy    dyz    dz2    dxz  x2-y2    tot
    1  0.007  0.012  0.000  0.000  0.000  0.001  0.001  0.000  0.007  0.028
    2  0.072  0.218  0.003  0.000  0.000  0.000  0.000  0.000  0.000  0.294
    3  0.072  0.218  0.003  0.000  0.000  0.000  0.000  0.000  0.000  0.294
tot    0.151  0.449  0.006  0.000  0.000  0.001  0.001  0.000  0.007  0.615
 
band     4 # energy    4.55214229 # occ.  2.00000000
 
ion      s     py     pz     px    dxy    dyz    dz2    dxz  x2-y2    tot
    1  0.000  0.000  0.000  0.014  0.005  0.000  0.000  0.001  0.000  0.020
    2  0.000  0.000  0.000  0.320  0.000  0.000  0.000  0.000  0.000  0.320
    3  0.000  0.000  0.000  0.320  0.000  0.000  0.000  0.000  0.000  0.320
tot    0.000  0.000  0.000  0.654  0.005  0.000  0.000  0.001  0.000  0.660
 
band     5 # energy    8.71047650 # occ.  0.00000000
 
ion      s     py     pz     px    dxy    dyz    dz2    dxz  x2-y2    tot
    1  0.072  0.024  0.006  0.000  0.000  0.003  0.039  0.000  0.003  0.147
    2  0.039  0.022  0.037  0.000  0.000  0.000  0.000  0.000  0.000  0.098
    3  0.039  0.022  0.037  0.000  0.000  0.000  0.000  0.000  0.000  0.098
tot    0.149  0.068  0.081  0.000  0.000  0.003  0.039  0.000  0.003  0.343
 
band     6 # energy   11.15629161 # occ.  0.00000000
 
ion      s     py     pz     px    dxy    dyz    dz2    dxz  x2-y2    tot
    1  0.078  0.006  0.007  0.000  0.000  0.002  0.003  0.000  0.017  0.112
    2  0.109  0.052  0.013  0.000  0.000  0.000  0.000  0.000  0.000  0.174
    3  0.109  0.052  0.013  0.000  0.000  0.000  0.000  0.000  0.000  0.174
tot    0.295  0.110  0.034  0.000  0.000  0.002  0.003  0.000  0.017  0.461
 
band     7 # energy   12.44061783 # occ.  0.00000000
 
ion      s     py     pz     px    dxy    dyz    dz2    dxz  x2-y2    tot
    1  0.019  0.018  0.002  0.000  0.000  0.006  0.001  0.000  0.009  0.054
    2  0.005  0.027  0.211  0.000  0.000  0.000  0.000  0.000  0.000  0.243
    3  0.005  0.027  0.211  0.000  0.000  0.000  0.000  0.000  0.000  0.243
tot    0.029  0.072  0.423  0.000  0.000  0.006  0.001  0.000  0.009  0.540
 
band     8 # energy   14.61191819 # occ.  0.00000000
 
ion      s     py     pz     px    dxy    dyz    dz2    dxz  x2-y2    tot
    1  0.000  0.000  0.000  0.059  0.008  0.000  0.000  0.004  0.000  0.071
    2  0.000  0.000  0.000  0.214  0.000  0.000  0.000  0.000  0.000  0.214
    3  0.000  0.000  0.000  0.214  0.000  0.000  0.000  0.000  0.000  0.214
tot    0.000  0.000  0.000  0.486  0.008  0.000  0.000  0.004  0.000  0.498
 

 k-point    73 :    0.29166667 0.29166667 0.11111111     weight = 0.00308642

band     1 # energy   -2.79246010 # occ.  2.00000000
 
ion      s     py     pz     px    dxy    dyz    dz2    dxz  x2-y2    tot
    1  0.014  0.000  0.001  0.023  0.000  0.000  0.000  0.001  0.001  0.041
    2  0.184  0.004  0.000  0.066  0.000  0.000  0.000  0.000  0.000  0.255
    3  0.184  0.004  0.000  0.066  0.000  0.000  0.000  0.000  0.000  0.255
tot    0.383  0.008  0.001  0.155  0.000  0.000  0.000  0.001  0.001  0.550
 
band     2 # energy   -1.12254856 # occ.  2.00000000
 
ion      s     py     pz     px    dxy    dyz    dz2    dxz  x2-y2    tot
    1  0.000  0.026  0.000  0.000  0.004  0.001  0.000  0.000  0.000  0.031
    2  0.175  0.039  0.000  0.061  0.000  0.000  0.000  0.000  0.000  0.275
    3  0.175  0.039  0.000  0.061  0.000  0.000  0.000  0.000  0.000  0.275
tot    0.350  0.103  0.001  0.122  0.004  0.001  0.000  0.000  0.000  0.580
 
band     3 # energy    0.00286581 # occ.  2.00000000
 
ion      s     py     pz     px    dxy    dyz    dz2    dxz  x2-y2    tot
    1  0.049  0.000  0.003  0.007  0.000  0.000  0.004  0.000  0.000  0.064
    2  0.018  0.153  0.000  0.060  0.000  0.000  0.000  0.000  0.000  0.232
    3  0.018  0.153  0.000  0.060  0.000  0.000  0.000  0.000  0.000  0.232
tot    0.085  0.306  0.004  0.128  0.000  0.000  0.004  0.000  0.000  0.527
 
band     4 # energy    5.62489381 # occ. -0.00160710
 
ion      s     py     pz     px    dxy    dyz    dz2    dxz  x2-y2    tot
    1  0.004  0.000  0.005  0.019  0.000  0.000  0.000  0.027  0.002  0.058
    2  0.007  0.002  0.190  0.003  0.000  0.000  0.000  0.000  0.000  0.203
    3  0.007  0.002  0.190  0.003  0.000  0.000  0.000  0.000  0.000  0.203
tot    0.019  0.004  0.386  0.026  0.000  0.000  0.000  0.027  0.002  0.464
 
band     5 # energy    7.34973438 # occ. -0.00000000
 
ion      s     py     pz     px    dxy    dyz    dz2    dxz  x2-y2    tot
    1  0.000  0.019  0.000  0.000  0.007  0.026  0.000  0.000  0.000  0.052
    2  0.004  0.004  0.196  0.005  0.000  0.000  0.000  0.000  0.000  0.209
    3  0.004  0.004  0.196  0.005  0.000  0.000  0.000  0.000  0.000  0.209
tot    0.009  0.027  0.391  0.011  0.007  0.026  0.000  0.000  0.000  0.470
 
band     6 # energy   11.88131390 # occ.  0.00000000
 
ion      s     py     pz     px    dxy    dyz    dz2    dxz  x2-y2    tot
    1  0.023  0.000  0.000  0.081  0.000  0.000  0.005  0.008  0.017  0.134
    2  0.021  0.026  0.040  0.039  0.000  0.000  0.000  0.000  0.000  0.125
    3  0.021  0.026  0.040  0.039  0.000  0.000  0.000  0.000  0.000  0.125
tot    0.064  0.052  0.079  0.159  0.000  0.000  0.005  0.008  0.017  0.385
 
band     7 # energy   12.86246029 # occ.  0.00000000
 
ion      s     py     pz     px    dxy    dyz    dz2    dxz  x2-y2    tot
    1  0.208  0.000  0.096  0.011  0.000  0.000  0.000  0.002  0.001  0.319
    2  0.000  0.043  0.001  0.008  0.000  0.000  0.000  0.000  0.000  0.052
    3  0.000  0.043  0.001  0.008  0.000  0.000  0.000  0.000  0.000  0.052
tot    0.209  0.086  0.098  0.026  0.000  0.000  0.000  0.002  0.001  0.422
 
band     8 # energy   12.91010428 # occ.  0.00000000
 
ion      s     py     pz     px    dxy    dyz    dz2    dxz  x2-y2    tot
    1  0.000  0.053  0.000  0.000  0.041  0.005  0.000  0.000  0.000  0.099
    2  0.000  0.051  0.039  0.063  0.000  0.000  0.000  0.000  0.000  0.154
    3  0.000  0.051  0.039  0.063  0.000  0.000  0.000  0.000  0.000  0.154
tot    0.001  0.155  0.079  0.126  0.041  0.005  0.000  0.000  0.000  0.407
 

 k-point    74 :    0.37500000 0.29166667 0.11111111     weight = 0.00617284

band     1 # energy   -2.27208376 # occ.  2.00000000
 
ion      s     py     pz     px    dxy    dyz    dz2    dxz  x2-y2    tot
    1  0.005  0.016  0.000  0.011  0.001  0.001  0.000  0.000  0.001  0.035
    2  0.191  0.048  0.000  0.025  0.000  0.000  0.000  0.000  0.000  0.264
    3  0.191  0.048  0.000  0.025  0.000  0.000  0.000  0.000  0.000  0.264
tot    0.387  0.111  0.001  0.061  0.001  0.001  0.000  0.000  0.001  0.563
 
band     2 # energy   -1.55367247 # occ.  2.00000000
 
ion      s     py     pz     px    dxy    dyz    dz2    dxz  x2-y2    tot
    1  0.006  0.007  0.000  0.017  0.001  0.000  0.000  0.001  0.002  0.035
    2  0.172  0.024  0.000  0.071  0.000  0.000  0.000  0.000  0.000  0.268
    3  0.172  0.024  0.000  0.071  0.000  0.000  0.000  0.000  0.000  0.268
tot    0.350  0.056  0.001  0.159  0.001  0.000  0.000  0.001  0.002  0.570
 
band     3 # energy   -0.22751455 # occ.  2.00000000
 
ion      s     py     pz     px    dxy    dyz    dz2    dxz  x2-y2    tot
    1  0.053  0.005  0.004  0.000  0.000  0.000  0.004  0.000  0.000  0.066
    2  0.018  0.118  0.000  0.093  0.000  0.000  0.000  0.000  0.000  0.229
    3  0.018  0.118  0.000  0.093  0.000  0.000  0.000  0.000  0.000  0.229
tot    0.088  0.241  0.004  0.185  0.000  0.000  0.004  0.000  0.000  0.523
 
band     4 # energy    6.03972280 # occ. -0.00000000
 
ion      s     py     pz     px    dxy    dyz    dz2    dxz  x2-y2    tot
    1  0.001  0.011  0.001  0.010  0.002  0.015  0.000  0.013  0.001  0.054
    2  0.007  0.003  0.194  0.003  0.000  0.000  0.000  0.000  0.000  0.206
    3  0.007  0.003  0.194  0.003  0.000  0.000  0.000  0.000  0.000  0.206
tot    0.014  0.017  0.389  0.016  0.002  0.015  0.000  0.013  0.001  0.467
 
band     5 # energy    6.92752748 # occ. -0.00000000
 
ion      s     py     pz     px    dxy    dyz    dz2    dxz  x2-y2    tot
    1  0.001  0.009  0.001  0.011  0.003  0.012  0.000  0.015  0.003  0.054
    2  0.005  0.004  0.194  0.004  0.000  0.000  0.000  0.000  0.000  0.207
    3  0.005  0.004  0.194  0.004  0.000  0.000  0.000  0.000  0.000  0.207
tot    0.011  0.017  0.390  0.019  0.003  0.012  0.000  0.015  0.003  0.468
 
band     6 # energy   12.23286212 # occ.  0.00000000
 
ion      s     py     pz     px    dxy    dyz    dz2    dxz  x2-y2    tot
    1  0.009  0.050  0.001  0.037  0.014  0.005  0.001  0.003  0.008  0.126
    2  0.016  0.039  0.039  0.036  0.000  0.000  0.000  0.000  0.000  0.130
    3  0.016  0.039  0.039  0.036  0.000  0.000  0.000  0.000  0.000  0.130
tot    0.041  0.128  0.078  0.109  0.014  0.005  0.001  0.003  0.008  0.386
 
band     7 # energy   12.67734227 # occ.  0.00000000
 
ion      s     py     pz     px    dxy    dyz    dz2    dxz  x2-y2    tot
    1  0.058  0.010  0.021  0.037  0.009  0.003  0.001  0.003  0.017  0.160
    2  0.003  0.023  0.035  0.061  0.000  0.000  0.000  0.000  0.000  0.122
    3  0.003  0.023  0.035  0.061  0.000  0.000  0.000  0.000  0.000  0.122
tot    0.064  0.057  0.092  0.159  0.009  0.003  0.001  0.003  0.017  0.405
 
band     8 # energy   12.72473777 # occ.  0.00000000
 
ion      s     py     pz     px    dxy    dyz    dz2    dxz  x2-y2    tot
    1  0.157  0.016  0.084  0.005  0.006  0.000  0.000  0.000  0.004  0.272
    2  0.000  0.050  0.005  0.013  0.000  0.000  0.000  0.000  0.000  0.067
    3  0.000  0.050  0.005  0.013  0.000  0.000  0.000  0.000  0.000  0.067
tot    0.157  0.115  0.093  0.031  0.006  0.000  0.000  0.000  0.004  0.406
 

 k-point    75 :    0.45833333 0.29166667 0.11111111     weight = 0.00617284

band     1 # energy   -3.32462284 # occ.  2.00000000
 
ion      s     py     pz     px    dxy    dyz    dz2    dxz  x2-y2    tot
    1  0.021  0.016  0.001  0.004  0.001  0.000  0.001  0.000  0.000  0.045
    2  0.185  0.049  0.000  0.014  0.000  0.000  0.000  0.000  0.000  0.248
    3  0.185  0.049  0.000  0.014  0.000  0.000  0.000  0.000  0.000  0.248
tot    0.391  0.113  0.002  0.033  0.001  0.000  0.001  0.000  0.000  0.542
 
band     2 # energy   -0.78690342 # occ.  2.00000000
 
ion      s     py     pz     px    dxy    dyz    dz2    dxz  x2-y2    tot
    1  0.004  0.010  0.000  0.013  0.001  0.000  0.000  0.001  0.003  0.032
    2  0.158  0.095  0.000  0.020  0.000  0.000  0.000  0.000  0.000  0.273
    3  0.158  0.095  0.000  0.020  0.000  0.000  0.000  0.000  0.000  0.273
tot    0.320  0.199  0.001  0.054  0.001  0.000  0.000  0.001  0.003  0.579
 
band     3 # energy    0.47989282 # occ.  2.00000000
 
ion      s     py     pz     px    dxy    dyz    dz2    dxz  x2-y2    tot
    1  0.037  0.004  0.003  0.008  0.000  0.000  0.004  0.000  0.000  0.057
    2  0.029  0.046  0.000  0.167  0.000  0.000  0.000  0.000  0.000  0.242
    3  0.029  0.046  0.000  0.167  0.000  0.000  0.000  0.000  0.000  0.242
tot    0.094  0.096  0.003  0.343  0.000  0.000  0.004  0.000  0.000  0.541
 
band     4 # energy    5.15770662 # occ.  2.01175482
 
ion      s     py     pz     px    dxy    dyz    dz2    dxz  x2-y2    tot
    1  0.007  0.014  0.010  0.003  0.001  0.020  0.000  0.005  0.000  0.062
    2  0.008  0.003  0.187  0.002  0.000  0.000  0.000  0.000  0.000  0.200
    3  0.008  0.003  0.187  0.002  0.000  0.000  0.000  0.000  0.000  0.200
tot    0.024  0.020  0.385  0.007  0.001  0.020  0.000  0.005  0.000  0.462
 
band     5 # energy    7.83547005 # occ. -0.00000000
 
ion      s     py     pz     px    dxy    dyz    dz2    dxz  x2-y2    tot
    1  0.001  0.004  0.001  0.014  0.001  0.006  0.000  0.018  0.007  0.052
    2  0.003  0.006  0.195  0.004  0.000  0.000  0.000  0.000  0.000  0.209
    3  0.003  0.006  0.195  0.004  0.000  0.000  0.000  0.000  0.000  0.209
tot    0.008  0.017  0.392  0.022  0.001  0.006  0.000  0.018  0.007  0.471
 
band     6 # energy   11.47651168 # occ.  0.00000000
 
ion      s     py     pz     px    dxy    dyz    dz2    dxz  x2-y2    tot
    1  0.031  0.061  0.000  0.014  0.009  0.006  0.010  0.002  0.004  0.137
    2  0.025  0.033  0.040  0.024  0.000  0.000  0.000  0.000  0.000  0.121
    3  0.025  0.033  0.040  0.024  0.000  0.000  0.000  0.000  0.000  0.121
tot    0.080  0.127  0.079  0.062  0.009  0.006  0.010  0.002  0.004  0.380
 
band     7 # energy   12.99522977 # occ.  0.00000000
 
ion      s     py     pz     px    dxy    dyz    dz2    dxz  x2-y2    tot
    1  0.085  0.001  0.024  0.022  0.003  0.003  0.001  0.000  0.026  0.167
    2  0.006  0.012  0.019  0.099  0.000  0.000  0.000  0.000  0.000  0.136
    3  0.006  0.012  0.019  0.099  0.000  0.000  0.000  0.000  0.000  0.136
tot    0.098  0.024  0.063  0.221  0.003  0.003  0.001  0.000  0.026  0.440
 
band     8 # energy   13.15247564 # occ.  0.00000000
 
ion      s     py     pz     px    dxy    dyz    dz2    dxz  x2-y2    tot
    1  0.132  0.024  0.048  0.002  0.006  0.000  0.000  0.006  0.011  0.229
    2  0.000  0.066  0.024  0.012  0.000  0.000  0.000  0.000  0.000  0.102
    3  0.000  0.066  0.024  0.012  0.000  0.000  0.000  0.000  0.000  0.102
tot    0.133  0.157  0.095  0.026  0.006  0.000  0.000  0.006  0.011  0.434
 

 k-point    76 :   -0.45833333 0.29166667 0.11111111     weight = 0.00617284

band     1 # energy   -4.27754632 # occ.  2.00000000
 
ion      s     py     pz     px    dxy    dyz    dz2    dxz  x2-y2    tot
    1  0.031  0.014  0.001  0.002  0.000  0.000  0.001  0.000  0.000  0.050
    2  0.191  0.042  0.000  0.006  0.000  0.000  0.000  0.000  0.000  0.239
    3  0.191  0.042  0.000  0.006  0.000  0.000  0.000  0.000  0.000  0.239
tot    0.413  0.097  0.002  0.015  0.000  0.000  0.001  0.000  0.000  0.528
 
band     2 # energy   -0.24851439 # occ.  2.00000000
 
ion      s     py     pz     px    dxy    dyz    dz2    dxz  x2-y2    tot
    1  0.011  0.015  0.001  0.005  0.001  0.001  0.001  0.000  0.004  0.037
    2  0.128  0.134  0.000  0.006  0.000  0.000  0.000  0.000  0.000  0.268
    3  0.128  0.134  0.000  0.006  0.000  0.000  0.000  0.000  0.000  0.268
tot    0.267  0.283  0.001  0.016  0.001  0.001  0.001  0.000  0.004  0.573
 
band     3 # energy    1.82335039 # occ.  2.00000000
 
ion      s     py     pz     px    dxy    dyz    dz2    dxz  x2-y2    tot
    1  0.016  0.003  0.002  0.016  0.000  0.000  0.003  0.001  0.001  0.042
    2  0.033  0.015  0.000  0.220  0.000  0.000  0.000  0.000  0.000  0.269
    3  0.033  0.015  0.000  0.220  0.000  0.000  0.000  0.000  0.000  0.269
tot    0.082  0.034  0.002  0.457  0.000  0.000  0.003  0.001  0.001  0.579
 
band     4 # energy    4.28270274 # occ.  2.00000000
 
ion      s     py     pz     px    dxy    dyz    dz2    dxz  x2-y2    tot
    1  0.014  0.012  0.020  0.001  0.000  0.017  0.001  0.002  0.000  0.068
    2  0.010  0.002  0.181  0.001  0.000  0.000  0.000  0.000  0.000  0.195
    3  0.010  0.002  0.181  0.001  0.000  0.000  0.000  0.000  0.000  0.195
tot    0.034  0.017  0.382  0.004  0.000  0.017  0.001  0.002  0.000  0.458
 
band     5 # energy    8.77847399 # occ.  0.00000000
 
ion      s     py     pz     px    dxy    dyz    dz2    dxz  x2-y2    tot
    1  0.006  0.004  0.007  0.008  0.001  0.009  0.001  0.010  0.012  0.058
    2  0.001  0.010  0.188  0.005  0.000  0.000  0.000  0.000  0.000  0.205
    3  0.001  0.010  0.188  0.005  0.000  0.000  0.000  0.000  0.000  0.205
tot    0.008  0.024  0.384  0.018  0.001  0.009  0.001  0.010  0.012  0.467
 
band     6 # energy   10.63567376 # occ.  0.00000000
 
ion      s     py     pz     px    dxy    dyz    dz2    dxz  x2-y2    tot
    1  0.033  0.058  0.003  0.005  0.004  0.004  0.020  0.002  0.005  0.132
    2  0.028  0.031  0.040  0.018  0.000  0.000  0.000  0.000  0.000  0.117
    3  0.028  0.031  0.040  0.018  0.000  0.000  0.000  0.000  0.000  0.117
tot    0.089  0.120  0.082  0.041  0.004  0.004  0.020  0.002  0.005  0.366
 
band     7 # energy   12.32912654 # occ.  0.00000000
 
ion      s     py     pz     px    dxy    dyz    dz2    dxz  x2-y2    tot
    1  0.097  0.002  0.000  0.000  0.001  0.002  0.005  0.000  0.021  0.128
    2  0.074  0.007  0.014  0.090  0.000  0.000  0.000  0.000  0.000  0.184
    3  0.074  0.007  0.014  0.090  0.000  0.000  0.000  0.000  0.000  0.184
tot    0.244  0.016  0.027  0.180  0.001  0.002  0.005  0.000  0.021  0.496
 
band     8 # energy   13.92073378 # occ.  0.00000000
 
ion      s     py     pz     px    dxy    dyz    dz2    dxz  x2-y2    tot
    1  0.135  0.033  0.010  0.000  0.005  0.000  0.000  0.007  0.014  0.204
    2  0.003  0.084  0.042  0.018  0.000  0.000  0.000  0.000  0.000  0.147
    3  0.003  0.084  0.042  0.018  0.000  0.000  0.000  0.000  0.000  0.147
tot    0.140  0.201  0.093  0.036  0.005  0.000  0.000  0.007  0.014  0.497
 

 k-point    77 :   -0.37500000 0.29166667 0.11111111     weight = 0.00617284

band     1 # energy   -5.03002102 # occ.  2.00000000
 
ion      s     py     pz     px    dxy    dyz    dz2    dxz  x2-y2    tot
    1  0.039  0.011  0.002  0.001  0.000  0.000  0.000  0.000  0.000  0.053
    2  0.197  0.034  0.000  0.002  0.000  0.000  0.000  0.000  0.000  0.233
    3  0.197  0.034  0.000  0.002  0.000  0.000  0.000  0.000  0.000  0.233
tot    0.433  0.079  0.002  0.004  0.000  0.000  0.000  0.000  0.000  0.519
 
band     2 # energy    0.39291062 # occ.  2.00000000
 
ion      s     py     pz     px    dxy    dyz    dz2    dxz  x2-y2    tot
    1  0.012  0.017  0.001  0.001  0.000  0.001  0.001  0.000  0.004  0.037
    2  0.111  0.156  0.000  0.001  0.000  0.000  0.000  0.000  0.000  0.269
    3  0.111  0.156  0.000  0.001  0.000  0.000  0.000  0.000  0.000  0.269
tot    0.234  0.329  0.002  0.004  0.000  0.001  0.001  0.000  0.004  0.575
 
band     3 # energy    3.16104242 # occ.  2.00000000
 
ion      s     py     pz     px    dxy    dyz    dz2    dxz  x2-y2    tot
    1  0.002  0.003  0.002  0.019  0.001  0.000  0.002  0.001  0.001  0.030
    2  0.013  0.006  0.005  0.269  0.000  0.000  0.000  0.000  0.000  0.292
    3  0.013  0.006  0.005  0.269  0.000  0.000  0.000  0.000  0.000  0.292
tot    0.027  0.014  0.012  0.556  0.001  0.000  0.002  0.001  0.001  0.614
 
band     4 # energy    3.57508119 # occ.  2.00000000
 
ion      s     py     pz     px    dxy    dyz    dz2    dxz  x2-y2    tot
    1  0.021  0.009  0.026  0.000  0.000  0.014  0.001  0.001  0.000  0.072
    2  0.012  0.002  0.172  0.009  0.000  0.000  0.000  0.000  0.000  0.195
    3  0.012  0.002  0.172  0.009  0.000  0.000  0.000  0.000  0.000  0.195
tot    0.046  0.012  0.370  0.019  0.000  0.014  0.001  0.001  0.000  0.463
 
band     5 # energy    9.43445029 # occ.  0.00000000
 
ion      s     py     pz     px    dxy    dyz    dz2    dxz  x2-y2    tot
    1  0.021  0.004  0.003  0.002  0.000  0.013  0.017  0.001  0.024  0.085
    2  0.009  0.027  0.108  0.011  0.000  0.000  0.000  0.000  0.000  0.155
    3  0.009  0.027  0.108  0.011  0.000  0.000  0.000  0.000  0.000  0.155
tot    0.039  0.058  0.219  0.025  0.000  0.013  0.017  0.001  0.024  0.395
 
band     6 # energy   10.06053851 # occ.  0.00000000
 
ion      s     py     pz     px    dxy    dyz    dz2    dxz  x2-y2    tot
    1  0.008  0.054  0.015  0.000  0.001  0.000  0.015  0.002  0.000  0.097
    2  0.023  0.021  0.108  0.003  0.000  0.000  0.000  0.000  0.000  0.156
    3  0.023  0.021  0.108  0.003  0.000  0.000  0.000  0.000  0.000  0.156
tot    0.054  0.097  0.232  0.007  0.001  0.000  0.015  0.002  0.000  0.409
 
band     7 # energy   11.33484612 # occ.  0.00000000
 
ion      s     py     pz     px    dxy    dyz    dz2    dxz  x2-y2    tot
    1  0.129  0.001  0.002  0.001  0.000  0.002  0.002  0.000  0.010  0.146
    2  0.126  0.007  0.020  0.028  0.000  0.000  0.000  0.000  0.000  0.180
    3  0.126  0.007  0.020  0.028  0.000  0.000  0.000  0.000  0.000  0.180
tot    0.380  0.014  0.041  0.056  0.000  0.002  0.002  0.000  0.010  0.505
 
band     8 # energy   14.68640671 # occ.  0.00000000
 
ion      s     py     pz     px    dxy    dyz    dz2    dxz  x2-y2    tot
    1  0.091  0.041  0.000  0.000  0.003  0.001  0.000  0.001  0.023  0.162
    2  0.003  0.108  0.051  0.016  0.000  0.000  0.000  0.000  0.000  0.178
    3  0.003  0.108  0.051  0.016  0.000  0.000  0.000  0.000  0.000  0.178
tot    0.098  0.257  0.102  0.031  0.003  0.001  0.000  0.001  0.023  0.517
 

 k-point    78 :   -0.29166667 0.29166667 0.11111111     weight = 0.00308642

band     1 # energy   -5.55995358 # occ.  2.00000000
 
ion      s     py     pz     px    dxy    dyz    dz2    dxz  x2-y2    tot
    1  0.044  0.009  0.002  0.000  0.000  0.000  0.000  0.000  0.000  0.055
    2  0.202  0.026  0.000  0.000  0.000  0.000  0.000  0.000  0.000  0.229
    3  0.202  0.026  0.000  0.000  0.000  0.000  0.000  0.000  0.000  0.229
tot    0.449  0.061  0.003  0.000  0.000  0.000  0.000  0.000  0.000  0.513
 
band     2 # energy    1.19001300 # occ.  2.00000000
 
ion      s     py     pz     px    dxy    dyz    dz2    dxz  x2-y2    tot
    1  0.009  0.018  0.001  0.000  0.000  0.001  0.001  0.000  0.005  0.035
    2  0.098  0.176  0.000  0.000  0.000  0.000  0.000  0.000  0.000  0.274
    3  0.098  0.176  0.000  0.000  0.000  0.000  0.000  0.000  0.000  0.274
tot    0.204  0.370  0.002  0.000  0.000  0.001  0.001  0.000  0.005  0.584
 
band     3 # energy    3.05159621 # occ.  2.00000000
 
ion      s     py     pz     px    dxy    dyz    dz2    dxz  x2-y2    tot
    1  0.023  0.007  0.034  0.000  0.000  0.011  0.001  0.000  0.000  0.076
    2  0.012  0.002  0.174  0.000  0.000  0.000  0.000  0.000  0.000  0.188
    3  0.012  0.002  0.174  0.000  0.000  0.000  0.000  0.000  0.000  0.188
tot    0.046  0.012  0.381  0.000  0.000  0.011  0.001  0.000  0.000  0.452
 
band     4 # energy    3.94142712 # occ.  2.00000000
 
ion      s     py     pz     px    dxy    dyz    dz2    dxz  x2-y2    tot
    1  0.000  0.000  0.000  0.018  0.002  0.000  0.000  0.001  0.000  0.022
    2  0.000  0.000  0.000  0.316  0.000  0.000  0.000  0.000  0.000  0.316
    3  0.000  0.000  0.000  0.316  0.000  0.000  0.000  0.000  0.000  0.316
tot    0.000  0.000  0.000  0.649  0.002  0.000  0.000  0.001  0.000  0.653
 
band     5 # energy    9.17365263 # occ.  0.00000000
 
ion      s     py     pz     px    dxy    dyz    dz2    dxz  x2-y2    tot
    1  0.031  0.031  0.001  0.000  0.000  0.006  0.036  0.000  0.013  0.117
    2  0.029  0.038  0.037  0.000  0.000  0.000  0.000  0.000  0.000  0.104
    3  0.029  0.038  0.037  0.000  0.000  0.000  0.000  0.000  0.000  0.104
tot    0.089  0.107  0.074  0.000  0.000  0.006  0.036  0.000  0.013  0.325
 
band     6 # energy   10.53682984 # occ.  0.00000000
 
ion      s     py     pz     px    dxy    dyz    dz2    dxz  x2-y2    tot
    1  0.028  0.017  0.020  0.000  0.000  0.004  0.000  0.000  0.019  0.089
    2  0.048  0.012  0.121  0.000  0.000  0.000  0.000  0.000  0.000  0.181
    3  0.048  0.012  0.121  0.000  0.000  0.000  0.000  0.000  0.000  0.181
tot    0.124  0.042  0.262  0.000  0.000  0.004  0.000  0.000  0.019  0.452
 
band     7 # energy   11.11555650 # occ.  0.00000000
 
ion      s     py     pz     px    dxy    dyz    dz2    dxz  x2-y2    tot
    1  0.111  0.006  0.000  0.000  0.000  0.004  0.002  0.000  0.001  0.125
    2  0.099  0.016  0.084  0.000  0.000  0.000  0.000  0.000  0.000  0.199
    3  0.099  0.016  0.084  0.000  0.000  0.000  0.000  0.000  0.000  0.199
tot    0.309  0.038  0.169  0.000  0.000  0.004  0.002  0.000  0.001  0.523
 
band     8 # energy   15.28726594 # occ.  0.00000000
 
ion      s     py     pz     px    dxy    dyz    dz2    dxz  x2-y2    tot
    1  0.063  0.046  0.002  0.000  0.000  0.002  0.000  0.000  0.027  0.140
    2  0.007  0.132  0.054  0.000  0.000  0.000  0.000  0.000  0.000  0.193
    3  0.007  0.132  0.054  0.000  0.000  0.000  0.000  0.000  0.000  0.193
tot    0.076  0.310  0.110  0.000  0.000  0.002  0.000  0.000  0.027  0.526
 

 k-point    79 :    0.37500000 0.37500000 0.11111111     weight = 0.00308642

band     1 # energy   -2.39310646 # occ.  2.00000000
 
ion      s     py     pz     px    dxy    dyz    dz2    dxz  x2-y2    tot
    1  0.000  0.031  0.000  0.000  0.001  0.001  0.000  0.000  0.000  0.033
    2  0.204  0.040  0.000  0.022  0.000  0.000  0.000  0.000  0.000  0.266
    3  0.204  0.040  0.000  0.022  0.000  0.000  0.000  0.000  0.000  0.266
tot    0.407  0.110  0.001  0.044  0.001  0.001  0.000  0.000  0.000  0.564
 
band     2 # energy   -1.77711038 # occ.  2.00000000
 
ion      s     py     pz     px    dxy    dyz    dz2    dxz  x2-y2    tot
    1  0.027  0.000  0.002  0.014  0.000  0.000  0.001  0.000  0.003  0.047
    2  0.133  0.117  0.000  0.000  0.000  0.000  0.000  0.000  0.000  0.251
    3  0.133  0.117  0.000  0.000  0.000  0.000  0.000  0.000  0.000  0.251
tot    0.293  0.235  0.002  0.015  0.000  0.000  0.001  0.000  0.003  0.549
 
band     3 # energy    0.24851645 # occ.  2.00000000
 
ion      s     py     pz     px    dxy    dyz    dz2    dxz  x2-y2    tot
    1  0.036  0.000  0.003  0.012  0.000  0.000  0.003  0.000  0.001  0.055
    2  0.041  0.025  0.000  0.179  0.000  0.000  0.000  0.000  0.000  0.245
    3  0.041  0.025  0.000  0.179  0.000  0.000  0.000  0.000  0.000  0.245
tot    0.117  0.050  0.003  0.369  0.000  0.000  0.003  0.000  0.001  0.545
 
band     4 # energy    5.81050108 # occ. -0.00000001
 
ion      s     py     pz     px    dxy    dyz    dz2    dxz  x2-y2    tot
    1  0.000  0.022  0.000  0.000  0.002  0.030  0.000  0.000  0.000  0.054
    2  0.007  0.003  0.195  0.002  0.000  0.000  0.000  0.000  0.000  0.207
    3  0.007  0.003  0.195  0.002  0.000  0.000  0.000  0.000  0.000  0.207
tot    0.014  0.028  0.389  0.004  0.002  0.030  0.000  0.000  0.000  0.468
 
band     5 # energy    7.11551919 # occ. -0.00000000
 
ion      s     py     pz     px    dxy    dyz    dz2    dxz  x2-y2    tot
    1  0.006  0.000  0.008  0.017  0.000  0.000  0.000  0.022  0.007  0.059
    2  0.004  0.006  0.189  0.003  0.000  0.000  0.000  0.000  0.000  0.203
    3  0.004  0.006  0.189  0.003  0.000  0.000  0.000  0.000  0.000  0.203
tot    0.015  0.012  0.386  0.023  0.000  0.000  0.000  0.022  0.007  0.465
 
band     6 # energy   12.14688204 # occ.  0.00000000
 
ion      s     py     pz     px    dxy    dyz    dz2    dxz  x2-y2    tot
    1  0.000  0.102  0.000  0.000  0.017  0.008  0.000  0.000  0.000  0.126
    2  0.022  0.041  0.038  0.027  0.000  0.000  0.000  0.000  0.000  0.128
    3  0.022  0.041  0.038  0.027  0.000  0.000  0.000  0.000  0.000  0.128
tot    0.045  0.183  0.076  0.053  0.017  0.008  0.000  0.000  0.000  0.381
 
band     7 # energy   12.55518587 # occ.  0.00000000
 
ion      s     py     pz     px    dxy    dyz    dz2    dxz  x2-y2    tot
    1  0.003  0.000  0.000  0.038  0.000  0.000  0.008  0.005  0.040  0.093
    2  0.000  0.050  0.038  0.065  0.000  0.000  0.000  0.000  0.000  0.153
    3  0.000  0.050  0.038  0.065  0.000  0.000  0.000  0.000  0.000  0.153
tot    0.003  0.100  0.076  0.168  0.000  0.000  0.008  0.005  0.040  0.398
 
band     8 # energy   12.85317543 # occ.  0.00000000
 
ion      s     py     pz     px    dxy    dyz    dz2    dxz  x2-y2    tot
    1  0.231  0.000  0.087  0.002  0.000  0.000  0.000  0.005  0.000  0.325
    2  0.004  0.014  0.007  0.034  0.000  0.000  0.000  0.000  0.000  0.058
    3  0.004  0.014  0.007  0.034  0.000  0.000  0.000  0.000  0.000  0.058
tot    0.238  0.028  0.101  0.069  0.000  0.000  0.000  0.005  0.000  0.441
 

 k-point    80 :    0.45833333 0.37500000 0.11111111     weight = 0.00617284

band     1 # energy   -3.18015781 # occ.  2.00000000
 
ion      s     py     pz     px    dxy    dyz    dz2    dxz  x2-y2    tot
    1  0.016  0.022  0.001  0.001  0.000  0.001  0.000  0.000  0.000  0.042
    2  0.191  0.052  0.000  0.007  0.000  0.000  0.000  0.000  0.000  0.251
    3  0.191  0.052  0.000  0.007  0.000  0.000  0.000  0.000  0.000  0.251
tot    0.398  0.127  0.002  0.016  0.000  0.001  0.000  0.000  0.000  0.545
 
band     2 # energy   -1.67368924 # occ.  2.00000000
 
ion      s     py     pz     px    dxy    dyz    dz2    dxz  x2-y2    tot
    1  0.028  0.010  0.002  0.004  0.000  0.000  0.001  0.000  0.003  0.047
    2  0.130  0.117  0.000  0.003  0.000  0.000  0.000  0.000  0.000  0.250
    3  0.130  0.117  0.000  0.003  0.000  0.000  0.000  0.000  0.000  0.250
tot    0.287  0.245  0.002  0.010  0.000  0.000  0.001  0.000  0.003  0.548
 
band     3 # energy    1.55646346 # occ.  2.00000000
 
ion      s     py     pz     px    dxy    dyz    dz2    dxz  x2-y2    tot
    1  0.016  0.000  0.002  0.018  0.000  0.000  0.002  0.001  0.001  0.041
    2  0.040  0.009  0.000  0.221  0.000  0.000  0.000  0.000  0.000  0.270
    3  0.040  0.009  0.000  0.221  0.000  0.000  0.000  0.000  0.000  0.270
tot    0.097  0.018  0.002  0.459  0.000  0.000  0.002  0.001  0.001  0.581
 
band     4 # energy    5.14213080 # occ.  2.00663594
 
ion      s     py     pz     px    dxy    dyz    dz2    dxz  x2-y2    tot
    1  0.003  0.020  0.005  0.000  0.001  0.028  0.000  0.001  0.000  0.058
    2  0.008  0.003  0.191  0.001  0.000  0.000  0.000  0.000  0.000  0.204
    3  0.008  0.003  0.191  0.001  0.000  0.000  0.000  0.000  0.000  0.204
tot    0.020  0.026  0.387  0.002  0.001  0.028  0.000  0.001  0.000  0.465
 
band     5 # energy    7.63482707 # occ. -0.00000000
 
ion      s     py     pz     px    dxy    dyz    dz2    dxz  x2-y2    tot
    1  0.016  0.002  0.021  0.008  0.000  0.003  0.001  0.011  0.010  0.072
    2  0.002  0.009  0.176  0.004  0.000  0.000  0.000  0.000  0.000  0.191
    3  0.002  0.009  0.176  0.004  0.000  0.000  0.000  0.000  0.000  0.191
tot    0.020  0.020  0.373  0.015  0.000  0.003  0.001  0.011  0.010  0.453
 
band     6 # energy   11.43391927 # occ.  0.00000000
 
ion      s     py     pz     px    dxy    dyz    dz2    dxz  x2-y2    tot
    1  0.000  0.052  0.001  0.004  0.003  0.003  0.016  0.001  0.019  0.099
    2  0.026  0.037  0.031  0.044  0.000  0.000  0.000  0.000  0.000  0.138
    3  0.026  0.037  0.031  0.044  0.000  0.000  0.000  0.000  0.000  0.138
tot    0.052  0.126  0.064  0.091  0.003  0.003  0.016  0.001  0.019  0.374
 
band     7 # energy   11.99876411 # occ.  0.00000000
 
ion      s     py     pz     px    dxy    dyz    dz2    dxz  x2-y2    tot
    1  0.040  0.049  0.000  0.001  0.004  0.004  0.004  0.000  0.017  0.119
    2  0.052  0.022  0.023  0.057  0.000  0.000  0.000  0.000  0.000  0.154
    3  0.052  0.022  0.023  0.057  0.000  0.000  0.000  0.000  0.000  0.154
tot    0.144  0.093  0.047  0.115  0.004  0.004  0.004  0.000  0.017  0.428
 
band     8 # energy   13.39888442 # occ.  0.00000000
 
ion      s     py     pz     px    dxy    dyz    dz2    dxz  x2-y2    tot
    1  0.235  0.012  0.012  0.000  0.001  0.000  0.001  0.011  0.005  0.278
    2  0.019  0.047  0.046  0.014  0.000  0.000  0.000  0.000  0.000  0.125
    3  0.019  0.047  0.046  0.014  0.000  0.000  0.000  0.000  0.000  0.125
tot    0.273  0.106  0.104  0.028  0.001  0.000  0.001  0.011  0.005  0.529
 

 k-point    81 :   -0.45833333 0.37500000 0.11111111     weight = 0.00617284

band     1 # energy   -3.99454541 # occ.  2.00000000
 
ion      s     py     pz     px    dxy    dyz    dz2    dxz  x2-y2    tot
    1  0.027  0.017  0.001  0.000  0.000  0.000  0.001  0.000  0.000  0.048
    2  0.191  0.049  0.000  0.002  0.000  0.000  0.000  0.000  0.000  0.242
    3  0.191  0.049  0.000  0.002  0.000  0.000  0.000  0.000  0.000  0.242
tot    0.409  0.116  0.002  0.004  0.000  0.000  0.001  0.000  0.000  0.532
 
band     2 # energy   -1.18960848 # occ.  2.00000000
 
ion      s     py     pz     px    dxy    dyz    dz2    dxz  x2-y2    tot
    1  0.023  0.015  0.001  0.001  0.000  0.000  0.001  0.000  0.003  0.045
    2  0.127  0.126  0.000  0.001  0.000  0.000  0.000  0.000  0.000  0.254
    3  0.127  0.126  0.000  0.001  0.000  0.000  0.000  0.000  0.000  0.254
tot    0.277  0.266  0.002  0.003  0.000  0.000  0.001  0.000  0.003  0.553
 
band     3 # energy    2.82174945 # occ.  2.00000000
 
ion      s     py     pz     px    dxy    dyz    dz2    dxz  x2-y2    tot
    1  0.005  0.000  0.001  0.020  0.000  0.000  0.001  0.001  0.001  0.030
    2  0.016  0.003  0.000  0.276  0.000  0.000  0.000  0.000  0.000  0.296
    3  0.016  0.003  0.000  0.276  0.000  0.000  0.000  0.000  0.000  0.296
tot    0.037  0.007  0.001  0.572  0.000  0.000  0.001  0.001  0.001  0.621
 
band     4 # energy    4.47375647 # occ.  2.00000000
 
ion      s     py     pz     px    dxy    dyz    dz2    dxz  x2-y2    tot
    1  0.010  0.016  0.014  0.000  0.000  0.023  0.000  0.000  0.000  0.064
    2  0.009  0.003  0.185  0.001  0.000  0.000  0.000  0.000  0.000  0.198
    3  0.009  0.003  0.185  0.001  0.000  0.000  0.000  0.000  0.000  0.198
tot    0.028  0.022  0.384  0.002  0.000  0.023  0.000  0.000  0.000  0.460
 
band     5 # energy    8.20843687 # occ.  0.00000000
 
ion      s     py     pz     px    dxy    dyz    dz2    dxz  x2-y2    tot
    1  0.017  0.003  0.027  0.002  0.000  0.008  0.003  0.003  0.016  0.078
    2  0.000  0.014  0.163  0.003  0.000  0.000  0.000  0.000  0.000  0.180
    3  0.000  0.014  0.163  0.003  0.000  0.000  0.000  0.000  0.000  0.180
tot    0.018  0.030  0.352  0.009  0.000  0.008  0.003  0.003  0.016  0.438
 
band     6 # energy   10.33007242 # occ.  0.00000000
 
ion      s     py     pz     px    dxy    dyz    dz2    dxz  x2-y2    tot
    1  0.006  0.028  0.003  0.000  0.000  0.001  0.024  0.000  0.020  0.082
    2  0.060  0.031  0.028  0.027  0.000  0.000  0.000  0.000  0.000  0.145
    3  0.060  0.031  0.028  0.027  0.000  0.000  0.000  0.000  0.000  0.145
tot    0.125  0.090  0.059  0.053  0.000  0.001  0.024  0.000  0.020  0.372
 
band     7 # energy   11.38262141 # occ.  0.00000000
 
ion      s     py     pz     px    dxy    dyz    dz2    dxz  x2-y2    tot
    1  0.094  0.057  0.002  0.001  0.001  0.005  0.000  0.000  0.004  0.164
    2  0.090  0.013  0.028  0.012  0.000  0.000  0.000  0.000  0.000  0.142
    3  0.090  0.013  0.028  0.012  0.000  0.000  0.000  0.000  0.000  0.142
tot    0.273  0.082  0.059  0.024  0.001  0.005  0.000  0.000  0.004  0.448
 
band     8 # energy   13.93864578 # occ.  0.00000000
 
ion      s     py     pz     px    dxy    dyz    dz2    dxz  x2-y2    tot
    1  0.166  0.036  0.001  0.001  0.001  0.001  0.002  0.003  0.016  0.227
    2  0.020  0.072  0.055  0.004  0.000  0.000  0.000  0.000  0.000  0.150
    3  0.020  0.072  0.055  0.004  0.000  0.000  0.000  0.000  0.000  0.150
tot    0.205  0.180  0.111  0.008  0.001  0.001  0.002  0.003  0.016  0.527
 

 k-point    82 :   -0.37500000 0.37500000 0.11111111     weight = 0.00308642

band     1 # energy   -4.62250502 # occ.  2.00000000
 
ion      s     py     pz     px    dxy    dyz    dz2    dxz  x2-y2    tot
    1  0.034  0.014  0.001  0.000  0.000  0.000  0.001  0.000  0.000  0.051
    2  0.194  0.042  0.000  0.000  0.000  0.000  0.000  0.000  0.000  0.236
    3  0.194  0.042  0.000  0.000  0.000  0.000  0.000  0.000  0.000  0.236
tot    0.423  0.098  0.002  0.000  0.000  0.000  0.001  0.000  0.000  0.524
 
band     2 # energy   -0.48274430 # occ.  2.00000000
 
ion      s     py     pz     px    dxy    dyz    dz2    dxz  x2-y2    tot
    1  0.018  0.017  0.001  0.000  0.000  0.001  0.001  0.000  0.004  0.042
    2  0.119  0.140  0.000  0.000  0.000  0.000  0.000  0.000  0.000  0.259
    3  0.119  0.140  0.000  0.000  0.000  0.000  0.000  0.000  0.000  0.259
tot    0.257  0.296  0.002  0.000  0.000  0.001  0.001  0.000  0.004  0.561
 
band     3 # energy    3.50007715 # occ.  2.00000000
 
ion      s     py     pz     px    dxy    dyz    dz2    dxz  x2-y2    tot
    1  0.000  0.000  0.000  0.021  0.001  0.000  0.000  0.001  0.000  0.023
    2  0.000  0.000  0.000  0.313  0.000  0.000  0.000  0.000  0.000  0.313
    3  0.000  0.000  0.000  0.313  0.000  0.000  0.000  0.000  0.000  0.313
tot    0.000  0.000  0.000  0.647  0.001  0.000  0.000  0.001  0.000  0.650
 
band     4 # energy    3.92634605 # occ.  2.00000000
 
ion      s     py     pz     px    dxy    dyz    dz2    dxz  x2-y2    tot
    1  0.014  0.013  0.023  0.000  0.000  0.018  0.001  0.000  0.001  0.070
    2  0.010  0.003  0.180  0.000  0.000  0.000  0.000  0.000  0.000  0.193
    3  0.010  0.003  0.180  0.000  0.000  0.000  0.000  0.000  0.000  0.193
tot    0.034  0.019  0.382  0.000  0.000  0.018  0.001  0.000  0.001  0.455
 
band     5 # energy    8.78091680 # occ.  0.00000000
 
ion      s     py     pz     px    dxy    dyz    dz2    dxz  x2-y2    tot
    1  0.010  0.000  0.018  0.000  0.000  0.012  0.009  0.000  0.026  0.075
    2  0.007  0.023  0.133  0.000  0.000  0.000  0.000  0.000  0.000  0.164
    3  0.007  0.023  0.133  0.000  0.000  0.000  0.000  0.000  0.000  0.164
tot    0.025  0.047  0.284  0.000  0.000  0.012  0.009  0.000  0.026  0.403
 
band     6 # energy    9.88767539 # occ.  0.00000000
 
ion      s     py     pz     px    dxy    dyz    dz2    dxz  x2-y2    tot
    1  0.005  0.042  0.009  0.000  0.000  0.000  0.022  0.000  0.007  0.086
    2  0.056  0.029  0.063  0.000  0.000  0.000  0.000  0.000  0.000  0.148
    3  0.056  0.029  0.063  0.000  0.000  0.000  0.000  0.000  0.000  0.148
tot    0.117  0.101  0.135  0.000  0.000  0.000  0.022  0.000  0.007  0.382
 
band     7 # energy   10.98309655 # occ.  0.00000000
 
ion      s     py     pz     px    dxy    dyz    dz2    dxz  x2-y2    tot
    1  0.133  0.031  0.005  0.000  0.000  0.004  0.000  0.000  0.004  0.176
    2  0.117  0.004  0.026  0.000  0.000  0.000  0.000  0.000  0.000  0.147
    3  0.117  0.004  0.026  0.000  0.000  0.000  0.000  0.000  0.000  0.147
tot    0.367  0.039  0.057  0.000  0.000  0.004  0.000  0.000  0.004  0.471
 
band     8 # energy   14.46916774 # occ.  0.00000000
 
ion      s     py     pz     px    dxy    dyz    dz2    dxz  x2-y2    tot
    1  0.120  0.051  0.004  0.000  0.000  0.002  0.001  0.000  0.023  0.202
    2  0.010  0.090  0.055  0.000  0.000  0.000  0.000  0.000  0.000  0.156
    3  0.010  0.090  0.055  0.000  0.000  0.000  0.000  0.000  0.000  0.156
tot    0.140  0.232  0.115  0.000  0.000  0.002  0.001  0.000  0.023  0.513
 

 k-point    83 :    0.45833333 0.45833333 0.11111111     weight = 0.00308642

band     1 # energy   -3.03303137 # occ.  2.00000000
 
ion      s     py     pz     px    dxy    dyz    dz2    dxz  x2-y2    tot
    1  0.000  0.033  0.000  0.000  0.000  0.001  0.000  0.000  0.000  0.034
    2  0.218  0.040  0.000  0.002  0.000  0.000  0.000  0.000  0.000  0.261
    3  0.218  0.040  0.000  0.002  0.000  0.000  0.000  0.000  0.000  0.261
tot    0.436  0.113  0.001  0.005  0.000  0.001  0.000  0.000  0.000  0.556
 
band     2 # energy   -2.33792745 # occ.  2.00000000
 
ion      s     py     pz     px    dxy    dyz    dz2    dxz  x2-y2    tot
    1  0.050  0.000  0.003  0.001  0.000  0.000  0.002  0.000  0.003  0.059
    2  0.103  0.131  0.000  0.000  0.000  0.000  0.000  0.000  0.000  0.234
    3  0.103  0.131  0.000  0.000  0.000  0.000  0.000  0.000  0.000  0.234
tot    0.256  0.261  0.003  0.002  0.000  0.000  0.002  0.000  0.003  0.527
 
band     3 # energy    2.70594305 # occ.  2.00000000
 
ion      s     py     pz     px    dxy    dyz    dz2    dxz  x2-y2    tot
    1  0.005  0.000  0.001  0.021  0.000  0.000  0.001  0.001  0.001  0.030
    2  0.017  0.003  0.000  0.276  0.000  0.000  0.000  0.000  0.000  0.296
    3  0.017  0.003  0.000  0.276  0.000  0.000  0.000  0.000  0.000  0.296
tot    0.039  0.005  0.001  0.573  0.000  0.000  0.001  0.001  0.001  0.622
 
band     4 # energy    5.02686063 # occ.  2.00001676
 
ion      s     py     pz     px    dxy    dyz    dz2    dxz  x2-y2    tot
    1  0.000  0.022  0.000  0.000  0.000  0.032  0.000  0.000  0.000  0.054
    2  0.009  0.003  0.195  0.000  0.000  0.000  0.000  0.000  0.000  0.207
    3  0.009  0.003  0.195  0.000  0.000  0.000  0.000  0.000  0.000  0.207
tot    0.017  0.028  0.390  0.000  0.000  0.032  0.000  0.000  0.000  0.468
 
band     5 # energy    7.48549984 # occ. -0.00000000
 
ion      s     py     pz     px    dxy    dyz    dz2    dxz  x2-y2    tot
    1  0.027  0.000  0.042  0.002  0.000  0.000  0.002  0.003  0.014  0.090
    2  0.000  0.013  0.154  0.003  0.000  0.000  0.000  0.000  0.000  0.170
    3  0.000  0.013  0.154  0.003  0.000  0.000  0.000  0.000  0.000  0.170
tot    0.027  0.026  0.350  0.007  0.000  0.000  0.002  0.003  0.014  0.429
 
band     6 # energy   10.39228774 # occ.  0.00000000
 
ion      s     py     pz     px    dxy    dyz    dz2    dxz  x2-y2    tot
    1  0.029  0.000  0.001  0.000  0.000  0.000  0.021  0.000  0.029  0.079
    2  0.089  0.020  0.016  0.035  0.000  0.000  0.000  0.000  0.000  0.160
    3  0.089  0.020  0.016  0.035  0.000  0.000  0.000  0.000  0.000  0.160
tot    0.207  0.039  0.033  0.070  0.000  0.000  0.021  0.000  0.029  0.399
 
band     7 # energy   11.70320463 # occ.  0.00000000
 
ion      s     py     pz     px    dxy    dyz    dz2    dxz  x2-y2    tot
    1  0.000  0.124  0.000  0.000  0.002  0.008  0.000  0.000  0.000  0.135
    2  0.042  0.037  0.037  0.003  0.000  0.000  0.000  0.000  0.000  0.119
    3  0.042  0.037  0.037  0.003  0.000  0.000  0.000  0.000  0.000  0.119
tot    0.084  0.199  0.073  0.006  0.002  0.008  0.000  0.000  0.000  0.372
 
band     8 # energy   13.40841121 # occ.  0.00000000
 
ion      s     py     pz     px    dxy    dyz    dz2    dxz  x2-y2    tot
    1  0.243  0.000  0.004  0.002  0.000  0.000  0.005  0.003  0.011  0.268
    2  0.044  0.048  0.054  0.003  0.000  0.000  0.000  0.000  0.000  0.149
    3  0.044  0.048  0.054  0.003  0.000  0.000  0.000  0.000  0.000  0.149
tot    0.331  0.096  0.112  0.008  0.000  0.000  0.005  0.003  0.011  0.566
 

 k-point    84 :   -0.45833333 0.45833333 0.11111111     weight = 0.00308642

band     1 # energy   -3.50945472 # occ.  2.00000000
 
ion      s     py     pz     px    dxy    dyz    dz2    dxz  x2-y2    tot
    1  0.018  0.023  0.001  0.000  0.000  0.001  0.000  0.000  0.001  0.044
    2  0.195  0.053  0.000  0.000  0.000  0.000  0.000  0.000  0.000  0.249
    3  0.195  0.053  0.000  0.000  0.000  0.000  0.000  0.000  0.000  0.249
tot    0.409  0.129  0.002  0.000  0.000  0.001  0.000  0.000  0.001  0.541
 
band     2 # energy   -1.97536833 # occ.  2.00000000
 
ion      s     py     pz     px    dxy    dyz    dz2    dxz  x2-y2    tot
    1  0.034  0.010  0.002  0.000  0.000  0.000  0.002  0.000  0.003  0.051
    2  0.125  0.119  0.000  0.000  0.000  0.000  0.000  0.000  0.000  0.244
    3  0.125  0.119  0.000  0.000  0.000  0.000  0.000  0.000  0.000  0.244
tot    0.285  0.248  0.002  0.000  0.000  0.000  0.002  0.000  0.003  0.540
 
band     3 # energy    3.27368893 # occ.  2.00000000
 
ion      s     py     pz     px    dxy    dyz    dz2    dxz  x2-y2    tot
    1  0.000  0.000  0.000  0.022  0.000  0.000  0.000  0.002  0.000  0.023
    2  0.000  0.000  0.000  0.313  0.000  0.000  0.000  0.000  0.000  0.313
    3  0.000  0.000  0.000  0.313  0.000  0.000  0.000  0.000  0.000  0.313
tot    0.000  0.000  0.000  0.648  0.000  0.000  0.000  0.002  0.000  0.649
 
band     4 # energy    4.76379897 # occ.  2.00000000
 
ion      s     py     pz     px    dxy    dyz    dz2    dxz  x2-y2    tot
    1  0.003  0.020  0.005  0.000  0.000  0.029  0.000  0.000  0.000  0.058
    2  0.009  0.003  0.191  0.000  0.000  0.000  0.000  0.000  0.000  0.203
    3  0.009  0.003  0.191  0.000  0.000  0.000  0.000  0.000  0.000  0.203
tot    0.021  0.027  0.387  0.000  0.000  0.029  0.000  0.000  0.000  0.464
 
band     5 # energy    7.67220914 # occ. -0.00000000
 
ion      s     py     pz     px    dxy    dyz    dz2    dxz  x2-y2    tot
    1  0.022  0.001  0.042  0.000  0.000  0.003  0.004  0.000  0.017  0.089
    2  0.000  0.016  0.147  0.000  0.000  0.000  0.000  0.000  0.000  0.163
    3  0.000  0.016  0.147  0.000  0.000  0.000  0.000  0.000  0.000  0.163
tot    0.023  0.033  0.336  0.000  0.000  0.003  0.004  0.000  0.017  0.416
 
band     6 # energy    9.82213218 # occ.  0.00000000
 
ion      s     py     pz     px    dxy    dyz    dz2    dxz  x2-y2    tot
    1  0.035  0.004  0.002  0.000  0.000  0.000  0.021  0.000  0.024  0.085
    2  0.109  0.020  0.022  0.000  0.000  0.000  0.000  0.000  0.000  0.151
    3  0.109  0.020  0.022  0.000  0.000  0.000  0.000  0.000  0.000  0.151
tot    0.253  0.043  0.046  0.000  0.000  0.000  0.021  0.000  0.024  0.387
 
band     7 # energy   11.50919117 # occ.  0.00000000
 
ion      s     py     pz     px    dxy    dyz    dz2    dxz  x2-y2    tot
    1  0.032  0.107  0.002  0.000  0.000  0.007  0.001  0.000  0.000  0.149
    2  0.056  0.030  0.036  0.000  0.000  0.000  0.000  0.000  0.000  0.122
    3  0.056  0.030  0.036  0.000  0.000  0.000  0.000  0.000  0.000  0.122
tot    0.144  0.167  0.073  0.000  0.000  0.007  0.001  0.000  0.000  0.393
 
band     8 # energy   13.58156930 # occ.  0.00000000
 
ion      s     py     pz     px    dxy    dyz    dz2    dxz  x2-y2    tot
    1  0.204  0.015  0.008  0.000  0.000  0.001  0.006  0.000  0.015  0.249
    2  0.037  0.056  0.053  0.000  0.000  0.000  0.000  0.000  0.000  0.147
    3  0.037  0.056  0.053  0.000  0.000  0.000  0.000  0.000  0.000  0.147
tot    0.279  0.128  0.115  0.000  0.000  0.001  0.006  0.000  0.015  0.543
 

 k-point    85 :    0.04166667 0.04166667 0.22222222     weight = 0.00308642

band     1 # energy   -6.63800465 # occ.  2.00000000
 
ion      s     py     pz     px    dxy    dyz    dz2    dxz  x2-y2    tot
    1  0.047  0.000  0.008  0.001  0.000  0.000  0.000  0.000  0.000  0.055
    2  0.223  0.000  0.002  0.002  0.000  0.000  0.000  0.000  0.000  0.226
    3  0.223  0.000  0.002  0.002  0.000  0.000  0.000  0.000  0.000  0.226
tot    0.492  0.000  0.011  0.004  0.000  0.000  0.000  0.000  0.000  0.507
 
band     2 # energy    0.24323276 # occ.  2.00000000
 
ion      s     py     pz     px    dxy    dyz    dz2    dxz  x2-y2    tot
    1  0.069  0.000  0.031  0.001  0.000  0.000  0.003  0.000  0.000  0.104
    2  0.023  0.000  0.132  0.000  0.000  0.000  0.000  0.000  0.000  0.156
    3  0.023  0.000  0.132  0.000  0.000  0.000  0.000  0.000  0.000  0.156
tot    0.115  0.000  0.296  0.002  0.000  0.000  0.003  0.000  0.000  0.416
 
band     3 # energy    5.48305403 # occ. -0.06958357
 
ion      s     py     pz     px    dxy    dyz    dz2    dxz  x2-y2    tot
    1  0.000  0.002  0.000  0.000  0.008  0.001  0.000  0.000  0.000  0.011
    2  0.016  0.009  0.000  0.314  0.000  0.000  0.000  0.000  0.000  0.338
    3  0.016  0.009  0.000  0.314  0.000  0.000  0.000  0.000  0.000  0.338
tot    0.031  0.019  0.000  0.627  0.008  0.001  0.000  0.000  0.000  0.686
 
band     4 # energy    5.68771581 # occ. -0.00005558
 
ion      s     py     pz     px    dxy    dyz    dz2    dxz  x2-y2    tot
    1  0.000  0.000  0.000  0.002  0.000  0.000  0.000  0.001  0.007  0.011
    2  0.000  0.330  0.000  0.010  0.000  0.000  0.000  0.000  0.000  0.340
    3  0.000  0.330  0.000  0.010  0.000  0.000  0.000  0.000  0.000  0.340
tot    0.000  0.660  0.000  0.022  0.000  0.000  0.000  0.001  0.007  0.691
 
band     5 # energy   10.31613837 # occ.  0.00000000
 
ion      s     py     pz     px    dxy    dyz    dz2    dxz  x2-y2    tot
    1  0.076  0.000  0.016  0.005  0.000  0.000  0.047  0.002  0.000  0.146
    2  0.031  0.001  0.082  0.008  0.000  0.000  0.000  0.000  0.000  0.122
    3  0.031  0.001  0.082  0.008  0.000  0.000  0.000  0.000  0.000  0.122
tot    0.138  0.002  0.181  0.021  0.000  0.000  0.047  0.002  0.000  0.391
 
band     6 # energy   11.96541704 # occ.  0.00000000
 
ion      s     py     pz     px    dxy    dyz    dz2    dxz  x2-y2    tot
    1  0.022  0.000  0.006  0.037  0.000  0.000  0.000  0.016  0.001  0.083
    2  0.017  0.016  0.004  0.151  0.000  0.000  0.000  0.000  0.000  0.188
    3  0.017  0.016  0.004  0.151  0.000  0.000  0.000  0.000  0.000  0.188
tot    0.057  0.032  0.013  0.340  0.000  0.000  0.000  0.016  0.001  0.459
 
band     7 # energy   12.27942605 # occ.  0.00000000
 
ion      s     py     pz     px    dxy    dyz    dz2    dxz  x2-y2    tot
    1  0.000  0.043  0.000  0.000  0.002  0.020  0.000  0.000  0.000  0.065
    2  0.008  0.176  0.002  0.009  0.000  0.000  0.000  0.000  0.000  0.194
    3  0.008  0.176  0.002  0.009  0.000  0.000  0.000  0.000  0.000  0.194
tot    0.016  0.395  0.004  0.017  0.002  0.020  0.000  0.000  0.000  0.453
 
band     8 # energy   13.38638344 # occ.  0.00000000
 
ion      s     py     pz     px    dxy    dyz    dz2    dxz  x2-y2    tot
    1  0.000  0.004  0.000  0.000  0.010  0.000  0.000  0.000  0.000  0.014
    2  0.071  0.003  0.166  0.019  0.000  0.000  0.000  0.000  0.000  0.259
    3  0.071  0.003  0.166  0.019  0.000  0.000  0.000  0.000  0.000  0.259
tot    0.142  0.010  0.332  0.038  0.010  0.000  0.000  0.000  0.000  0.531
 

 k-point    86 :    0.12500000 0.04166667 0.22222222     weight = 0.00617284

band     1 # energy   -6.34025076 # occ.  2.00000000
 
ion      s     py     pz     px    dxy    dyz    dz2    dxz  x2-y2    tot
    1  0.044  0.000  0.007  0.002  0.000  0.000  0.000  0.000  0.000  0.054
    2  0.220  0.001  0.002  0.007  0.000  0.000  0.000  0.000  0.000  0.229
    3  0.220  0.001  0.002  0.007  0.000  0.000  0.000  0.000  0.000  0.229
tot    0.483  0.001  0.011  0.015  0.000  0.000  0.000  0.000  0.000  0.511
 
band     2 # energy    0.56024210 # occ.  2.00000000
 
ion      s     py     pz     px    dxy    dyz    dz2    dxz  x2-y2    tot
    1  0.064  0.000  0.030  0.005  0.000  0.000  0.002  0.001  0.000  0.103
    2  0.022  0.000  0.133  0.001  0.000  0.000  0.000  0.000  0.000  0.156
    3  0.022  0.000  0.133  0.001  0.000  0.000  0.000  0.000  0.000  0.156
tot    0.108  0.001  0.296  0.007  0.000  0.000  0.002  0.001  0.000  0.415
 
band     3 # energy    4.28793390 # occ.  2.00000000
 
ion      s     py     pz     px    dxy    dyz    dz2    dxz  x2-y2    tot
    1  0.001  0.004  0.000  0.003  0.006  0.001  0.000  0.001  0.001  0.017
    2  0.048  0.047  0.000  0.223  0.000  0.000  0.000  0.000  0.000  0.318
    3  0.048  0.047  0.000  0.223  0.000  0.000  0.000  0.000  0.000  0.318
tot    0.098  0.098  0.001  0.448  0.006  0.001  0.000  0.001  0.001  0.653
 
band     4 # energy    5.05847070 # occ.  2.00011581
 
ion      s     py     pz     px    dxy    dyz    dz2    dxz  x2-y2    tot
    1  0.001  0.002  0.000  0.005  0.001  0.001  0.000  0.002  0.004  0.016
    2  0.002  0.266  0.000  0.059  0.000  0.000  0.000  0.000  0.000  0.327
    3  0.002  0.266  0.000  0.059  0.000  0.000  0.000  0.000  0.000  0.327
tot    0.004  0.534  0.000  0.124  0.001  0.001  0.000  0.002  0.004  0.669
 
band     5 # energy   10.48357735 # occ.  0.00000000
 
ion      s     py     pz     px    dxy    dyz    dz2    dxz  x2-y2    tot
    1  0.049  0.001  0.009  0.015  0.001  0.001  0.045  0.005  0.001  0.127
    2  0.019  0.009  0.073  0.022  0.000  0.000  0.000  0.000  0.000  0.123
    3  0.019  0.009  0.073  0.022  0.000  0.000  0.000  0.000  0.000  0.123
tot    0.086  0.020  0.156  0.058  0.001  0.001  0.045  0.005  0.001  0.373
 
band     6 # energy   11.85112744 # occ.  0.00000000
 
ion      s     py     pz     px    dxy    dyz    dz2    dxz  x2-y2    tot
    1  0.053  0.001  0.017  0.005  0.011  0.003  0.000  0.005  0.003  0.097
    2  0.069  0.030  0.046  0.046  0.000  0.000  0.000  0.000  0.000  0.190
    3  0.069  0.030  0.046  0.046  0.000  0.000  0.000  0.000  0.000  0.190
tot    0.190  0.061  0.108  0.096  0.011  0.003  0.000  0.005  0.003  0.477
 
band     7 # energy   12.42304283 # occ.  0.00000000
 
ion      s     py     pz     px    dxy    dyz    dz2    dxz  x2-y2    tot
    1  0.022  0.004  0.002  0.015  0.018  0.002  0.000  0.001  0.000  0.064
    2  0.012  0.020  0.150  0.037  0.000  0.000  0.000  0.000  0.000  0.219
    3  0.012  0.020  0.150  0.037  0.000  0.000  0.000  0.000  0.000  0.219
tot    0.046  0.045  0.302  0.090  0.018  0.002  0.000  0.001  0.000  0.503
 
band     8 # energy   13.40394246 # occ.  0.00000000
 
ion      s     py     pz     px    dxy    dyz    dz2    dxz  x2-y2    tot
    1  0.000  0.042  0.000  0.003  0.000  0.012  0.000  0.003  0.002  0.062
    2  0.013  0.150  0.016  0.034  0.000  0.000  0.000  0.000  0.000  0.213
    3  0.013  0.150  0.016  0.034  0.000  0.000  0.000  0.000  0.000  0.213
tot    0.026  0.342  0.032  0.071  0.000  0.012  0.000  0.003  0.002  0.488
 

 k-point    87 :    0.20833333 0.04166667 0.22222222     weight = 0.00617284

band     1 # energy   -5.80780614 # occ.  2.00000000
 
ion      s     py     pz     px    dxy    dyz    dz2    dxz  x2-y2    tot
    1  0.039  0.001  0.007  0.004  0.000  0.000  0.000  0.000  0.000  0.052
    2  0.214  0.002  0.002  0.015  0.000  0.000  0.000  0.000  0.000  0.233
    3  0.214  0.002  0.002  0.015  0.000  0.000  0.000  0.000  0.000  0.233
tot    0.467  0.005  0.010  0.034  0.000  0.000  0.000  0.000  0.000  0.517
 
band     2 # energy    1.11930665 # occ.  2.00000000
 
ion      s     py     pz     px    dxy    dyz    dz2    dxz  x2-y2    tot
    1  0.055  0.002  0.027  0.011  0.000  0.000  0.002  0.003  0.000  0.100
    2  0.019  0.001  0.134  0.003  0.000  0.000  0.000  0.000  0.000  0.157
    3  0.019  0.001  0.134  0.003  0.000  0.000  0.000  0.000  0.000  0.157
tot    0.093  0.003  0.296  0.017  0.000  0.000  0.002  0.003  0.000  0.414
 
band     3 # energy    2.67423488 # occ.  2.00000000
 
ion      s     py     pz     px    dxy    dyz    dz2    dxz  x2-y2    tot
    1  0.006  0.004  0.001  0.005  0.004  0.001  0.001  0.002  0.001  0.025
    2  0.082  0.053  0.001  0.162  0.000  0.000  0.000  0.000  0.000  0.298
    3  0.082  0.053  0.001  0.162  0.000  0.000  0.000  0.000  0.000  0.298
tot    0.169  0.110  0.003  0.330  0.004  0.001  0.001  0.002  0.001  0.620
 
band     4 # energy    4.35513079 # occ.  2.00000000
 
ion      s     py     pz     px    dxy    dyz    dz2    dxz  x2-y2    tot
    1  0.001  0.006  0.000  0.005  0.001  0.002  0.000  0.002  0.002  0.019
    2  0.003  0.237  0.000  0.079  0.000  0.000  0.000  0.000  0.000  0.319
    3  0.003  0.237  0.000  0.079  0.000  0.000  0.000  0.000  0.000  0.319
tot    0.007  0.479  0.000  0.163  0.001  0.002  0.000  0.002  0.002  0.657
 
band     5 # energy   10.34833370 # occ.  0.00000000
 
ion      s     py     pz     px    dxy    dyz    dz2    dxz  x2-y2    tot
    1  0.008  0.000  0.001  0.001  0.025  0.005  0.016  0.008  0.006  0.072
    2  0.015  0.014  0.106  0.025  0.000  0.000  0.000  0.000  0.000  0.160
    3  0.015  0.014  0.106  0.025  0.000  0.000  0.000  0.000  0.000  0.160
tot    0.039  0.028  0.212  0.051  0.025  0.005  0.016  0.008  0.006  0.391
 
band     6 # energy   11.02351238 # occ.  0.00000000
 
ion      s     py     pz     px    dxy    dyz    dz2    dxz  x2-y2    tot
    1  0.004  0.014  0.007  0.034  0.006  0.000  0.024  0.001  0.000  0.090
    2  0.011  0.013  0.113  0.023  0.000  0.000  0.000  0.000  0.000  0.160
    3  0.011  0.013  0.113  0.023  0.000  0.000  0.000  0.000  0.000  0.160
tot    0.025  0.040  0.232  0.079  0.006  0.000  0.024  0.001  0.000  0.409
 
band     7 # energy   11.90908087 # occ.  0.00000000
 
ion      s     py     pz     px    dxy    dyz    dz2    dxz  x2-y2    tot
    1  0.135  0.002  0.021  0.002  0.000  0.000  0.001  0.000  0.000  0.161
    2  0.109  0.018  0.045  0.012  0.000  0.000  0.000  0.000  0.000  0.184
    3  0.109  0.018  0.045  0.012  0.000  0.000  0.000  0.000  0.000  0.184
tot    0.352  0.038  0.110  0.026  0.000  0.000  0.001  0.000  0.000  0.529
 
band     8 # energy   14.95535503 # occ.  0.00000000
 
ion      s     py     pz     px    dxy    dyz    dz2    dxz  x2-y2    tot
    1  0.006  0.030  0.001  0.012  0.003  0.007  0.000  0.003  0.002  0.064
    2  0.028  0.172  0.007  0.022  0.000  0.000  0.000  0.000  0.000  0.229
    3  0.028  0.172  0.007  0.022  0.000  0.000  0.000  0.000  0.000  0.229
tot    0.061  0.375  0.016  0.055  0.003  0.007  0.000  0.003  0.002  0.522
 

 k-point    88 :    0.29166667 0.04166667 0.22222222     weight = 0.00617284

band     1 # energy   -5.04717468 # occ.  2.00000000
 
ion      s     py     pz     px    dxy    dyz    dz2    dxz  x2-y2    tot
    1  0.033  0.001  0.006  0.007  0.000  0.000  0.000  0.001  0.000  0.049
    2  0.206  0.005  0.001  0.027  0.000  0.000  0.000  0.000  0.000  0.239
    3  0.206  0.005  0.001  0.027  0.000  0.000  0.000  0.000  0.000  0.239
tot    0.445  0.011  0.009  0.060  0.000  0.000  0.000  0.001  0.000  0.527
 
band     2 # energy    0.95725787 # occ.  2.00000000
 
ion      s     py     pz     px    dxy    dyz    dz2    dxz  x2-y2    tot
    1  0.005  0.005  0.005  0.011  0.003  0.001  0.001  0.001  0.001  0.032
    2  0.102  0.047  0.002  0.124  0.000  0.000  0.000  0.000  0.000  0.276
    3  0.102  0.047  0.002  0.124  0.000  0.000  0.000  0.000  0.000  0.276
tot    0.209  0.099  0.010  0.259  0.003  0.001  0.001  0.001  0.001  0.584
 
band     3 # energy    1.92717626 # occ.  2.00000000
 
ion      s     py     pz     px    dxy    dyz    dz2    dxz  x2-y2    tot
    1  0.049  0.002  0.019  0.015  0.001  0.001  0.001  0.006  0.000  0.096
    2  0.022  0.000  0.136  0.004  0.000  0.000  0.000  0.000  0.000  0.164
    3  0.022  0.000  0.136  0.004  0.000  0.000  0.000  0.000  0.000  0.164
tot    0.094  0.003  0.292  0.023  0.001  0.001  0.001  0.006  0.000  0.423
 
band     4 # energy    3.76638427 # occ.  2.00000000
 
ion      s     py     pz     px    dxy    dyz    dz2    dxz  x2-y2    tot
    1  0.001  0.009  0.000  0.004  0.001  0.003  0.000  0.002  0.001  0.021
    2  0.004  0.229  0.000  0.082  0.000  0.000  0.000  0.000  0.000  0.315
    3  0.004  0.229  0.000  0.082  0.000  0.000  0.000  0.000  0.000  0.315
tot    0.010  0.466  0.001  0.168  0.001  0.003  0.000  0.002  0.001  0.651
 
band     5 # energy    8.80979615 # occ.  0.00000000
 
ion      s     py     pz     px    dxy    dyz    dz2    dxz  x2-y2    tot
    1  0.015  0.007  0.009  0.007  0.025  0.005  0.002  0.005  0.006  0.082
    2  0.001  0.005  0.144  0.014  0.000  0.000  0.000  0.000  0.000  0.165
    3  0.001  0.005  0.144  0.014  0.000  0.000  0.000  0.000  0.000  0.165
tot    0.018  0.017  0.298  0.036  0.025  0.005  0.002  0.005  0.006  0.412
 
band     6 # energy   10.79965006 # occ.  0.00000000
 
ion      s     py     pz     px    dxy    dyz    dz2    dxz  x2-y2    tot
    1  0.018  0.009  0.000  0.024  0.003  0.000  0.024  0.002  0.002  0.082
    2  0.082  0.029  0.022  0.024  0.000  0.000  0.000  0.000  0.000  0.157
    3  0.082  0.029  0.022  0.024  0.000  0.000  0.000  0.000  0.000  0.157
tot    0.182  0.067  0.045  0.072  0.003  0.000  0.024  0.002  0.002  0.397
 
band     7 # energy   12.18502410 # occ.  0.00000000
 
ion      s     py     pz     px    dxy    dyz    dz2    dxz  x2-y2    tot
    1  0.131  0.003  0.019  0.012  0.001  0.000  0.009  0.005  0.000  0.180
    2  0.078  0.000  0.078  0.003  0.000  0.000  0.000  0.000  0.000  0.159
    3  0.078  0.000  0.078  0.003  0.000  0.000  0.000  0.000  0.000  0.159
tot    0.286  0.004  0.176  0.018  0.001  0.000  0.009  0.005  0.000  0.499
 
band     8 # energy   15.72580452 # occ.  0.00000000
 
ion      s     py     pz     px    dxy    dyz    dz2    dxz  x2-y2    tot
    1  0.078  0.019  0.018  0.094  0.000  0.004  0.001  0.005  0.005  0.224
    2  0.009  0.040  0.063  0.008  0.000  0.000  0.000  0.000  0.000  0.119
    3  0.009  0.040  0.063  0.008  0.000  0.000  0.000  0.000  0.000  0.119
tot    0.096  0.098  0.143  0.110  0.000  0.004  0.001  0.005  0.005  0.462
 

 k-point    89 :    0.37500000 0.04166667 0.22222222     weight = 0.00617284

band     1 # energy   -4.07356254 # occ.  2.00000000
 
ion      s     py     pz     px    dxy    dyz    dz2    dxz  x2-y2    tot
    1  0.024  0.002  0.005  0.010  0.000  0.000  0.000  0.001  0.000  0.045
    2  0.198  0.008  0.001  0.040  0.000  0.000  0.000  0.000  0.000  0.247
    3  0.198  0.008  0.001  0.040  0.000  0.000  0.000  0.000  0.000  0.247
tot    0.420  0.019  0.008  0.090  0.000  0.000  0.000  0.001  0.000  0.539
 
band     2 # energy   -0.64835556 # occ.  2.00000000
 
ion      s     py     pz     px    dxy    dyz    dz2    dxz  x2-y2    tot
    1  0.015  0.005  0.005  0.008  0.002  0.001  0.001  0.001  0.000  0.039
    2  0.126  0.039  0.001  0.098  0.000  0.000  0.000  0.000  0.000  0.264
    3  0.126  0.039  0.001  0.098  0.000  0.000  0.000  0.000  0.000  0.264
tot    0.266  0.083  0.007  0.205  0.002  0.001  0.001  0.001  0.000  0.566
 
band     3 # energy    2.87084735 # occ.  2.00000000
 
ion      s     py     pz     px    dxy    dyz    dz2    dxz  x2-y2    tot
    1  0.028  0.005  0.013  0.028  0.001  0.003  0.001  0.009  0.000  0.087
    2  0.017  0.000  0.143  0.006  0.000  0.000  0.000  0.000  0.000  0.166
    3  0.017  0.000  0.143  0.006  0.000  0.000  0.000  0.000  0.000  0.166
tot    0.061  0.005  0.299  0.041  0.001  0.003  0.001  0.009  0.000  0.420
 
band     4 # energy    3.37217854 # occ.  2.00000000
 
ion      s     py     pz     px    dxy    dyz    dz2    dxz  x2-y2    tot
    1  0.002  0.011  0.000  0.003  0.000  0.003  0.000  0.002  0.000  0.023
    2  0.005  0.228  0.001  0.078  0.000  0.000  0.000  0.000  0.000  0.313
    3  0.005  0.228  0.001  0.078  0.000  0.000  0.000  0.000  0.000  0.313
tot    0.012  0.468  0.002  0.159  0.000  0.003  0.000  0.002  0.000  0.648
 
band     5 # energy    7.21488180 # occ. -0.00000000
 
ion      s     py     pz     px    dxy    dyz    dz2    dxz  x2-y2    tot
    1  0.036  0.007  0.018  0.008  0.018  0.003  0.001  0.003  0.005  0.100
    2  0.001  0.004  0.134  0.012  0.000  0.000  0.000  0.000  0.000  0.152
    3  0.001  0.004  0.134  0.012  0.000  0.000  0.000  0.000  0.000  0.152
tot    0.038  0.015  0.287  0.032  0.018  0.003  0.001  0.003  0.005  0.404
 
band     6 # energy   10.57053277 # occ.  0.00000000
 
ion      s     py     pz     px    dxy    dyz    dz2    dxz  x2-y2    tot
    1  0.047  0.003  0.003  0.007  0.009  0.000  0.017  0.000  0.004  0.090
    2  0.124  0.020  0.007  0.012  0.000  0.000  0.000  0.000  0.000  0.163
    3  0.124  0.020  0.007  0.012  0.000  0.000  0.000  0.000  0.000  0.163
tot    0.296  0.044  0.016  0.030  0.009  0.000  0.017  0.000  0.004  0.417
 
band     7 # energy   12.88985730 # occ.  0.00000000
 
ion      s     py     pz     px    dxy    dyz    dz2    dxz  x2-y2    tot
    1  0.085  0.013  0.008  0.037  0.000  0.001  0.008  0.010  0.000  0.164
    2  0.044  0.002  0.090  0.016  0.000  0.000  0.000  0.000  0.000  0.152
    3  0.044  0.002  0.090  0.016  0.000  0.000  0.000  0.000  0.000  0.152
tot    0.173  0.017  0.188  0.069  0.000  0.001  0.008  0.010  0.000  0.468
 
band     8 # energy   15.16790998 # occ.  0.00000000
 
ion      s     py     pz     px    dxy    dyz    dz2    dxz  x2-y2    tot
    1  0.115  0.010  0.017  0.075  0.000  0.009  0.000  0.002  0.001  0.229
    2  0.002  0.019  0.089  0.015  0.000  0.000  0.000  0.000  0.000  0.125
    3  0.002  0.019  0.089  0.015  0.000  0.000  0.000  0.000  0.000  0.125
tot    0.120  0.047  0.195  0.105  0.000  0.009  0.000  0.002  0.001  0.478
 

 k-point    90 :    0.45833333 0.04166667 0.22222222     weight = 0.00617284

band     1 # energy   -2.98387145 # occ.  2.00000000
 
ion      s     py     pz     px    dxy    dyz    dz2    dxz  x2-y2    tot
    1  0.007  0.005  0.002  0.017  0.000  0.001  0.000  0.002  0.000  0.034
    2  0.211  0.010  0.001  0.041  0.000  0.000  0.000  0.000  0.000  0.263
    3  0.211  0.010  0.001  0.041  0.000  0.000  0.000  0.000  0.000  0.263
tot    0.429  0.024  0.004  0.099  0.000  0.001  0.000  0.002  0.000  0.560
 
band     2 # energy   -2.01982231 # occ.  2.00000000
 
ion      s     py     pz     px    dxy    dyz    dz2    dxz  x2-y2    tot
    1  0.032  0.002  0.009  0.002  0.002  0.000  0.001  0.000  0.000  0.050
    2  0.118  0.035  0.001  0.092  0.000  0.000  0.000  0.000  0.000  0.246
    3  0.118  0.035  0.001  0.092  0.000  0.000  0.000  0.000  0.000  0.246
tot    0.268  0.073  0.010  0.187  0.002  0.000  0.001  0.000  0.000  0.541
 
band     3 # energy    3.19449220 # occ.  2.00000000
 
ion      s     py     pz     px    dxy    dyz    dz2    dxz  x2-y2    tot
    1  0.001  0.011  0.001  0.005  0.000  0.004  0.000  0.001  0.000  0.023
    2  0.005  0.228  0.000  0.079  0.000  0.000  0.000  0.000  0.000  0.312
    3  0.005  0.228  0.000  0.079  0.000  0.000  0.000  0.000  0.000  0.312
tot    0.011  0.468  0.001  0.162  0.000  0.004  0.000  0.001  0.000  0.647
 
band     4 # energy    3.67803992 # occ.  2.00000000
 
ion      s     py     pz     px    dxy    dyz    dz2    dxz  x2-y2    tot
    1  0.003  0.012  0.001  0.038  0.000  0.004  0.000  0.014  0.000  0.073
    2  0.016  0.002  0.155  0.003  0.000  0.000  0.000  0.000  0.000  0.177
    3  0.016  0.002  0.155  0.003  0.000  0.000  0.000  0.000  0.000  0.177
tot    0.035  0.017  0.312  0.044  0.000  0.004  0.000  0.014  0.000  0.426
 
band     5 # energy    6.11963600 # occ. -0.00000000
 
ion      s     py     pz     px    dxy    dyz    dz2    dxz  x2-y2    tot
    1  0.064  0.002  0.029  0.000  0.015  0.001  0.002  0.000  0.005  0.119
    2  0.001  0.004  0.121  0.012  0.000  0.000  0.000  0.000  0.000  0.138
    3  0.001  0.004  0.121  0.012  0.000  0.000  0.000  0.000  0.000  0.138
tot    0.067  0.011  0.271  0.023  0.015  0.001  0.002  0.000  0.005  0.395
 
band     6 # energy   10.45101057 # occ.  0.00000000
 
ion      s     py     pz     px    dxy    dyz    dz2    dxz  x2-y2    tot
    1  0.059  0.000  0.003  0.000  0.012  0.000  0.015  0.000  0.004  0.094
    2  0.138  0.012  0.004  0.010  0.000  0.000  0.000  0.000  0.000  0.164
    3  0.138  0.012  0.004  0.010  0.000  0.000  0.000  0.000  0.000  0.164
tot    0.334  0.025  0.011  0.021  0.012  0.000  0.015  0.000  0.004  0.422
 
band     7 # energy   13.57500062 # occ.  0.00000000
 
ion      s     py     pz     px    dxy    dyz    dz2    dxz  x2-y2    tot
    1  0.011  0.027  0.001  0.072  0.000  0.003  0.001  0.014  0.000  0.130
    2  0.028  0.007  0.087  0.027  0.000  0.000  0.000  0.000  0.000  0.148
    3  0.028  0.007  0.087  0.027  0.000  0.000  0.000  0.000  0.000  0.148
tot    0.066  0.041  0.174  0.126  0.000  0.003  0.001  0.014  0.000  0.426
 
band     8 # energy   14.64200535 # occ.  0.00000000
 
ion      s     py     pz     px    dxy    dyz    dz2    dxz  x2-y2    tot
    1  0.193  0.009  0.003  0.021  0.001  0.008  0.003  0.001  0.000  0.238
    2  0.001  0.013  0.120  0.022  0.000  0.000  0.000  0.000  0.000  0.156
    3  0.001  0.013  0.120  0.022  0.000  0.000  0.000  0.000  0.000  0.156
tot    0.196  0.035  0.243  0.064  0.001  0.008  0.003  0.001  0.000  0.550
 

 k-point    91 :   -0.45833333 0.04166667 0.22222222     weight = 0.00617284

band     1 # energy   -3.52146765 # occ.  2.00000000
 
ion      s     py     pz     px    dxy    dyz    dz2    dxz  x2-y2    tot
    1  0.018  0.005  0.004  0.011  0.000  0.001  0.000  0.001  0.000  0.041
    2  0.197  0.018  0.001  0.037  0.000  0.000  0.000  0.000  0.000  0.253
    3  0.197  0.018  0.001  0.037  0.000  0.000  0.000  0.000  0.000  0.253
tot    0.412  0.041  0.007  0.084  0.000  0.001  0.000  0.001  0.000  0.547
 
band     2 # energy   -1.38779697 # occ.  2.00000000
 
ion      s     py     pz     px    dxy    dyz    dz2    dxz  x2-y2    tot
    1  0.021  0.002  0.006  0.009  0.001  0.000  0.001  0.001  0.001  0.043
    2  0.130  0.027  0.001  0.099  0.000  0.000  0.000  0.000  0.000  0.257
    3  0.130  0.027  0.001  0.099  0.000  0.000  0.000  0.000  0.000  0.257
tot    0.281  0.055  0.008  0.207  0.001  0.000  0.001  0.001  0.001  0.556
 
band     3 # energy    3.24455562 # occ.  2.00000000
 
ion      s     py     pz     px    dxy    dyz    dz2    dxz  x2-y2    tot
    1  0.000  0.018  0.002  0.000  0.000  0.002  0.000  0.004  0.000  0.027
    2  0.005  0.221  0.012  0.061  0.000  0.000  0.000  0.000  0.000  0.299
    3  0.005  0.221  0.012  0.061  0.000  0.000  0.000  0.000  0.000  0.299
tot    0.010  0.460  0.027  0.123  0.000  0.002  0.000  0.004  0.000  0.626
 
band     4 # energy    3.35234644 # occ.  2.00000000
 
ion      s     py     pz     px    dxy    dyz    dz2    dxz  x2-y2    tot
    1  0.017  0.006  0.005  0.032  0.001  0.007  0.000  0.008  0.000  0.076
    2  0.016  0.013  0.137  0.018  0.000  0.000  0.000  0.000  0.000  0.184
    3  0.016  0.013  0.137  0.018  0.000  0.000  0.000  0.000  0.000  0.184
tot    0.050  0.031  0.280  0.068  0.001  0.007  0.000  0.008  0.000  0.444
 
band     5 # energy    6.55181017 # occ. -0.00000000
 
ion      s     py     pz     px    dxy    dyz    dz2    dxz  x2-y2    tot
    1  0.050  0.000  0.024  0.009  0.015  0.000  0.001  0.004  0.006  0.110
    2  0.001  0.005  0.127  0.011  0.000  0.000  0.000  0.000  0.000  0.145
    3  0.001  0.005  0.127  0.011  0.000  0.000  0.000  0.000  0.000  0.145
tot    0.053  0.010  0.278  0.031  0.015  0.000  0.001  0.004  0.006  0.399
 
band     6 # energy   10.49196206 # occ.  0.00000000
 
ion      s     py     pz     px    dxy    dyz    dz2    dxz  x2-y2    tot
    1  0.055  0.001  0.003  0.003  0.012  0.000  0.016  0.000  0.004  0.093
    2  0.133  0.007  0.005  0.019  0.000  0.000  0.000  0.000  0.000  0.164
    3  0.133  0.007  0.005  0.019  0.000  0.000  0.000  0.000  0.000  0.164
tot    0.322  0.015  0.012  0.040  0.012  0.000  0.016  0.000  0.004  0.421
 
band     7 # energy   13.27531638 # occ.  0.00000000
 
ion      s     py     pz     px    dxy    dyz    dz2    dxz  x2-y2    tot
    1  0.054  0.016  0.004  0.057  0.000  0.006  0.005  0.009  0.000  0.150
    2  0.034  0.010  0.090  0.016  0.000  0.000  0.000  0.000  0.000  0.150
    3  0.034  0.010  0.090  0.016  0.000  0.000  0.000  0.000  0.000  0.150
tot    0.121  0.036  0.184  0.089  0.000  0.006  0.005  0.009  0.000  0.451
 
band     8 # energy   14.88177838 # occ.  0.00000000
 
ion      s     py     pz     px    dxy    dyz    dz2    dxz  x2-y2    tot
    1  0.148  0.058  0.008  0.002  0.001  0.004  0.001  0.005  0.000  0.227
    2  0.001  0.004  0.106  0.031  0.000  0.000  0.000  0.000  0.000  0.142
    3  0.001  0.004  0.106  0.031  0.000  0.000  0.000  0.000  0.000  0.142
tot    0.150  0.065  0.220  0.065  0.001  0.004  0.001  0.005  0.000  0.512
 

 k-point    92 :   -0.37500000 0.04166667 0.22222222     weight = 0.00617284

band     1 # energy   -4.58516829 # occ.  2.00000000
 
ion      s     py     pz     px    dxy    dyz    dz2    dxz  x2-y2    tot
    1  0.029  0.004  0.006  0.007  0.000  0.000  0.000  0.001  0.000  0.047
    2  0.202  0.014  0.001  0.026  0.000  0.000  0.000  0.000  0.000  0.243
    3  0.202  0.014  0.001  0.026  0.000  0.000  0.000  0.000  0.000  0.243
tot    0.432  0.031  0.009  0.059  0.000  0.000  0.000  0.001  0.000  0.533
 
band     2 # energy    0.13978000 # occ.  2.00000000
 
ion      s     py     pz     px    dxy    dyz    dz2    dxz  x2-y2    tot
    1  0.010  0.002  0.005  0.012  0.002  0.000  0.001  0.002  0.001  0.035
    2  0.116  0.034  0.001  0.120  0.000  0.000  0.000  0.000  0.000  0.271
    3  0.116  0.034  0.001  0.120  0.000  0.000  0.000  0.000  0.000  0.271
tot    0.242  0.070  0.007  0.251  0.002  0.000  0.001  0.002  0.001  0.576
 
band     3 # energy    2.38456134 # occ.  2.00000000
 
ion      s     py     pz     px    dxy    dyz    dz2    dxz  x2-y2    tot
    1  0.039  0.009  0.017  0.016  0.001  0.003  0.001  0.007  0.000  0.092
    2  0.018  0.002  0.140  0.002  0.000  0.000  0.000  0.000  0.000  0.163
    3  0.018  0.002  0.140  0.002  0.000  0.000  0.000  0.000  0.000  0.163
tot    0.076  0.014  0.297  0.020  0.001  0.003  0.001  0.007  0.000  0.419
 
band     4 # energy    3.54265852 # occ.  2.00000000
 
ion      s     py     pz     px    dxy    dyz    dz2    dxz  x2-y2    tot
    1  0.001  0.011  0.000  0.003  0.000  0.005  0.000  0.001  0.001  0.022
    2  0.005  0.234  0.000  0.075  0.000  0.000  0.000  0.000  0.000  0.314
    3  0.005  0.234  0.000  0.075  0.000  0.000  0.000  0.000  0.000  0.314
tot    0.011  0.479  0.001  0.152  0.000  0.005  0.000  0.001  0.001  0.649
 
band     5 # energy    7.98636645 # occ. -0.00000000
 
ion      s     py     pz     px    dxy    dyz    dz2    dxz  x2-y2    tot
    1  0.025  0.001  0.013  0.015  0.018  0.001  0.001  0.008  0.008  0.091
    2  0.001  0.006  0.140  0.012  0.000  0.000  0.000  0.000  0.000  0.158
    3  0.001  0.006  0.140  0.012  0.000  0.000  0.000  0.000  0.000  0.158
tot    0.026  0.013  0.294  0.039  0.018  0.001  0.001  0.008  0.008  0.408
 
band     6 # energy   10.67873098 # occ.  0.00000000
 
ion      s     py     pz     px    dxy    dyz    dz2    dxz  x2-y2    tot
    1  0.035  0.004  0.002  0.015  0.008  0.000  0.019  0.001  0.002  0.086
    2  0.108  0.005  0.011  0.037  0.000  0.000  0.000  0.000  0.000  0.161
    3  0.108  0.005  0.011  0.037  0.000  0.000  0.000  0.000  0.000  0.161
tot    0.251  0.015  0.025  0.088  0.008  0.000  0.019  0.001  0.002  0.409
 
band     7 # energy   12.51081356 # occ.  0.00000000
 
ion      s     py     pz     px    dxy    dyz    dz2    dxz  x2-y2    tot
    1  0.109  0.009  0.014  0.023  0.000  0.004  0.010  0.004  0.000  0.174
    2  0.058  0.006  0.086  0.004  0.000  0.000  0.000  0.000  0.000  0.154
    3  0.058  0.006  0.086  0.004  0.000  0.000  0.000  0.000  0.000  0.154
tot    0.226  0.020  0.186  0.031  0.000  0.004  0.010  0.004  0.000  0.482
 
band     8 # energy   15.45323833 # occ.  0.00000000
 
ion      s     py     pz     px    dxy    dyz    dz2    dxz  x2-y2    tot
    1  0.093  0.101  0.022  0.002  0.002  0.009  0.000  0.002  0.001  0.233
    2  0.005  0.001  0.074  0.033  0.000  0.000  0.000  0.000  0.000  0.112
    3  0.005  0.001  0.074  0.033  0.000  0.000  0.000  0.000  0.000  0.112
tot    0.103  0.103  0.170  0.067  0.002  0.009  0.000  0.002  0.001  0.457
 

 k-point    93 :   -0.29166667 0.04166667 0.22222222     weight = 0.00617284

band     1 # energy   -5.45540431 # occ.  2.00000000
 
ion      s     py     pz     px    dxy    dyz    dz2    dxz  x2-y2    tot
    1  0.036  0.002  0.007  0.004  0.000  0.000  0.000  0.000  0.000  0.050
    2  0.210  0.009  0.001  0.015  0.000  0.000  0.000  0.000  0.000  0.235
    3  0.210  0.009  0.001  0.015  0.000  0.000  0.000  0.000  0.000  0.235
tot    0.456  0.020  0.010  0.034  0.000  0.000  0.000  0.000  0.000  0.521
 
band     2 # energy    1.46426532 # occ.  2.00000000
 
ion      s     py     pz     px    dxy    dyz    dz2    dxz  x2-y2    tot
    1  0.039  0.007  0.026  0.015  0.000  0.001  0.002  0.002  0.000  0.092
    2  0.017  0.005  0.126  0.015  0.000  0.000  0.000  0.000  0.000  0.163
    3  0.017  0.005  0.126  0.015  0.000  0.000  0.000  0.000  0.000  0.163
tot    0.073  0.018  0.277  0.046  0.000  0.001  0.002  0.002  0.000  0.419
 
band     3 # energy    1.84517264 # occ.  2.00000000
 
ion      s     py     pz     px    dxy    dyz    dz2    dxz  x2-y2    tot
    1  0.019  0.000  0.000  0.005  0.003  0.001  0.000  0.004  0.001  0.034
    2  0.096  0.043  0.011  0.133  0.000  0.000  0.000  0.000  0.000  0.283
    3  0.096  0.043  0.011  0.133  0.000  0.000  0.000  0.000  0.000  0.283
tot    0.211  0.086  0.022  0.270  0.003  0.001  0.000  0.004  0.001  0.600
 
band     4 # energy    4.03989109 # occ.  2.00000000
 
ion      s     py     pz     px    dxy    dyz    dz2    dxz  x2-y2    tot
    1  0.001  0.010  0.000  0.002  0.000  0.004  0.000  0.000  0.002  0.020
    2  0.004  0.235  0.000  0.077  0.000  0.000  0.000  0.000  0.000  0.316
    3  0.004  0.235  0.000  0.077  0.000  0.000  0.000  0.000  0.000  0.316
tot    0.009  0.481  0.000  0.156  0.000  0.004  0.000  0.000  0.002  0.653
 
band     5 # energy    9.63798643 # occ.  0.00000000
 
ion      s     py     pz     px    dxy    dyz    dz2    dxz  x2-y2    tot
    1  0.009  0.000  0.006  0.008  0.024  0.001  0.004  0.010  0.012  0.073
    2  0.005  0.008  0.142  0.016  0.000  0.000  0.000  0.000  0.000  0.170
    3  0.005  0.008  0.142  0.016  0.000  0.000  0.000  0.000  0.000  0.170
tot    0.018  0.015  0.289  0.039  0.024  0.001  0.004  0.010  0.012  0.413
 
band     6 # energy   10.90491878 # occ.  0.00000000
 
ion      s     py     pz     px    dxy    dyz    dz2    dxz  x2-y2    tot
    1  0.002  0.011  0.000  0.037  0.001  0.001  0.029  0.002  0.000  0.083
    2  0.044  0.008  0.049  0.051  0.000  0.000  0.000  0.000  0.000  0.151
    3  0.044  0.008  0.049  0.051  0.000  0.000  0.000  0.000  0.000  0.151
tot    0.091  0.026  0.098  0.138  0.001  0.001  0.029  0.002  0.000  0.386
 
band     7 # energy   11.96368656 # occ.  0.00000000
 
ion      s     py     pz     px    dxy    dyz    dz2    dxz  x2-y2    tot
    1  0.146  0.001  0.022  0.001  0.001  0.001  0.006  0.001  0.001  0.179
    2  0.101  0.001  0.063  0.005  0.000  0.000  0.000  0.000  0.000  0.170
    3  0.101  0.001  0.063  0.005  0.000  0.000  0.000  0.000  0.000  0.170
tot    0.348  0.003  0.148  0.011  0.001  0.001  0.006  0.001  0.001  0.519
 
band     8 # energy   15.70307898 # occ.  0.00000000
 
ion      s     py     pz     px    dxy    dyz    dz2    dxz  x2-y2    tot
    1  0.032  0.071  0.000  0.001  0.001  0.000  0.001  0.001  0.002  0.109
    2  0.028  0.048  0.030  0.108  0.000  0.000  0.000  0.000  0.000  0.214
    3  0.028  0.048  0.030  0.108  0.000  0.000  0.000  0.000  0.000  0.214
tot    0.088  0.166  0.060  0.218  0.001  0.000  0.001  0.001  0.002  0.537
 

 k-point    94 :   -0.20833333 0.04166667 0.22222222     weight = 0.00617284

band     1 # energy   -6.10307405 # occ.  2.00000000
 
ion      s     py     pz     px    dxy    dyz    dz2    dxz  x2-y2    tot
    1  0.042  0.001  0.007  0.002  0.000  0.000  0.000  0.000  0.000  0.053
    2  0.217  0.005  0.002  0.007  0.000  0.000  0.000  0.000  0.000  0.230
    3  0.217  0.005  0.002  0.007  0.000  0.000  0.000  0.000  0.000  0.230
tot    0.476  0.012  0.010  0.015  0.000  0.000  0.000  0.000  0.000  0.514
 
band     2 # energy    0.81062902 # occ.  2.00000000
 
ion      s     py     pz     px    dxy    dyz    dz2    dxz  x2-y2    tot
    1  0.061  0.004  0.028  0.005  0.000  0.001  0.002  0.001  0.000  0.102
    2  0.021  0.001  0.134  0.001  0.000  0.000  0.000  0.000  0.000  0.157
    3  0.021  0.001  0.134  0.001  0.000  0.000  0.000  0.000  0.000  0.157
tot    0.102  0.005  0.296  0.007  0.000  0.001  0.002  0.001  0.000  0.415
 
band     3 # energy    3.50619420 # occ.  2.00000000
 
ion      s     py     pz     px    dxy    dyz    dz2    dxz  x2-y2    tot
    1  0.003  0.001  0.001  0.008  0.004  0.000  0.000  0.003  0.002  0.021
    2  0.065  0.071  0.000  0.171  0.000  0.000  0.000  0.000  0.000  0.308
    3  0.065  0.071  0.000  0.171  0.000  0.000  0.000  0.000  0.000  0.308
tot    0.133  0.143  0.002  0.349  0.004  0.000  0.000  0.003  0.002  0.636
 
band     4 # energy    4.69968388 # occ.  2.00000000
 
ion      s     py     pz     px    dxy    dyz    dz2    dxz  x2-y2    tot
    1  0.001  0.009  0.000  0.000  0.001  0.004  0.000  0.000  0.003  0.018
    2  0.002  0.227  0.000  0.093  0.000  0.000  0.000  0.000  0.000  0.322
    3  0.002  0.227  0.000  0.093  0.000  0.000  0.000  0.000  0.000  0.322
tot    0.006  0.463  0.000  0.186  0.001  0.004  0.000  0.000  0.003  0.662
 
band     5 # energy   10.56094035 # occ.  0.00000000
 
ion      s     py     pz     px    dxy    dyz    dz2    dxz  x2-y2    tot
    1  0.027  0.008  0.003  0.010  0.006  0.003  0.041  0.007  0.001  0.106
    2  0.017  0.011  0.067  0.034  0.000  0.000  0.000  0.000  0.000  0.129
    3  0.017  0.011  0.067  0.034  0.000  0.000  0.000  0.000  0.000  0.129
tot    0.060  0.030  0.136  0.079  0.006  0.003  0.041  0.007  0.001  0.363
 
band     6 # energy   11.45579338 # occ.  0.00000000
 
ion      s     py     pz     px    dxy    dyz    dz2    dxz  x2-y2    tot
    1  0.020  0.001  0.013  0.008  0.016  0.000  0.004  0.004  0.012  0.078
    2  0.031  0.005  0.141  0.013  0.000  0.000  0.000  0.000  0.000  0.190
    3  0.031  0.005  0.141  0.013  0.000  0.000  0.000  0.000  0.000  0.190
tot    0.081  0.012  0.296  0.033  0.016  0.000  0.004  0.004  0.012  0.458
 
band     7 # energy   12.04652509 # occ.  0.00000000
 
ion      s     py     pz     px    dxy    dyz    dz2    dxz  x2-y2    tot
    1  0.089  0.003  0.012  0.018  0.000  0.000  0.000  0.000  0.002  0.124
    2  0.068  0.010  0.064  0.056  0.000  0.000  0.000  0.000  0.000  0.198
    3  0.068  0.010  0.064  0.056  0.000  0.000  0.000  0.000  0.000  0.198
tot    0.224  0.024  0.141  0.130  0.000  0.000  0.000  0.000  0.002  0.521
 
band     8 # energy   14.12632273 # occ.  0.00000000
 
ion      s     py     pz     px    dxy    dyz    dz2    dxz  x2-y2    tot
    1  0.002  0.026  0.001  0.015  0.001  0.010  0.000  0.004  0.004  0.062
    2  0.022  0.122  0.006  0.069  0.000  0.000  0.000  0.000  0.000  0.220
    3  0.022  0.122  0.006  0.069  0.000  0.000  0.000  0.000  0.000  0.220
tot    0.047  0.270  0.013  0.154  0.001  0.010  0.000  0.004  0.004  0.501
 

 k-point    95 :   -0.12500000 0.04166667 0.22222222     weight = 0.00617284

band     1 # energy   -6.51875272 # occ.  2.00000000
 
ion      s     py     pz     px    dxy    dyz    dz2    dxz  x2-y2    tot
    1  0.045  0.001  0.007  0.000  0.000  0.000  0.000  0.000  0.000  0.054
    2  0.222  0.002  0.002  0.002  0.000  0.000  0.000  0.000  0.000  0.227
    3  0.222  0.002  0.002  0.002  0.000  0.000  0.000  0.000  0.000  0.227
tot    0.489  0.005  0.011  0.004  0.000  0.000  0.000  0.000  0.000  0.509
 
band     2 # energy    0.37023954 # occ.  2.00000000
 
ion      s     py     pz     px    dxy    dyz    dz2    dxz  x2-y2    tot
    1  0.067  0.002  0.031  0.001  0.000  0.000  0.003  0.000  0.000  0.104
    2  0.023  0.000  0.133  0.000  0.000  0.000  0.000  0.000  0.000  0.156
    3  0.023  0.000  0.133  0.000  0.000  0.000  0.000  0.000  0.000  0.156
tot    0.112  0.002  0.296  0.002  0.000  0.000  0.003  0.000  0.000  0.415
 
band     3 # energy    4.96892827 # occ.  2.00000028
 
ion      s     py     pz     px    dxy    dyz    dz2    dxz  x2-y2    tot
    1  0.000  0.000  0.000  0.004  0.003  0.000  0.000  0.002  0.004  0.013
    2  0.031  0.145  0.000  0.152  0.000  0.000  0.000  0.000  0.000  0.329
    3  0.031  0.145  0.000  0.152  0.000  0.000  0.000  0.000  0.000  0.329
tot    0.062  0.291  0.000  0.309  0.003  0.000  0.000  0.002  0.004  0.671
 
band     4 # energy    5.40397599 # occ.  0.41749286
 
ion      s     py     pz     px    dxy    dyz    dz2    dxz  x2-y2    tot
    1  0.000  0.005  0.000  0.000  0.003  0.002  0.000  0.000  0.003  0.013
    2  0.001  0.172  0.000  0.161  0.000  0.000  0.000  0.000  0.000  0.333
    3  0.001  0.172  0.000  0.161  0.000  0.000  0.000  0.000  0.000  0.333
tot    0.002  0.348  0.000  0.322  0.003  0.002  0.000  0.000  0.003  0.680
 
band     5 # energy   10.38481960 # occ.  0.00000000
 
ion      s     py     pz     px    dxy    dyz    dz2    dxz  x2-y2    tot
    1  0.064  0.006  0.013  0.005  0.000  0.002  0.046  0.002  0.000  0.138
    2  0.025  0.008  0.079  0.010  0.000  0.000  0.000  0.000  0.000  0.122
    3  0.025  0.008  0.079  0.010  0.000  0.000  0.000  0.000  0.000  0.122
tot    0.114  0.022  0.171  0.025  0.000  0.002  0.046  0.002  0.000  0.383
 
band     6 # energy   11.98033382 # occ.  0.00000000
 
ion      s     py     pz     px    dxy    dyz    dz2    dxz  x2-y2    tot
    1  0.043  0.012  0.012  0.014  0.003  0.005  0.000  0.007  0.000  0.096
    2  0.042  0.050  0.010  0.087  0.000  0.000  0.000  0.000  0.000  0.189
    3  0.042  0.050  0.010  0.087  0.000  0.000  0.000  0.000  0.000  0.189
tot    0.127  0.111  0.033  0.187  0.003  0.005  0.000  0.007  0.000  0.473
 
band     7 # energy   12.61368386 # occ.  0.00000000
 
ion      s     py     pz     px    dxy    dyz    dz2    dxz  x2-y2    tot
    1  0.002  0.018  0.000  0.007  0.002  0.009  0.000  0.008  0.009  0.055
    2  0.027  0.082  0.038  0.059  0.000  0.000  0.000  0.000  0.000  0.207
    3  0.027  0.082  0.038  0.059  0.000  0.000  0.000  0.000  0.000  0.207
tot    0.056  0.183  0.077  0.124  0.002  0.009  0.000  0.008  0.009  0.468
 
band     8 # energy   13.11899812 # occ.  0.00000000
 
ion      s     py     pz     px    dxy    dyz    dz2    dxz  x2-y2    tot
    1  0.001  0.005  0.000  0.021  0.006  0.001  0.000  0.001  0.005  0.040
    2  0.009  0.041  0.152  0.036  0.000  0.000  0.000  0.000  0.000  0.238
    3  0.009  0.041  0.152  0.036  0.000  0.000  0.000  0.000  0.000  0.238
tot    0.018  0.086  0.304  0.094  0.006  0.001  0.000  0.001  0.005  0.515
 

 k-point    96 :   -0.04166667 0.04166667 0.22222222     weight = 0.00308642

band     1 # energy   -6.69771644 # occ.  2.00000000
 
ion      s     py     pz     px    dxy    dyz    dz2    dxz  x2-y2    tot
    1  0.047  0.000  0.008  0.000  0.000  0.000  0.000  0.000  0.000  0.055
    2  0.224  0.001  0.002  0.000  0.000  0.000  0.000  0.000  0.000  0.226
    3  0.224  0.001  0.002  0.000  0.000  0.000  0.000  0.000  0.000  0.226
tot    0.494  0.001  0.011  0.000  0.000  0.000  0.000  0.000  0.000  0.507
 
band     2 # energy    0.17951395 # occ.  2.00000000
 
ion      s     py     pz     px    dxy    dyz    dz2    dxz  x2-y2    tot
    1  0.070  0.000  0.032  0.000  0.000  0.000  0.003  0.000  0.000  0.104
    2  0.024  0.000  0.132  0.000  0.000  0.000  0.000  0.000  0.000  0.156
    3  0.024  0.000  0.132  0.000  0.000  0.000  0.000  0.000  0.000  0.156
tot    0.117  0.001  0.296  0.000  0.000  0.000  0.003  0.000  0.000  0.416
 
band     3 # energy    5.76937628 # occ. -0.00000020
 
ion      s     py     pz     px    dxy    dyz    dz2    dxz  x2-y2    tot
    1  0.000  0.001  0.000  0.000  0.000  0.000  0.000  0.000  0.008  0.009
    2  0.006  0.338  0.000  0.000  0.000  0.000  0.000  0.000  0.000  0.343
    3  0.006  0.338  0.000  0.000  0.000  0.000  0.000  0.000  0.000  0.343
tot    0.011  0.676  0.000  0.000  0.000  0.000  0.000  0.000  0.008  0.696
 
band     4 # energy    5.84733992 # occ. -0.00000000
 
ion      s     py     pz     px    dxy    dyz    dz2    dxz  x2-y2    tot
    1  0.000  0.000  0.000  0.001  0.008  0.000  0.000  0.000  0.000  0.009
    2  0.000  0.000  0.000  0.345  0.000  0.000  0.000  0.000  0.000  0.345
    3  0.000  0.000  0.000  0.345  0.000  0.000  0.000  0.000  0.000  0.345
tot    0.000  0.000  0.000  0.690  0.008  0.000  0.000  0.000  0.000  0.698
 
band     5 # energy   10.28542558 # occ.  0.00000000
 
ion      s     py     pz     px    dxy    dyz    dz2    dxz  x2-y2    tot
    1  0.083  0.002  0.018  0.000  0.000  0.001  0.047  0.000  0.000  0.150
    2  0.036  0.003  0.084  0.000  0.000  0.000  0.000  0.000  0.000  0.123
    3  0.036  0.003  0.084  0.000  0.000  0.000  0.000  0.000  0.000  0.123
tot    0.154  0.008  0.187  0.000  0.000  0.001  0.047  0.000  0.000  0.396
 
band     6 # energy   11.92635081 # occ.  0.00000000
 
ion      s     py     pz     px    dxy    dyz    dz2    dxz  x2-y2    tot
    1  0.008  0.043  0.002  0.000  0.000  0.019  0.000  0.000  0.001  0.073
    2  0.007  0.179  0.001  0.000  0.000  0.000  0.000  0.000  0.000  0.188
    3  0.007  0.179  0.001  0.000  0.000  0.000  0.000  0.000  0.000  0.188
tot    0.022  0.401  0.005  0.000  0.000  0.019  0.000  0.000  0.001  0.449
 
band     7 # energy   12.05575047 # occ.  0.00000000
 
ion      s     py     pz     px    dxy    dyz    dz2    dxz  x2-y2    tot
    1  0.000  0.000  0.000  0.046  0.000  0.000  0.000  0.021  0.000  0.067
    2  0.000  0.000  0.000  0.190  0.000  0.000  0.000  0.000  0.000  0.190
    3  0.000  0.000  0.000  0.190  0.000  0.000  0.000  0.000  0.000  0.190
tot    0.000  0.000  0.000  0.426  0.000  0.000  0.000  0.021  0.000  0.447
 
band     8 # energy   13.52901525 # occ.  0.00000000
 
ion      s     py     pz     px    dxy    dyz    dz2    dxz  x2-y2    tot
    1  0.000  0.000  0.000  0.000  0.000  0.000  0.000  0.000  0.004  0.004
    2  0.117  0.007  0.143  0.000  0.000  0.000  0.000  0.000  0.000  0.267
    3  0.117  0.007  0.143  0.000  0.000  0.000  0.000  0.000  0.000  0.267
tot    0.234  0.015  0.287  0.000  0.000  0.000  0.000  0.000  0.004  0.539
 

 k-point    97 :    0.12500000 0.12500000 0.22222222     weight = 0.00308642

band     1 # energy   -5.92572819 # occ.  2.00000000
 
ion      s     py     pz     px    dxy    dyz    dz2    dxz  x2-y2    tot
    1  0.040  0.000  0.007  0.004  0.000  0.000  0.000  0.000  0.000  0.052
    2  0.215  0.000  0.002  0.015  0.000  0.000  0.000  0.000  0.000  0.232
    3  0.215  0.000  0.002  0.015  0.000  0.000  0.000  0.000  0.000  0.232
tot    0.470  0.000  0.010  0.034  0.000  0.000  0.000  0.000  0.000  0.516
 
band     2 # energy    0.99751683 # occ.  2.00000000
 
ion      s     py     pz     px    dxy    dyz    dz2    dxz  x2-y2    tot
    1  0.058  0.000  0.027  0.011  0.000  0.000  0.002  0.003  0.000  0.101
    2  0.020  0.000  0.134  0.003  0.000  0.000  0.000  0.000  0.000  0.157
    3  0.020  0.000  0.134  0.003  0.000  0.000  0.000  0.000  0.000  0.157
tot    0.097  0.000  0.296  0.016  0.000  0.000  0.002  0.003  0.000  0.414
 
band     3 # energy    3.25244347 # occ.  2.00000000
 
ion      s     py     pz     px    dxy    dyz    dz2    dxz  x2-y2    tot
    1  0.000  0.009  0.000  0.000  0.006  0.003  0.000  0.000  0.000  0.018
    2  0.078  0.030  0.000  0.204  0.000  0.000  0.000  0.000  0.000  0.312
    3  0.078  0.030  0.000  0.204  0.000  0.000  0.000  0.000  0.000  0.312
tot    0.156  0.069  0.001  0.407  0.006  0.003  0.000  0.000  0.000  0.642
 
band     4 # energy    4.09327666 # occ.  2.00000000
 
ion      s     py     pz     px    dxy    dyz    dz2    dxz  x2-y2    tot
    1  0.006  0.000  0.001  0.011  0.000  0.000  0.001  0.004  0.002  0.027
    2  0.008  0.249  0.000  0.045  0.000  0.000  0.000  0.000  0.000  0.302
    3  0.008  0.249  0.000  0.045  0.000  0.000  0.000  0.000  0.000  0.302
tot    0.022  0.498  0.002  0.101  0.000  0.000  0.001  0.004  0.002  0.631
 
band     5 # energy   10.86368318 # occ.  0.00000000
 
ion      s     py     pz     px    dxy    dyz    dz2    dxz  x2-y2    tot
    1  0.040  0.000  0.007  0.023  0.000  0.000  0.042  0.007  0.002  0.122
    2  0.013  0.021  0.072  0.022  0.000  0.000  0.000  0.000  0.000  0.128
    3  0.013  0.021  0.072  0.022  0.000  0.000  0.000  0.000  0.000  0.128
tot    0.066  0.041  0.151  0.066  0.000  0.000  0.042  0.007  0.002  0.377
 
band     6 # energy   11.02590413 # occ.  0.00000000
 
ion      s     py     pz     px    dxy    dyz    dz2    dxz  x2-y2    tot
    1  0.000  0.011  0.000  0.000  0.036  0.008  0.000  0.000  0.000  0.055
    2  0.003  0.009  0.174  0.016  0.000  0.000  0.000  0.000  0.000  0.201
    3  0.003  0.009  0.174  0.016  0.000  0.000  0.000  0.000  0.000  0.201
tot    0.006  0.028  0.347  0.032  0.036  0.008  0.000  0.000  0.000  0.457
 
band     7 # energy   12.46962850 # occ.  0.00000000
 
ion      s     py     pz     px    dxy    dyz    dz2    dxz  x2-y2    tot
    1  0.108  0.000  0.021  0.010  0.000  0.000  0.001  0.001  0.003  0.144
    2  0.065  0.076  0.017  0.033  0.000  0.000  0.000  0.000  0.000  0.190
    3  0.065  0.076  0.017  0.033  0.000  0.000  0.000  0.000  0.000  0.190
tot    0.238  0.152  0.055  0.076  0.000  0.000  0.001  0.001  0.003  0.525
 
band     8 # energy   13.72446276 # occ.  0.00000000
 
ion      s     py     pz     px    dxy    dyz    dz2    dxz  x2-y2    tot
    1  0.000  0.037  0.000  0.000  0.003  0.006  0.000  0.000  0.000  0.046
    2  0.093  0.120  0.022  0.000  0.000  0.000  0.000  0.000  0.000  0.235
    3  0.093  0.120  0.022  0.000  0.000  0.000  0.000  0.000  0.000  0.235
tot    0.186  0.276  0.043  0.000  0.003  0.006  0.000  0.000  0.000  0.516
 

 k-point    98 :    0.20833333 0.12500000 0.22222222     weight = 0.00617284

band     1 # energy   -5.28020248 # occ.  2.00000000
 
ion      s     py     pz     px    dxy    dyz    dz2    dxz  x2-y2    tot
    1  0.035  0.000  0.007  0.007  0.000  0.000  0.000  0.001  0.000  0.050
    2  0.208  0.001  0.001  0.027  0.000  0.000  0.000  0.000  0.000  0.237
    3  0.208  0.001  0.001  0.027  0.000  0.000  0.000  0.000  0.000  0.237
tot    0.451  0.001  0.009  0.060  0.000  0.000  0.000  0.001  0.000  0.524
 
band     2 # energy    1.64347589 # occ.  2.00000000
 
ion      s     py     pz     px    dxy    dyz    dz2    dxz  x2-y2    tot
    1  0.034  0.002  0.024  0.022  0.000  0.000  0.002  0.003  0.000  0.088
    2  0.020  0.008  0.120  0.023  0.000  0.000  0.000  0.000  0.000  0.170
    3  0.020  0.008  0.120  0.023  0.000  0.000  0.000  0.000  0.000  0.170
tot    0.073  0.018  0.263  0.068  0.000  0.000  0.002  0.003  0.000  0.428
 
band     3 # energy    1.86045194 # occ.  2.00000000
 
ion      s     py     pz     px    dxy    dyz    dz2    dxz  x2-y2    tot
    1  0.016  0.007  0.001  0.000  0.004  0.003  0.000  0.003  0.000  0.034
    2  0.099  0.039  0.017  0.127  0.000  0.000  0.000  0.000  0.000  0.283
    3  0.099  0.039  0.017  0.127  0.000  0.000  0.000  0.000  0.000  0.283
tot    0.215  0.086  0.035  0.253  0.004  0.003  0.000  0.003  0.000  0.599
 
band     4 # energy    3.23279258 # occ.  2.00000000
 
ion      s     py     pz     px    dxy    dyz    dz2    dxz  x2-y2    tot
    1  0.010  0.003  0.002  0.008  0.001  0.001  0.001  0.004  0.001  0.031
    2  0.019  0.207  0.001  0.065  0.000  0.000  0.000  0.000  0.000  0.292
    3  0.019  0.207  0.001  0.065  0.000  0.000  0.000  0.000  0.000  0.292
tot    0.049  0.417  0.004  0.138  0.001  0.001  0.001  0.004  0.001  0.616
 
band     5 # energy    9.51453926 # occ.  0.00000000
 
ion      s     py     pz     px    dxy    dyz    dz2    dxz  x2-y2    tot
    1  0.004  0.019  0.002  0.001  0.030  0.009  0.000  0.001  0.001  0.067
    2  0.000  0.006  0.163  0.015  0.000  0.000  0.000  0.000  0.000  0.184
    3  0.000  0.006  0.163  0.015  0.000  0.000  0.000  0.000  0.000  0.184
tot    0.004  0.031  0.327  0.031  0.030  0.009  0.000  0.001  0.001  0.435
 
band     6 # energy   11.38523990 # occ.  0.00000000
 
ion      s     py     pz     px    dxy    dyz    dz2    dxz  x2-y2    tot
    1  0.015  0.004  0.002  0.032  0.000  0.000  0.037  0.008  0.004  0.102
    2  0.012  0.039  0.064  0.023  0.000  0.000  0.000  0.000  0.000  0.138
    3  0.012  0.039  0.064  0.023  0.000  0.000  0.000  0.000  0.000  0.138
tot    0.039  0.081  0.130  0.078  0.000  0.000  0.037  0.008  0.004  0.378
 
band     7 # energy   12.50812452 # occ.  0.00000000
 
ion      s     py     pz     px    dxy    dyz    dz2    dxz  x2-y2    tot
    1  0.156  0.001  0.013  0.002  0.002  0.000  0.000  0.001  0.001  0.176
    2  0.091  0.059  0.032  0.003  0.000  0.000  0.000  0.000  0.000  0.186
    3  0.091  0.059  0.032  0.003  0.000  0.000  0.000  0.000  0.000  0.186
tot    0.338  0.119  0.077  0.008  0.002  0.000  0.000  0.001  0.001  0.547
 
band     8 # energy   14.54757681 # occ.  0.00000000
 
ion      s     py     pz     px    dxy    dyz    dz2    dxz  x2-y2    tot
    1  0.042  0.017  0.004  0.034  0.006  0.001  0.001  0.001  0.000  0.107
    2  0.067  0.101  0.025  0.009  0.000  0.000  0.000  0.000  0.000  0.202
    3  0.067  0.101  0.025  0.009  0.000  0.000  0.000  0.000  0.000  0.202
tot    0.175  0.220  0.054  0.052  0.006  0.001  0.001  0.001  0.000  0.510
 

 k-point    99 :    0.29166667 0.12500000 0.22222222     weight = 0.00617284

band     1 # energy   -4.41403490 # occ.  2.00000000
 
ion      s     py     pz     px    dxy    dyz    dz2    dxz  x2-y2    tot
    1  0.028  0.001  0.006  0.010  0.000  0.000  0.000  0.001  0.000  0.046
    2  0.200  0.002  0.001  0.041  0.000  0.000  0.000  0.000  0.000  0.244
    3  0.200  0.002  0.001  0.041  0.000  0.000  0.000  0.000  0.000  0.244
tot    0.427  0.005  0.008  0.092  0.000  0.000  0.000  0.001  0.000  0.534
 
band     2 # energy    0.25067607 # occ.  2.00000000
 
ion      s     py     pz     px    dxy    dyz    dz2    dxz  x2-y2    tot
    1  0.008  0.008  0.004  0.006  0.003  0.002  0.001  0.001  0.000  0.033
    2  0.120  0.051  0.001  0.103  0.000  0.000  0.000  0.000  0.000  0.275
    3  0.120  0.051  0.001  0.103  0.000  0.000  0.000  0.000  0.000  0.275
tot    0.247  0.111  0.005  0.212  0.003  0.002  0.001  0.001  0.000  0.583
 
band     3 # energy    2.49412124 # occ.  2.00000000
 
ion      s     py     pz     px    dxy    dyz    dz2    dxz  x2-y2    tot
    1  0.013  0.000  0.018  0.032  0.001  0.002  0.002  0.003  0.000  0.072
    2  0.012  0.046  0.098  0.038  0.000  0.000  0.000  0.000  0.000  0.194
    3  0.012  0.046  0.098  0.038  0.000  0.000  0.000  0.000  0.000  0.194
tot    0.036  0.093  0.214  0.109  0.001  0.002  0.002  0.003  0.000  0.459
 
band     4 # energy    2.73227707 # occ.  2.00000000
 
ion      s     py     pz     px    dxy    dyz    dz2    dxz  x2-y2    tot
    1  0.032  0.008  0.000  0.000  0.000  0.001  0.000  0.009  0.001  0.051
    2  0.032  0.144  0.044  0.039  0.000  0.000  0.000  0.000  0.000  0.260
    3  0.032  0.144  0.044  0.039  0.000  0.000  0.000  0.000  0.000  0.260
tot    0.097  0.296  0.088  0.079  0.000  0.001  0.000  0.009  0.001  0.570
 
band     5 # energy    7.94639504 # occ. -0.00000000
 
ion      s     py     pz     px    dxy    dyz    dz2    dxz  x2-y2    tot
    1  0.016  0.021  0.007  0.003  0.022  0.009  0.000  0.002  0.002  0.082
    2  0.001  0.005  0.150  0.013  0.000  0.000  0.000  0.000  0.000  0.169
    3  0.001  0.005  0.150  0.013  0.000  0.000  0.000  0.000  0.000  0.169
tot    0.019  0.031  0.307  0.029  0.022  0.009  0.000  0.002  0.002  0.421
 
band     6 # energy   11.64755378 # occ.  0.00000000
 
ion      s     py     pz     px    dxy    dyz    dz2    dxz  x2-y2    tot
    1  0.018  0.004  0.000  0.024  0.006  0.001  0.024  0.002  0.006  0.083
    2  0.057  0.075  0.017  0.015  0.000  0.000  0.000  0.000  0.000  0.164
    3  0.057  0.075  0.017  0.015  0.000  0.000  0.000  0.000  0.000  0.164
tot    0.132  0.154  0.034  0.054  0.006  0.001  0.024  0.002  0.006  0.412
 
band     7 # energy   12.59325466 # occ.  0.00000000
 
ion      s     py     pz     px    dxy    dyz    dz2    dxz  x2-y2    tot
    1  0.174  0.005  0.003  0.006  0.002  0.000  0.005  0.013  0.001  0.208
    2  0.053  0.005  0.080  0.014  0.000  0.000  0.000  0.000  0.000  0.152
    3  0.053  0.005  0.080  0.014  0.000  0.000  0.000  0.000  0.000  0.152
tot    0.280  0.015  0.162  0.035  0.002  0.000  0.005  0.013  0.001  0.513
 
band     8 # energy   14.15664634 # occ.  0.00000000
 
ion      s     py     pz     px    dxy    dyz    dz2    dxz  x2-y2    tot
    1  0.053  0.010  0.062  0.087  0.000  0.003  0.001  0.004  0.002  0.221
    2  0.027  0.012  0.029  0.006  0.000  0.000  0.000  0.000  0.000  0.075
    3  0.027  0.012  0.029  0.006  0.000  0.000  0.000  0.000  0.000  0.075
tot    0.107  0.035  0.120  0.100  0.000  0.003  0.001  0.004  0.002  0.372
 

 k-point   100 :    0.37500000 0.12500000 0.22222222     weight = 0.00617284

band     1 # energy   -3.35636295 # occ.  2.00000000
 
ion      s     py     pz     px    dxy    dyz    dz2    dxz  x2-y2    tot
    1  0.017  0.002  0.004  0.015  0.000  0.000  0.000  0.002  0.000  0.041
    2  0.195  0.005  0.001  0.053  0.000  0.000  0.000  0.000  0.000  0.254
    3  0.195  0.005  0.001  0.053  0.000  0.000  0.000  0.000  0.000  0.254
tot    0.407  0.011  0.006  0.121  0.000  0.000  0.000  0.002  0.000  0.549
 
band     2 # energy   -1.24215134 # occ.  2.00000000
 
ion      s     py     pz     px    dxy    dyz    dz2    dxz  x2-y2    tot
    1  0.019  0.007  0.006  0.004  0.002  0.001  0.001  0.001  0.000  0.041
    2  0.132  0.046  0.001  0.081  0.000  0.000  0.000  0.000  0.000  0.260
    3  0.132  0.046  0.001  0.081  0.000  0.000  0.000  0.000  0.000  0.260
tot    0.282  0.100  0.007  0.166  0.002  0.001  0.001  0.001  0.000  0.560
 
band     3 # energy    2.34730815 # occ.  2.00000000
 
ion      s     py     pz     px    dxy    dyz    dz2    dxz  x2-y2    tot
    1  0.005  0.009  0.004  0.007  0.001  0.003  0.001  0.001  0.000  0.031
    2  0.029  0.186  0.001  0.072  0.000  0.000  0.000  0.000  0.000  0.288
    3  0.029  0.186  0.001  0.072  0.000  0.000  0.000  0.000  0.000  0.288
tot    0.063  0.381  0.006  0.151  0.001  0.003  0.001  0.001  0.000  0.607
 
band     4 # energy    3.53209811 # occ.  2.00000000
 
ion      s     py     pz     px    dxy    dyz    dz2    dxz  x2-y2    tot
    1  0.017  0.006  0.006  0.035  0.000  0.002  0.000  0.014  0.001  0.080
    2  0.016  0.004  0.149  0.003  0.000  0.000  0.000  0.000  0.000  0.172
    3  0.016  0.004  0.149  0.003  0.000  0.000  0.000  0.000  0.000  0.172
tot    0.049  0.014  0.305  0.040  0.000  0.002  0.000  0.014  0.001  0.425
 
band     5 # energy    6.56785067 # occ. -0.00000000
 
ion      s     py     pz     px    dxy    dyz    dz2    dxz  x2-y2    tot
    1  0.040  0.016  0.016  0.001  0.016  0.007  0.001  0.000  0.002  0.100
    2  0.003  0.005  0.136  0.011  0.000  0.000  0.000  0.000  0.000  0.156
    3  0.003  0.005  0.136  0.011  0.000  0.000  0.000  0.000  0.000  0.156
tot    0.047  0.026  0.288  0.023  0.016  0.007  0.001  0.000  0.002  0.411
 
band     6 # energy   11.52739891 # occ.  0.00000000
 
ion      s     py     pz     px    dxy    dyz    dz2    dxz  x2-y2    tot
    1  0.071  0.000  0.000  0.006  0.012  0.001  0.014  0.000  0.005  0.109
    2  0.089  0.065  0.002  0.014  0.000  0.000  0.000  0.000  0.000  0.171
    3  0.089  0.065  0.002  0.014  0.000  0.000  0.000  0.000  0.000  0.171
tot    0.249  0.130  0.005  0.035  0.012  0.001  0.014  0.000  0.005  0.450
 
band     7 # energy   13.11178872 # occ.  0.00000000
 
ion      s     py     pz     px    dxy    dyz    dz2    dxz  x2-y2    tot
    1  0.144  0.029  0.008  0.005  0.000  0.001  0.005  0.017  0.002  0.211
    2  0.011  0.001  0.085  0.025  0.000  0.000  0.000  0.000  0.000  0.123
    3  0.011  0.001  0.085  0.025  0.000  0.000  0.000  0.000  0.000  0.123
tot    0.166  0.031  0.178  0.056  0.000  0.001  0.005  0.017  0.002  0.456
 
band     8 # energy   13.80400985 # occ.  0.00000000
 
ion      s     py     pz     px    dxy    dyz    dz2    dxz  x2-y2    tot
    1  0.024  0.001  0.040  0.096  0.001  0.009  0.000  0.001  0.000  0.171
    2  0.029  0.012  0.055  0.014  0.000  0.000  0.000  0.000  0.000  0.110
    3  0.029  0.012  0.055  0.014  0.000  0.000  0.000  0.000  0.000  0.110
tot    0.081  0.025  0.150  0.125  0.001  0.009  0.000  0.001  0.000  0.392
 

 k-point   101 :    0.45833333 0.12500000 0.22222222     weight = 0.00617284

band     1 # energy   -2.82344649 # occ.  2.00000000
 
ion      s     py     pz     px    dxy    dyz    dz2    dxz  x2-y2    tot
    1  0.006  0.008  0.002  0.014  0.000  0.001  0.000  0.002  0.000  0.034
    2  0.208  0.026  0.001  0.029  0.000  0.000  0.000  0.000  0.000  0.264
    3  0.208  0.026  0.001  0.029  0.000  0.000  0.000  0.000  0.000  0.264
tot    0.423  0.059  0.004  0.073  0.000  0.001  0.000  0.002  0.000  0.563
 
band     2 # energy   -1.86451788 # occ.  2.00000000
 
ion      s     py     pz     px    dxy    dyz    dz2    dxz  x2-y2    tot
    1  0.030  0.000  0.008  0.006  0.001  0.000  0.001  0.001  0.001  0.048
    2  0.120  0.023  0.001  0.105  0.000  0.000  0.000  0.000  0.000  0.249
    3  0.120  0.023  0.001  0.105  0.000  0.000  0.000  0.000  0.000  0.249
tot    0.269  0.046  0.010  0.217  0.001  0.000  0.001  0.001  0.001  0.545
 
band     3 # energy    2.28879756 # occ.  2.00000000
 
ion      s     py     pz     px    dxy    dyz    dz2    dxz  x2-y2    tot
    1  0.006  0.012  0.004  0.003  0.001  0.003  0.001  0.001  0.000  0.031
    2  0.030  0.193  0.000  0.065  0.000  0.000  0.000  0.000  0.000  0.289
    3  0.030  0.193  0.000  0.065  0.000  0.000  0.000  0.000  0.000  0.289
tot    0.066  0.397  0.005  0.134  0.001  0.003  0.001  0.001  0.000  0.608
 
band     4 # energy    3.86951905 # occ.  2.00000000
 
ion      s     py     pz     px    dxy    dyz    dz2    dxz  x2-y2    tot
    1  0.003  0.015  0.001  0.035  0.001  0.006  0.000  0.012  0.000  0.073
    2  0.015  0.001  0.155  0.004  0.000  0.000  0.000  0.000  0.000  0.177
    3  0.015  0.001  0.155  0.004  0.000  0.000  0.000  0.000  0.000  0.177
tot    0.034  0.018  0.312  0.043  0.001  0.006  0.000  0.012  0.000  0.426
 
band     5 # energy    6.14113823 # occ. -0.00000000
 
ion      s     py     pz     px    dxy    dyz    dz2    dxz  x2-y2    tot
    1  0.053  0.004  0.021  0.007  0.012  0.002  0.001  0.003  0.005  0.109
    2  0.004  0.006  0.129  0.010  0.000  0.000  0.000  0.000  0.000  0.149
    3  0.004  0.006  0.129  0.010  0.000  0.000  0.000  0.000  0.000  0.149
tot    0.061  0.016  0.280  0.026  0.012  0.002  0.001  0.003  0.005  0.407
 
band     6 # energy   11.48562001 # occ.  0.00000000
 
ion      s     py     pz     px    dxy    dyz    dz2    dxz  x2-y2    tot
    1  0.080  0.002  0.000  0.000  0.014  0.001  0.013  0.000  0.004  0.114
    2  0.093  0.049  0.001  0.027  0.000  0.000  0.000  0.000  0.000  0.170
    3  0.093  0.049  0.001  0.027  0.000  0.000  0.000  0.000  0.000  0.170
tot    0.265  0.100  0.003  0.055  0.014  0.001  0.013  0.000  0.004  0.455
 
band     7 # energy   13.28253142 # occ.  0.00000000
 
ion      s     py     pz     px    dxy    dyz    dz2    dxz  x2-y2    tot
    1  0.151  0.015  0.029  0.022  0.001  0.014  0.003  0.000  0.000  0.235
    2  0.006  0.009  0.069  0.013  0.000  0.000  0.000  0.000  0.000  0.097
    3  0.006  0.009  0.069  0.013  0.000  0.000  0.000  0.000  0.000  0.097
tot    0.164  0.032  0.168  0.048  0.001  0.014  0.003  0.000  0.000  0.430
 
band     8 # energy   13.74102076 # occ.  0.00000000
 
ion      s     py     pz     px    dxy    dyz    dz2    dxz  x2-y2    tot
    1  0.004  0.048  0.007  0.052  0.001  0.001  0.000  0.015  0.003  0.130
    2  0.023  0.012  0.079  0.028  0.000  0.000  0.000  0.000  0.000  0.143
    3  0.023  0.012  0.079  0.028  0.000  0.000  0.000  0.000  0.000  0.143
tot    0.051  0.072  0.166  0.108  0.001  0.001  0.000  0.015  0.003  0.417
 

 k-point   102 :   -0.45833333 0.12500000 0.22222222     weight = 0.00617284

band     1 # energy   -3.90488421 # occ.  2.00000000
 
ion      s     py     pz     px    dxy    dyz    dz2    dxz  x2-y2    tot
    1  0.023  0.007  0.005  0.007  0.000  0.001  0.000  0.001  0.000  0.044
    2  0.196  0.026  0.001  0.025  0.000  0.000  0.000  0.000  0.000  0.249
    3  0.196  0.026  0.001  0.025  0.000  0.000  0.000  0.000  0.000  0.249
tot    0.415  0.059  0.008  0.057  0.000  0.001  0.000  0.001  0.000  0.541
 
band     2 # energy   -0.51670846 # occ.  2.00000000
 
ion      s     py     pz     px    dxy    dyz    dz2    dxz  x2-y2    tot
    1  0.013  0.000  0.005  0.013  0.001  0.000  0.001  0.002  0.001  0.037
    2  0.128  0.023  0.001  0.116  0.000  0.000  0.000  0.000  0.000  0.267
    3  0.128  0.023  0.001  0.116  0.000  0.000  0.000  0.000  0.000  0.267
tot    0.268  0.046  0.006  0.245  0.001  0.000  0.001  0.002  0.001  0.571
 
band     3 # energy    2.46063323 # occ.  2.00000000
 
ion      s     py     pz     px    dxy    dyz    dz2    dxz  x2-y2    tot
    1  0.003  0.017  0.005  0.000  0.000  0.003  0.002  0.001  0.001  0.032
    2  0.026  0.195  0.004  0.059  0.000  0.000  0.000  0.000  0.000  0.284
    3  0.026  0.195  0.004  0.059  0.000  0.000  0.000  0.000  0.000  0.284
tot    0.054  0.408  0.013  0.119  0.000  0.003  0.002  0.001  0.001  0.600
 
band     4 # energy    3.07035010 # occ.  2.00000000
 
ion      s     py     pz     px    dxy    dyz    dz2    dxz  x2-y2    tot
    1  0.032  0.011  0.009  0.019  0.001  0.007  0.000  0.006  0.000  0.086
    2  0.019  0.003  0.141  0.008  0.000  0.000  0.000  0.000  0.000  0.172
    3  0.019  0.003  0.141  0.008  0.000  0.000  0.000  0.000  0.000  0.172
tot    0.070  0.018  0.292  0.035  0.001  0.007  0.000  0.006  0.000  0.431
 
band     5 # energy    7.21060391 # occ. -0.00000000
 
ion      s     py     pz     px    dxy    dyz    dz2    dxz  x2-y2    tot
    1  0.027  0.001  0.011  0.022  0.011  0.000  0.001  0.009  0.009  0.091
    2  0.003  0.007  0.143  0.009  0.000  0.000  0.000  0.000  0.000  0.163
    3  0.003  0.007  0.143  0.009  0.000  0.000  0.000  0.000  0.000  0.163
tot    0.032  0.015  0.298  0.041  0.011  0.000  0.001  0.009  0.009  0.416
 
band     6 # energy   11.59674176 # occ.  0.00000000
 
ion      s     py     pz     px    dxy    dyz    dz2    dxz  x2-y2    tot
    1  0.050  0.007  0.000  0.008  0.012  0.000  0.017  0.001  0.002  0.098
    2  0.079  0.035  0.005  0.050  0.000  0.000  0.000  0.000  0.000  0.170
    3  0.079  0.035  0.005  0.050  0.000  0.000  0.000  0.000  0.000  0.170
tot    0.209  0.076  0.011  0.109  0.012  0.000  0.017  0.001  0.002  0.438
 
band     7 # energy   12.84661270 # occ.  0.00000000
 
ion      s     py     pz     px    dxy    dyz    dz2    dxz  x2-y2    tot
    1  0.152  0.001  0.000  0.025  0.001  0.014  0.006  0.003  0.002  0.204
    2  0.026  0.018  0.090  0.005  0.000  0.000  0.000  0.000  0.000  0.139
    3  0.026  0.018  0.090  0.005  0.000  0.000  0.000  0.000  0.000  0.139
tot    0.204  0.037  0.180  0.035  0.001  0.014  0.006  0.003  0.002  0.481
 
band     8 # energy   13.94172201 # occ.  0.00000000
 
ion      s     py     pz     px    dxy    dyz    dz2    dxz  x2-y2    tot
    1  0.040  0.089  0.058  0.006  0.000  0.004  0.000  0.003  0.000  0.202
    2  0.030  0.002  0.038  0.017  0.000  0.000  0.000  0.000  0.000  0.087
    3  0.030  0.002  0.038  0.017  0.000  0.000  0.000  0.000  0.000  0.087
tot    0.100  0.094  0.135  0.040  0.000  0.004  0.000  0.003  0.000  0.376
 

 k-point   103 :   -0.37500000 0.12500000 0.22222222     weight = 0.00617284

band     1 # energy   -4.87386012 # occ.  2.00000000
 
ion      s     py     pz     px    dxy    dyz    dz2    dxz  x2-y2    tot
    1  0.031  0.005  0.006  0.004  0.000  0.001  0.000  0.000  0.000  0.048
    2  0.204  0.020  0.001  0.015  0.000  0.000  0.000  0.000  0.000  0.240
    3  0.204  0.020  0.001  0.015  0.000  0.000  0.000  0.000  0.000  0.240
tot    0.439  0.045  0.009  0.034  0.000  0.001  0.000  0.000  0.000  0.528
 
band     2 # energy    1.03713095 # occ.  2.00000000
 
ion      s     py     pz     px    dxy    dyz    dz2    dxz  x2-y2    tot
    1  0.004  0.000  0.003  0.015  0.002  0.000  0.001  0.003  0.002  0.029
    2  0.109  0.039  0.002  0.132  0.000  0.000  0.000  0.000  0.000  0.282
    3  0.109  0.039  0.002  0.132  0.000  0.000  0.000  0.000  0.000  0.282
tot    0.222  0.079  0.006  0.279  0.002  0.000  0.001  0.003  0.002  0.594
 
band     3 # energy    2.08994482 # occ.  2.00000000
 
ion      s     py     pz     px    dxy    dyz    dz2    dxz  x2-y2    tot
    1  0.040  0.016  0.020  0.007  0.001  0.003  0.002  0.004  0.000  0.093
    2  0.018  0.010  0.135  0.000  0.000  0.000  0.000  0.000  0.000  0.163
    3  0.018  0.010  0.135  0.000  0.000  0.000  0.000  0.000  0.000  0.163
tot    0.075  0.035  0.290  0.008  0.001  0.003  0.002  0.004  0.000  0.419
 
band     4 # energy    2.92542360 # occ.  2.00000000
 
ion      s     py     pz     px    dxy    dyz    dz2    dxz  x2-y2    tot
    1  0.013  0.010  0.001  0.001  0.000  0.006  0.001  0.000  0.001  0.033
    2  0.025  0.186  0.003  0.076  0.000  0.000  0.000  0.000  0.000  0.291
    3  0.025  0.186  0.003  0.076  0.000  0.000  0.000  0.000  0.000  0.291
tot    0.064  0.383  0.008  0.152  0.000  0.006  0.001  0.000  0.001  0.614
 
band     5 # energy    8.72435579 # occ.  0.00000000
 
ion      s     py     pz     px    dxy    dyz    dz2    dxz  x2-y2    tot
    1  0.009  0.001  0.004  0.022  0.013  0.000  0.000  0.010  0.015  0.074
    2  0.001  0.010  0.156  0.010  0.000  0.000  0.000  0.000  0.000  0.176
    3  0.001  0.010  0.156  0.010  0.000  0.000  0.000  0.000  0.000  0.176
tot    0.010  0.020  0.317  0.042  0.013  0.000  0.000  0.010  0.015  0.427
 
band     6 # energy   11.58848767 # occ.  0.00000000
 
ion      s     py     pz     px    dxy    dyz    dz2    dxz  x2-y2    tot
    1  0.000  0.014  0.000  0.024  0.007  0.003  0.032  0.003  0.000  0.084
    2  0.026  0.020  0.043  0.061  0.000  0.000  0.000  0.000  0.000  0.150
    3  0.026  0.020  0.043  0.061  0.000  0.000  0.000  0.000  0.000  0.150
tot    0.052  0.055  0.086  0.145  0.007  0.003  0.032  0.003  0.000  0.383
 
band     7 # energy   12.47234488 # occ.  0.00000000
 
ion      s     py     pz     px    dxy    dyz    dz2    dxz  x2-y2    tot
    1  0.181  0.000  0.008  0.000  0.001  0.005  0.001  0.001  0.002  0.200
    2  0.084  0.020  0.054  0.014  0.000  0.000  0.000  0.000  0.000  0.172
    3  0.084  0.020  0.054  0.014  0.000  0.000  0.000  0.000  0.000  0.172
tot    0.350  0.039  0.116  0.027  0.001  0.005  0.001  0.001  0.002  0.543
 
band     8 # energy   14.43640611 # occ.  0.00000000
 
ion      s     py     pz     px    dxy    dyz    dz2    dxz  x2-y2    tot
    1  0.063  0.094  0.051  0.003  0.004  0.009  0.001  0.000  0.000  0.225
    2  0.027  0.000  0.025  0.029  0.000  0.000  0.000  0.000  0.000  0.081
    3  0.027  0.000  0.025  0.029  0.000  0.000  0.000  0.000  0.000  0.081
tot    0.116  0.095  0.101  0.061  0.004  0.009  0.001  0.000  0.000  0.388
 

 k-point   104 :   -0.29166667 0.12500000 0.22222222     weight = 0.00617284

band     1 # energy   -5.63137220 # occ.  2.00000000
 
ion      s     py     pz     px    dxy    dyz    dz2    dxz  x2-y2    tot
    1  0.038  0.004  0.007  0.002  0.000  0.000  0.000  0.000  0.000  0.051
    2  0.212  0.014  0.001  0.007  0.000  0.000  0.000  0.000  0.000  0.234
    3  0.212  0.014  0.001  0.007  0.000  0.000  0.000  0.000  0.000  0.234
tot    0.461  0.032  0.010  0.015  0.000  0.000  0.000  0.000  0.000  0.519
 
band     2 # energy    1.30447329 # occ.  2.00000000
 
ion      s     py     pz     px    dxy    dyz    dz2    dxz  x2-y2    tot
    1  0.052  0.010  0.026  0.005  0.000  0.003  0.002  0.001  0.000  0.099
    2  0.018  0.003  0.135  0.002  0.000  0.000  0.000  0.000  0.000  0.157
    3  0.018  0.003  0.135  0.002  0.000  0.000  0.000  0.000  0.000  0.157
tot    0.088  0.015  0.296  0.008  0.000  0.003  0.002  0.001  0.000  0.414
 
band     3 # energy    2.58720911 # occ.  2.00000000
 
ion      s     py     pz     px    dxy    dyz    dz2    dxz  x2-y2    tot
    1  0.001  0.001  0.000  0.010  0.002  0.000  0.000  0.003  0.004  0.021
    2  0.092  0.099  0.001  0.113  0.000  0.000  0.000  0.000  0.000  0.305
    3  0.092  0.099  0.001  0.113  0.000  0.000  0.000  0.000  0.000  0.305
tot    0.186  0.199  0.001  0.235  0.002  0.000  0.000  0.003  0.004  0.631
 
band     4 # energy    3.62044085 # occ.  2.00000000
 
ion      s     py     pz     px    dxy    dyz    dz2    dxz  x2-y2    tot
    1  0.009  0.011  0.002  0.001  0.001  0.004  0.001  0.000  0.001  0.030
    2  0.013  0.149  0.001  0.133  0.000  0.000  0.000  0.000  0.000  0.295
    3  0.013  0.149  0.001  0.133  0.000  0.000  0.000  0.000  0.000  0.295
tot    0.034  0.308  0.003  0.266  0.001  0.004  0.001  0.000  0.001  0.620
 
band     5 # energy   10.28870962 # occ.  0.00000000
 
ion      s     py     pz     px    dxy    dyz    dz2    dxz  x2-y2    tot
    1  0.001  0.003  0.000  0.012  0.012  0.001  0.001  0.009  0.022  0.061
    2  0.001  0.013  0.168  0.010  0.000  0.000  0.000  0.000  0.000  0.192
    3  0.001  0.013  0.168  0.010  0.000  0.000  0.000  0.000  0.000  0.192
tot    0.002  0.030  0.336  0.033  0.012  0.001  0.001  0.009  0.022  0.445
 
band     6 # energy   11.12335187 # occ.  0.00000000
 
ion      s     py     pz     px    dxy    dyz    dz2    dxz  x2-y2    tot
    1  0.031  0.015  0.005  0.013  0.002  0.006  0.040  0.002  0.001  0.115
    2  0.011  0.018  0.072  0.031  0.000  0.000  0.000  0.000  0.000  0.132
    3  0.011  0.018  0.072  0.031  0.000  0.000  0.000  0.000  0.000  0.132
tot    0.053  0.052  0.149  0.075  0.002  0.006  0.040  0.002  0.001  0.379
 
band     7 # energy   12.56165554 # occ.  0.00000000
 
ion      s     py     pz     px    dxy    dyz    dz2    dxz  x2-y2    tot
    1  0.130  0.003  0.018  0.005  0.002  0.000  0.001  0.000  0.000  0.158
    2  0.077  0.023  0.022  0.068  0.000  0.000  0.000  0.000  0.000  0.190
    3  0.077  0.023  0.022  0.068  0.000  0.000  0.000  0.000  0.000  0.190
tot    0.285  0.048  0.062  0.141  0.002  0.000  0.001  0.000  0.000  0.539
 
band     8 # energy   14.08184656 # occ.  0.00000000
 
ion      s     py     pz     px    dxy    dyz    dz2    dxz  x2-y2    tot
    1  0.007  0.016  0.001  0.013  0.001  0.002  0.000  0.002  0.006  0.047
    2  0.098  0.041  0.019  0.083  0.000  0.000  0.000  0.000  0.000  0.240
    3  0.098  0.041  0.019  0.083  0.000  0.000  0.000  0.000  0.000  0.240
tot    0.202  0.097  0.038  0.178  0.001  0.002  0.000  0.002  0.006  0.526
 

 k-point   105 :   -0.20833333 0.12500000 0.22222222     weight = 0.00617284

band     1 # energy   -6.16226870 # occ.  2.00000000
 
ion      s     py     pz     px    dxy    dyz    dz2    dxz  x2-y2    tot
    1  0.042  0.003  0.007  0.000  0.000  0.000  0.000  0.000  0.000  0.053
    2  0.218  0.009  0.002  0.002  0.000  0.000  0.000  0.000  0.000  0.230
    3  0.218  0.009  0.002  0.002  0.000  0.000  0.000  0.000  0.000  0.230
tot    0.478  0.021  0.010  0.004  0.000  0.000  0.000  0.000  0.000  0.513
 
band     2 # energy    0.74854640 # occ.  2.00000000
 
ion      s     py     pz     px    dxy    dyz    dz2    dxz  x2-y2    tot
    1  0.062  0.006  0.029  0.001  0.000  0.002  0.002  0.000  0.000  0.102
    2  0.021  0.002  0.134  0.000  0.000  0.000  0.000  0.000  0.000  0.156
    3  0.021  0.002  0.134  0.000  0.000  0.000  0.000  0.000  0.000  0.156
tot    0.104  0.009  0.296  0.002  0.000  0.002  0.002  0.000  0.000  0.415
 
band     3 # energy    3.81158365 # occ.  2.00000000
 
ion      s     py     pz     px    dxy    dyz    dz2    dxz  x2-y2    tot
    1  0.001  0.005  0.000  0.003  0.001  0.002  0.000  0.001  0.006  0.017
    2  0.062  0.220  0.000  0.032  0.000  0.000  0.000  0.000  0.000  0.315
    3  0.062  0.220  0.000  0.032  0.000  0.000  0.000  0.000  0.000  0.315
tot    0.125  0.446  0.001  0.068  0.001  0.002  0.000  0.001  0.006  0.648
 
band     4 # energy    4.61017870 # occ.  2.00000000
 
ion      s     py     pz     px    dxy    dyz    dz2    dxz  x2-y2    tot
    1  0.003  0.004  0.001  0.005  0.003  0.002  0.001  0.002  0.000  0.021
    2  0.005  0.043  0.000  0.266  0.000  0.000  0.000  0.000  0.000  0.314
    3  0.005  0.043  0.000  0.266  0.000  0.000  0.000  0.000  0.000  0.314
tot    0.012  0.091  0.001  0.537  0.003  0.002  0.001  0.002  0.000  0.650
 
band     5 # energy   10.64276635 # occ.  0.00000000
 
ion      s     py     pz     px    dxy    dyz    dz2    dxz  x2-y2    tot
    1  0.044  0.016  0.008  0.003  0.001  0.006  0.044  0.001  0.002  0.124
    2  0.016  0.025  0.073  0.012  0.000  0.000  0.000  0.000  0.000  0.126
    3  0.016  0.025  0.073  0.012  0.000  0.000  0.000  0.000  0.000  0.126
tot    0.076  0.066  0.154  0.027  0.001  0.006  0.044  0.001  0.002  0.375
 
band     6 # energy   11.65882317 # occ.  0.00000000
 
ion      s     py     pz     px    dxy    dyz    dz2    dxz  x2-y2    tot
    1  0.004  0.002  0.003  0.002  0.005  0.003  0.000  0.004  0.030  0.053
    2  0.016  0.017  0.163  0.011  0.000  0.000  0.000  0.000  0.000  0.207
    3  0.016  0.017  0.163  0.011  0.000  0.000  0.000  0.000  0.000  0.207
tot    0.036  0.036  0.328  0.025  0.005  0.003  0.000  0.004  0.030  0.466
 
band     7 # energy   12.25338097 # occ.  0.00000000
 
ion      s     py     pz     px    dxy    dyz    dz2    dxz  x2-y2    tot
    1  0.085  0.016  0.018  0.000  0.003  0.002  0.000  0.001  0.000  0.126
    2  0.059  0.071  0.028  0.035  0.000  0.000  0.000  0.000  0.000  0.193
    3  0.059  0.071  0.028  0.035  0.000  0.000  0.000  0.000  0.000  0.193
tot    0.203  0.158  0.075  0.071  0.003  0.002  0.000  0.001  0.000  0.512
 
band     8 # energy   13.57709826 # occ.  0.00000000
 
ion      s     py     pz     px    dxy    dyz    dz2    dxz  x2-y2    tot
    1  0.001  0.006  0.001  0.038  0.001  0.000  0.000  0.009  0.000  0.056
    2  0.055  0.013  0.022  0.133  0.000  0.000  0.000  0.000  0.000  0.224
    3  0.055  0.013  0.022  0.133  0.000  0.000  0.000  0.000  0.000  0.224
tot    0.112  0.033  0.045  0.304  0.001  0.000  0.000  0.009  0.000  0.504
 

 k-point   106 :   -0.12500000 0.12500000 0.22222222     weight = 0.00308642

band     1 # energy   -6.45918901 # occ.  2.00000000
 
ion      s     py     pz     px    dxy    dyz    dz2    dxz  x2-y2    tot
    1  0.045  0.001  0.007  0.000  0.000  0.000  0.000  0.000  0.000  0.054
    2  0.221  0.005  0.002  0.000  0.000  0.000  0.000  0.000  0.000  0.228
    3  0.221  0.005  0.002  0.000  0.000  0.000  0.000  0.000  0.000  0.228
tot    0.487  0.012  0.011  0.000  0.000  0.000  0.000  0.000  0.000  0.509
 
band     2 # energy    0.43369892 # occ.  2.00000000
 
ion      s     py     pz     px    dxy    dyz    dz2    dxz  x2-y2    tot
    1  0.066  0.003  0.030  0.000  0.000  0.001  0.003  0.000  0.000  0.103
    2  0.022  0.001  0.133  0.000  0.000  0.000  0.000  0.000  0.000  0.156
    3  0.022  0.001  0.133  0.000  0.000  0.000  0.000  0.000  0.000  0.156
tot    0.111  0.005  0.296  0.000  0.000  0.001  0.003  0.000  0.000  0.415
 
band     3 # energy    4.69096864 # occ.  2.00000000
 
ion      s     py     pz     px    dxy    dyz    dz2    dxz  x2-y2    tot
    1  0.001  0.005  0.000  0.000  0.000  0.002  0.000  0.000  0.007  0.015
    2  0.038  0.285  0.000  0.000  0.000  0.000  0.000  0.000  0.000  0.323
    3  0.038  0.285  0.000  0.000  0.000  0.000  0.000  0.000  0.000  0.323
tot    0.076  0.576  0.001  0.000  0.000  0.002  0.000  0.000  0.007  0.662
 
band     4 # energy    5.33160886 # occ.  1.55783249
 
ion      s     py     pz     px    dxy    dyz    dz2    dxz  x2-y2    tot
    1  0.000  0.000  0.000  0.005  0.005  0.000  0.000  0.002  0.000  0.013
    2  0.000  0.000  0.000  0.334  0.000  0.000  0.000  0.000  0.000  0.334
    3  0.000  0.000  0.000  0.334  0.000  0.000  0.000  0.000  0.000  0.334
tot    0.000  0.000  0.000  0.673  0.005  0.000  0.000  0.002  0.000  0.681
 
band     5 # energy   10.40490793 # occ.  0.00000000
 
ion      s     py     pz     px    dxy    dyz    dz2    dxz  x2-y2    tot
    1  0.056  0.013  0.011  0.000  0.000  0.005  0.046  0.000  0.001  0.132
    2  0.022  0.024  0.076  0.000  0.000  0.000  0.000  0.000  0.000  0.122
    3  0.022  0.024  0.076  0.000  0.000  0.000  0.000  0.000  0.000  0.122
tot    0.101  0.061  0.163  0.000  0.000  0.005  0.046  0.000  0.001  0.377
 
band     6 # energy   11.83414868 # occ.  0.00000000
 
ion      s     py     pz     px    dxy    dyz    dz2    dxz  x2-y2    tot
    1  0.051  0.016  0.015  0.000  0.000  0.010  0.000  0.000  0.007  0.100
    2  0.065  0.102  0.020  0.000  0.000  0.000  0.000  0.000  0.000  0.187
    3  0.065  0.102  0.020  0.000  0.000  0.000  0.000  0.000  0.000  0.187
tot    0.181  0.220  0.056  0.000  0.000  0.010  0.000  0.000  0.007  0.473
 
band     7 # energy   12.82687061 # occ.  0.00000000
 
ion      s     py     pz     px    dxy    dyz    dz2    dxz  x2-y2    tot
    1  0.007  0.015  0.000  0.000  0.000  0.000  0.000  0.000  0.020  0.042
    2  0.012  0.038  0.185  0.000  0.000  0.000  0.000  0.000  0.000  0.236
    3  0.012  0.038  0.185  0.000  0.000  0.000  0.000  0.000  0.000  0.236
tot    0.031  0.092  0.370  0.000  0.000  0.000  0.000  0.000  0.020  0.514
 
band     8 # energy   13.06744014 # occ.  0.00000000
 
ion      s     py     pz     px    dxy    dyz    dz2    dxz  x2-y2    tot
    1  0.000  0.000  0.000  0.043  0.003  0.000  0.000  0.019  0.000  0.065
    2  0.000  0.000  0.000  0.204  0.000  0.000  0.000  0.000  0.000  0.204
    3  0.000  0.000  0.000  0.204  0.000  0.000  0.000  0.000  0.000  0.204
tot    0.000  0.000  0.000  0.450  0.003  0.000  0.000  0.019  0.000  0.472
 

 k-point   107 :    0.20833333 0.20833333 0.22222222     weight = 0.00308642

band     1 # energy   -4.52896695 # occ.  2.00000000
 
ion      s     py     pz     px    dxy    dyz    dz2    dxz  x2-y2    tot
    1  0.029  0.000  0.006  0.010  0.000  0.000  0.000  0.001  0.000  0.047
    2  0.200  0.000  0.001  0.041  0.000  0.000  0.000  0.000  0.000  0.243
    3  0.200  0.000  0.001  0.041  0.000  0.000  0.000  0.000  0.000  0.243
tot    0.429  0.000  0.008  0.092  0.000  0.000  0.000  0.001  0.000  0.532
 
band     2 # energy    0.93736767 # occ.  2.00000000
 
ion      s     py     pz     px    dxy    dyz    dz2    dxz  x2-y2    tot
    1  0.000  0.015  0.000  0.000  0.005  0.003  0.000  0.000  0.000  0.023
    2  0.134  0.037  0.001  0.122  0.000  0.000  0.000  0.000  0.000  0.295
    3  0.134  0.037  0.001  0.122  0.000  0.000  0.000  0.000  0.000  0.295
tot    0.268  0.090  0.002  0.245  0.005  0.003  0.000  0.000  0.000  0.613
 
band     3 # energy    1.92719244 # occ.  2.00000000
 
ion      s     py     pz     px    dxy    dyz    dz2    dxz  x2-y2    tot
    1  0.005  0.000  0.013  0.023  0.000  0.000  0.003  0.001  0.000  0.046
    2  0.010  0.170  0.012  0.057  0.000  0.000  0.000  0.000  0.000  0.249
    3  0.010  0.170  0.012  0.057  0.000  0.000  0.000  0.000  0.000  0.249
tot    0.025  0.340  0.037  0.138  0.000  0.000  0.003  0.001  0.000  0.544
 
band     4 # energy    2.50521469 # occ.  2.00000000
 
ion      s     py     pz     px    dxy    dyz    dz2    dxz  x2-y2    tot
    1  0.052  0.000  0.010  0.015  0.000  0.000  0.000  0.012  0.001  0.090
    2  0.027  0.022  0.129  0.000  0.000  0.000  0.000  0.000  0.000  0.178
    3  0.027  0.022  0.129  0.000  0.000  0.000  0.000  0.000  0.000  0.178
tot    0.106  0.045  0.268  0.015  0.000  0.000  0.000  0.012  0.001  0.447
 
band     5 # energy    8.30684160 # occ.  0.00000000
 
ion      s     py     pz     px    dxy    dyz    dz2    dxz  x2-y2    tot
    1  0.000  0.031  0.000  0.000  0.025  0.012  0.000  0.000  0.000  0.068
    2  0.002  0.005  0.162  0.013  0.000  0.000  0.000  0.000  0.000  0.182
    3  0.002  0.005  0.162  0.013  0.000  0.000  0.000  0.000  0.000  0.182
tot    0.004  0.041  0.323  0.025  0.025  0.012  0.000  0.000  0.000  0.431
 
band     6 # energy   12.14194317 # occ.  0.00000000
 
ion      s     py     pz     px    dxy    dyz    dz2    dxz  x2-y2    tot
    1  0.045  0.000  0.001  0.029  0.000  0.000  0.027  0.014  0.007  0.122
    2  0.010  0.028  0.080  0.023  0.000  0.000  0.000  0.000  0.000  0.142
    3  0.010  0.028  0.080  0.023  0.000  0.000  0.000  0.000  0.000  0.142
tot    0.064  0.056  0.161  0.076  0.000  0.000  0.027  0.014  0.007  0.405
 
band     7 # energy   12.75640550 # occ.  0.00000000
 
ion      s     py     pz     px    dxy    dyz    dz2    dxz  x2-y2    tot
    1  0.221  0.000  0.008  0.041  0.000  0.000  0.004  0.006  0.000  0.280
    2  0.014  0.076  0.010  0.000  0.000  0.000  0.000  0.000  0.000  0.100
    3  0.014  0.076  0.010  0.000  0.000  0.000  0.000  0.000  0.000  0.100
tot    0.250  0.151  0.028  0.042  0.000  0.000  0.004  0.006  0.000  0.481
 
band     8 # energy   14.44807729 # occ.  0.00000000
 
ion      s     py     pz     px    dxy    dyz    dz2    dxz  x2-y2    tot
    1  0.000  0.003  0.000  0.000  0.023  0.000  0.000  0.000  0.000  0.026
    2  0.088  0.094  0.028  0.040  0.000  0.000  0.000  0.000  0.000  0.251
    3  0.088  0.094  0.028  0.040  0.000  0.000  0.000  0.000  0.000  0.251
tot    0.176  0.190  0.057  0.081  0.023  0.000  0.000  0.000  0.000  0.527
 

 k-point   108 :    0.29166667 0.20833333 0.22222222     weight = 0.00617284

band     1 # energy   -3.57004729 # occ.  2.00000000
 
ion      s     py     pz     px    dxy    dyz    dz2    dxz  x2-y2    tot
    1  0.021  0.000  0.005  0.014  0.000  0.000  0.000  0.002  0.001  0.042
    2  0.193  0.001  0.001  0.056  0.000  0.000  0.000  0.000  0.000  0.251
    3  0.193  0.001  0.001  0.056  0.000  0.000  0.000  0.000  0.000  0.251
tot    0.406  0.003  0.007  0.127  0.000  0.000  0.000  0.002  0.001  0.545
 
band     2 # energy   -0.31137160 # occ.  2.00000000
 
ion      s     py     pz     px    dxy    dyz    dz2    dxz  x2-y2    tot
    1  0.006  0.014  0.002  0.002  0.003  0.003  0.000  0.000  0.000  0.031
    2  0.142  0.050  0.001  0.085  0.000  0.000  0.000  0.000  0.000  0.277
    3  0.142  0.050  0.001  0.085  0.000  0.000  0.000  0.000  0.000  0.277
tot    0.291  0.113  0.004  0.171  0.003  0.003  0.000  0.000  0.000  0.586
 
band     3 # energy    1.27394270 # occ.  2.00000000
 
ion      s     py     pz     px    dxy    dyz    dz2    dxz  x2-y2    tot
    1  0.016  0.004  0.008  0.010  0.001  0.001  0.002  0.002  0.000  0.043
    2  0.035  0.163  0.001  0.062  0.000  0.000  0.000  0.000  0.000  0.262
    3  0.035  0.163  0.001  0.062  0.000  0.000  0.000  0.000  0.000  0.262
tot    0.087  0.331  0.010  0.134  0.001  0.001  0.002  0.002  0.000  0.567
 
band     4 # energy    3.41034966 # occ.  2.00000000
 
ion      s     py     pz     px    dxy    dyz    dz2    dxz  x2-y2    tot
    1  0.026  0.001  0.009  0.033  0.000  0.000  0.000  0.013  0.002  0.085
    2  0.017  0.004  0.146  0.003  0.000  0.000  0.000  0.000  0.000  0.169
    3  0.017  0.004  0.146  0.003  0.000  0.000  0.000  0.000  0.000  0.169
tot    0.060  0.008  0.300  0.039  0.000  0.000  0.000  0.013  0.002  0.423
 
band     5 # energy    7.03823527 # occ. -0.00000000
 
ion      s     py     pz     px    dxy    dyz    dz2    dxz  x2-y2    tot
    1  0.007  0.034  0.002  0.000  0.018  0.013  0.000  0.000  0.000  0.075
    2  0.005  0.005  0.155  0.010  0.000  0.000  0.000  0.000  0.000  0.175
    3  0.005  0.005  0.155  0.010  0.000  0.000  0.000  0.000  0.000  0.175
tot    0.016  0.044  0.312  0.021  0.018  0.013  0.000  0.000  0.000  0.424
 
band     6 # energy   12.06401250 # occ.  0.00000000
 
ion      s     py     pz     px    dxy    dyz    dz2    dxz  x2-y2    tot
    1  0.257  0.003  0.031  0.019  0.001  0.001  0.000  0.008  0.000  0.320
    2  0.006  0.028  0.017  0.008  0.000  0.000  0.000  0.000  0.000  0.058
    3  0.006  0.028  0.017  0.008  0.000  0.000  0.000  0.000  0.000  0.058
tot    0.269  0.059  0.064  0.034  0.001  0.001  0.000  0.008  0.000  0.436
 
band     7 # energy   12.90355814 # occ.  0.00000000
 
ion      s     py     pz     px    dxy    dyz    dz2    dxz  x2-y2    tot
    1  0.005  0.002  0.000  0.042  0.002  0.000  0.020  0.010  0.010  0.092
    2  0.011  0.060  0.064  0.023  0.000  0.000  0.000  0.000  0.000  0.158
    3  0.011  0.060  0.064  0.023  0.000  0.000  0.000  0.000  0.000  0.158
tot    0.027  0.121  0.127  0.089  0.002  0.000  0.020  0.010  0.010  0.408
 
band     8 # energy   14.11813288 # occ.  0.00000000
 
ion      s     py     pz     px    dxy    dyz    dz2    dxz  x2-y2    tot
    1  0.002  0.000  0.038  0.037  0.014  0.001  0.000  0.000  0.000  0.093
    2  0.065  0.045  0.037  0.036  0.000  0.000  0.000  0.000  0.000  0.183
    3  0.065  0.045  0.037  0.036  0.000  0.000  0.000  0.000  0.000  0.183
tot    0.131  0.091  0.112  0.110  0.014  0.001  0.000  0.000  0.000  0.460
 

 k-point   109 :    0.37500000 0.20833333 0.22222222     weight = 0.00617284

band     1 # energy   -2.50516182 # occ.  2.00000000
 
ion      s     py     pz     px    dxy    dyz    dz2    dxz  x2-y2    tot
    1  0.005  0.002  0.001  0.020  0.000  0.000  0.000  0.003  0.001  0.033
    2  0.203  0.008  0.001  0.055  0.000  0.000  0.000  0.000  0.000  0.267
    3  0.203  0.008  0.001  0.055  0.000  0.000  0.000  0.000  0.000  0.267
tot    0.410  0.018  0.004  0.130  0.000  0.000  0.000  0.003  0.001  0.567
 
band     2 # energy   -1.57827752 # occ.  2.00000000
 
ion      s     py     pz     px    dxy    dyz    dz2    dxz  x2-y2    tot
    1  0.023  0.009  0.007  0.000  0.002  0.002  0.001  0.000  0.000  0.044
    2  0.130  0.047  0.001  0.078  0.000  0.000  0.000  0.000  0.000  0.256
    3  0.130  0.047  0.001  0.078  0.000  0.000  0.000  0.000  0.000  0.256
tot    0.282  0.103  0.008  0.157  0.002  0.002  0.001  0.000  0.000  0.555
 
band     3 # energy    1.04253030 # occ.  2.00000000
 
ion      s     py     pz     px    dxy    dyz    dz2    dxz  x2-y2    tot
    1  0.017  0.008  0.007  0.004  0.001  0.002  0.002  0.001  0.000  0.042
    2  0.046  0.157  0.000  0.061  0.000  0.000  0.000  0.000  0.000  0.264
    3  0.046  0.157  0.000  0.061  0.000  0.000  0.000  0.000  0.000  0.264
tot    0.109  0.321  0.008  0.127  0.001  0.002  0.002  0.001  0.000  0.571
 
band     4 # energy    4.24770671 # occ.  2.00000000
 
ion      s     py     pz     px    dxy    dyz    dz2    dxz  x2-y2    tot
    1  0.003  0.008  0.001  0.041  0.000  0.003  0.000  0.015  0.003  0.073
    2  0.014  0.003  0.155  0.004  0.000  0.000  0.000  0.000  0.000  0.176
    3  0.014  0.003  0.155  0.004  0.000  0.000  0.000  0.000  0.000  0.176
tot    0.031  0.013  0.312  0.049  0.000  0.003  0.000  0.015  0.003  0.425
 
band     5 # energy    6.04111928 # occ. -0.00000000
 
ion      s     py     pz     px    dxy    dyz    dz2    dxz  x2-y2    tot
    1  0.026  0.026  0.010  0.002  0.012  0.010  0.000  0.001  0.002  0.089
    2  0.007  0.005  0.144  0.008  0.000  0.000  0.000  0.000  0.000  0.165
    3  0.007  0.005  0.144  0.008  0.000  0.000  0.000  0.000  0.000  0.165
tot    0.040  0.036  0.298  0.019  0.012  0.010  0.000  0.001  0.002  0.418
 
band     6 # energy   11.72181622 # occ.  0.00000000
 
ion      s     py     pz     px    dxy    dyz    dz2    dxz  x2-y2    tot
    1  0.253  0.011  0.039  0.007  0.002  0.003  0.000  0.002  0.000  0.319
    2  0.004  0.026  0.011  0.010  0.000  0.000  0.000  0.000  0.000  0.051
    3  0.004  0.026  0.011  0.010  0.000  0.000  0.000  0.000  0.000  0.051
tot    0.261  0.062  0.061  0.027  0.002  0.003  0.000  0.002  0.000  0.420
 
band     7 # energy   13.38259110 # occ.  0.00000000
 
ion      s     py     pz     px    dxy    dyz    dz2    dxz  x2-y2    tot
    1  0.002  0.001  0.014  0.004  0.012  0.001  0.013  0.003  0.009  0.059
    2  0.040  0.076  0.040  0.035  0.000  0.000  0.000  0.000  0.000  0.191
    3  0.040  0.076  0.040  0.035  0.000  0.000  0.000  0.000  0.000  0.191
tot    0.082  0.152  0.094  0.075  0.012  0.001  0.013  0.003  0.009  0.441
 
band     8 # energy   13.94935407 # occ.  0.00000000
 
ion      s     py     pz     px    dxy    dyz    dz2    dxz  x2-y2    tot
    1  0.000  0.014  0.004  0.068  0.006  0.004  0.000  0.010  0.004  0.112
    2  0.019  0.020  0.079  0.042  0.000  0.000  0.000  0.000  0.000  0.160
    3  0.019  0.020  0.079  0.042  0.000  0.000  0.000  0.000  0.000  0.160
tot    0.038  0.055  0.162  0.153  0.006  0.004  0.000  0.010  0.004  0.433
 

 k-point   110 :    0.45833333 0.20833333 0.22222222     weight = 0.00617284

band     1 # energy   -3.02900645 # occ.  2.00000000
 
ion      s     py     pz     px    dxy    dyz    dz2    dxz  x2-y2    tot
    1  0.015  0.010  0.004  0.007  0.001  0.001  0.000  0.001  0.000  0.039
    2  0.191  0.041  0.001  0.024  0.000  0.000  0.000  0.000  0.000  0.257
    3  0.191  0.041  0.001  0.024  0.000  0.000  0.000  0.000  0.000  0.257
tot    0.398  0.092  0.006  0.055  0.001  0.001  0.000  0.001  0.000  0.554
 
band     2 # energy   -0.98314623 # occ.  2.00000000
 
ion      s     py     pz     px    dxy    dyz    dz2    dxz  x2-y2    tot
    1  0.013  0.000  0.004  0.014  0.001  0.000  0.001  0.002  0.002  0.036
    2  0.142  0.017  0.001  0.108  0.000  0.000  0.000  0.000  0.000  0.268
    3  0.142  0.017  0.001  0.108  0.000  0.000  0.000  0.000  0.000  0.268
tot    0.296  0.034  0.006  0.231  0.001  0.000  0.001  0.002  0.002  0.572
 
band     3 # energy    1.11733639 # occ.  2.00000000
 
ion      s     py     pz     px    dxy    dyz    dz2    dxz  x2-y2    tot
    1  0.017  0.012  0.008  0.001  0.001  0.002  0.002  0.000  0.000  0.042
    2  0.043  0.155  0.001  0.065  0.000  0.000  0.000  0.000  0.000  0.264
    3  0.043  0.155  0.001  0.065  0.000  0.000  0.000  0.000  0.000  0.264
tot    0.102  0.323  0.009  0.131  0.001  0.002  0.002  0.000  0.000  0.570
 
band     4 # energy    3.88646560 # occ.  2.00000000
 
ion      s     py     pz     px    dxy    dyz    dz2    dxz  x2-y2    tot
    1  0.015  0.022  0.005  0.020  0.002  0.008  0.000  0.007  0.001  0.079
    2  0.015  0.003  0.150  0.004  0.000  0.000  0.000  0.000  0.000  0.172
    3  0.015  0.003  0.150  0.004  0.000  0.000  0.000  0.000  0.000  0.172
tot    0.045  0.027  0.306  0.028  0.002  0.008  0.000  0.007  0.001  0.424
 
band     5 # energy    6.45659358 # occ. -0.00000000
 
ion      s     py     pz     px    dxy    dyz    dz2    dxz  x2-y2    tot
    1  0.015  0.007  0.006  0.025  0.007  0.003  0.000  0.009  0.008  0.081
    2  0.006  0.007  0.150  0.008  0.000  0.000  0.000  0.000  0.000  0.170
    3  0.006  0.007  0.150  0.008  0.000  0.000  0.000  0.000  0.000  0.170
tot    0.027  0.021  0.305  0.040  0.007  0.003  0.000  0.009  0.008  0.421
 
band     6 # energy   11.83776927 # occ.  0.00000000
 
ion      s     py     pz     px    dxy    dyz    dz2    dxz  x2-y2    tot
    1  0.254  0.019  0.037  0.000  0.001  0.007  0.000  0.000  0.001  0.319
    2  0.005  0.023  0.012  0.013  0.000  0.000  0.000  0.000  0.000  0.053
    3  0.005  0.023  0.012  0.013  0.000  0.000  0.000  0.000  0.000  0.053
tot    0.263  0.064  0.061  0.027  0.001  0.007  0.000  0.000  0.001  0.425
 
band     7 # energy   13.19928142 # occ.  0.00000000
 
ion      s     py     pz     px    dxy    dyz    dz2    dxz  x2-y2    tot
    1  0.004  0.012  0.004  0.016  0.016  0.007  0.016  0.002  0.000  0.076
    2  0.022  0.040  0.056  0.056  0.000  0.000  0.000  0.000  0.000  0.174
    3  0.022  0.040  0.056  0.056  0.000  0.000  0.000  0.000  0.000  0.174
tot    0.048  0.092  0.116  0.127  0.016  0.007  0.016  0.002  0.000  0.424
 
band     8 # energy   14.01176746 # occ.  0.00000000
 
ion      s     py     pz     px    dxy    dyz    dz2    dxz  x2-y2    tot
    1  0.002  0.029  0.023  0.027  0.001  0.001  0.000  0.006  0.011  0.100
    2  0.045  0.053  0.056  0.020  0.000  0.000  0.000  0.000  0.000  0.174
    3  0.045  0.053  0.056  0.020  0.000  0.000  0.000  0.000  0.000  0.174
tot    0.092  0.136  0.134  0.067  0.001  0.001  0.000  0.006  0.011  0.448
 

 k-point   111 :   -0.45833333 0.20833333 0.22222222     weight = 0.00617284

band     1 # energy   -4.07352966 # occ.  2.00000000
 
ion      s     py     pz     px    dxy    dyz    dz2    dxz  x2-y2    tot
    1  0.025  0.009  0.005  0.004  0.000  0.001  0.000  0.000  0.000  0.045
    2  0.196  0.035  0.001  0.015  0.000  0.000  0.000  0.000  0.000  0.247
    3  0.196  0.035  0.001  0.015  0.000  0.000  0.000  0.000  0.000  0.247
tot    0.417  0.078  0.008  0.033  0.000  0.001  0.000  0.000  0.000  0.538
 
band     2 # energy    0.35176290 # occ.  2.00000000
 
ion      s     py     pz     px    dxy    dyz    dz2    dxz  x2-y2    tot
    1  0.002  0.001  0.001  0.015  0.001  0.000  0.000  0.003  0.003  0.026
    2  0.141  0.053  0.001  0.093  0.000  0.000  0.000  0.000  0.000  0.288
    3  0.141  0.053  0.001  0.093  0.000  0.000  0.000  0.000  0.000  0.288
tot    0.284  0.107  0.002  0.200  0.001  0.000  0.000  0.003  0.003  0.602
 
band     3 # energy    1.53493507 # occ.  2.00000000
 
ion      s     py     pz     px    dxy    dyz    dz2    dxz  x2-y2    tot
    1  0.014  0.015  0.009  0.001  0.000  0.002  0.003  0.000  0.000  0.044
    2  0.024  0.130  0.002  0.103  0.000  0.000  0.000  0.000  0.000  0.258
    3  0.024  0.130  0.002  0.103  0.000  0.000  0.000  0.000  0.000  0.258
tot    0.061  0.275  0.013  0.206  0.000  0.002  0.003  0.000  0.000  0.561
 
band     4 # energy    2.93161735 # occ.  2.00000000
 
ion      s     py     pz     px    dxy    dyz    dz2    dxz  x2-y2    tot
    1  0.037  0.018  0.011  0.009  0.001  0.008  0.001  0.004  0.000  0.090
    2  0.020  0.002  0.141  0.005  0.000  0.000  0.000  0.000  0.000  0.168
    3  0.020  0.002  0.141  0.005  0.000  0.000  0.000  0.000  0.000  0.168
tot    0.077  0.023  0.294  0.018  0.001  0.008  0.001  0.004  0.000  0.426
 
band     5 # energy    7.66947922 # occ. -0.00000000
 
ion      s     py     pz     px    dxy    dyz    dz2    dxz  x2-y2    tot
    1  0.002  0.006  0.001  0.027  0.007  0.002  0.000  0.011  0.015  0.070
    2  0.003  0.009  0.159  0.007  0.000  0.000  0.000  0.000  0.000  0.179
    3  0.003  0.009  0.159  0.007  0.000  0.000  0.000  0.000  0.000  0.179
tot    0.008  0.025  0.318  0.042  0.007  0.002  0.000  0.011  0.015  0.427
 
band     6 # energy   12.35438197 # occ.  0.00000000
 
ion      s     py     pz     px    dxy    dyz    dz2    dxz  x2-y2    tot
    1  0.256  0.006  0.015  0.000  0.001  0.014  0.001  0.003  0.001  0.298
    2  0.012  0.015  0.050  0.008  0.000  0.000  0.000  0.000  0.000  0.085
    3  0.012  0.015  0.050  0.008  0.000  0.000  0.000  0.000  0.000  0.085
tot    0.279  0.037  0.115  0.016  0.001  0.014  0.001  0.003  0.001  0.467
 
band     7 # energy   12.58156426 # occ.  0.00000000
 
ion      s     py     pz     px    dxy    dyz    dz2    dxz  x2-y2    tot
    1  0.009  0.048  0.006  0.020  0.007  0.002  0.024  0.002  0.000  0.120
    2  0.004  0.031  0.036  0.062  0.000  0.000  0.000  0.000  0.000  0.133
    3  0.004  0.031  0.036  0.062  0.000  0.000  0.000  0.000  0.000  0.133
tot    0.018  0.109  0.079  0.144  0.007  0.002  0.024  0.002  0.000  0.385
 
band     8 # energy   14.26617620 # occ.  0.00000000
 
ion      s     py     pz     px    dxy    dyz    dz2    dxz  x2-y2    tot
    1  0.001  0.023  0.047  0.004  0.008  0.000  0.000  0.000  0.007  0.092
    2  0.073  0.053  0.025  0.035  0.000  0.000  0.000  0.000  0.000  0.186
    3  0.073  0.053  0.025  0.035  0.000  0.000  0.000  0.000  0.000  0.186
tot    0.148  0.129  0.097  0.075  0.008  0.000  0.000  0.000  0.007  0.463
 

 k-point   112 :   -0.37500000 0.20833333 0.22222222     weight = 0.00617284

band     1 # energy   -4.93182421 # occ.  2.00000000
 
ion      s     py     pz     px    dxy    dyz    dz2    dxz  x2-y2    tot
    1  0.032  0.007  0.006  0.002  0.000  0.001  0.000  0.000  0.000  0.048
    2  0.204  0.027  0.001  0.007  0.000  0.000  0.000  0.000  0.000  0.240
    3  0.204  0.027  0.001  0.007  0.000  0.000  0.000  0.000  0.000  0.240
tot    0.441  0.061  0.009  0.015  0.000  0.001  0.000  0.000  0.000  0.528
 
band     2 # energy    1.41165516 # occ.  2.00000000
 
ion      s     py     pz     px    dxy    dyz    dz2    dxz  x2-y2    tot
    1  0.000  0.009  0.001  0.006  0.001  0.001  0.000  0.002  0.004  0.024
    2  0.117  0.151  0.001  0.026  0.000  0.000  0.000  0.000  0.000  0.294
    3  0.117  0.151  0.001  0.026  0.000  0.000  0.000  0.000  0.000  0.294
tot    0.234  0.310  0.004  0.057  0.001  0.001  0.000  0.002  0.004  0.612
 
band     3 # energy    2.00528878 # occ.  2.00000000
 
ion      s     py     pz     px    dxy    dyz    dz2    dxz  x2-y2    tot
    1  0.032  0.020  0.023  0.008  0.000  0.004  0.002  0.000  0.000  0.090
    2  0.012  0.007  0.128  0.017  0.000  0.000  0.000  0.000  0.000  0.163
    3  0.012  0.007  0.128  0.017  0.000  0.000  0.000  0.000  0.000  0.163
tot    0.055  0.034  0.280  0.041  0.000  0.004  0.002  0.000  0.000  0.417
 
band     4 # energy    2.60237435 # occ.  2.00000000
 
ion      s     py     pz     px    dxy    dyz    dz2    dxz  x2-y2    tot
    1  0.026  0.002  0.001  0.004  0.001  0.004  0.001  0.003  0.000  0.042
    2  0.028  0.042  0.010  0.196  0.000  0.000  0.000  0.000  0.000  0.275
    3  0.028  0.042  0.010  0.196  0.000  0.000  0.000  0.000  0.000  0.275
tot    0.082  0.085  0.020  0.396  0.001  0.004  0.001  0.003  0.000  0.593
 
band     5 # energy    8.92886694 # occ.  0.00000000
 
ion      s     py     pz     px    dxy    dyz    dz2    dxz  x2-y2    tot
    1  0.001  0.009  0.000  0.017  0.005  0.004  0.000  0.007  0.023  0.067
    2  0.001  0.013  0.163  0.007  0.000  0.000  0.000  0.000  0.000  0.184
    3  0.001  0.013  0.163  0.007  0.000  0.000  0.000  0.000  0.000  0.184
tot    0.002  0.034  0.327  0.031  0.005  0.004  0.000  0.007  0.023  0.434
 
band     6 # energy   11.76052910 # occ.  0.00000000
 
ion      s     py     pz     px    dxy    dyz    dz2    dxz  x2-y2    tot
    1  0.026  0.029  0.002  0.004  0.004  0.008  0.033  0.002  0.002  0.111
    2  0.009  0.029  0.071  0.029  0.000  0.000  0.000  0.000  0.000  0.139
    3  0.009  0.029  0.071  0.029  0.000  0.000  0.000  0.000  0.000  0.139
tot    0.045  0.088  0.145  0.062  0.004  0.008  0.033  0.002  0.002  0.388
 
band     7 # energy   12.82876287 # occ.  0.00000000
 
ion      s     py     pz     px    dxy    dyz    dz2    dxz  x2-y2    tot
    1  0.201  0.012  0.001  0.002  0.000  0.002  0.002  0.002  0.002  0.223
    2  0.053  0.015  0.023  0.070  0.000  0.000  0.000  0.000  0.000  0.160
    3  0.053  0.015  0.023  0.070  0.000  0.000  0.000  0.000  0.000  0.160
tot    0.307  0.041  0.048  0.141  0.000  0.002  0.002  0.002  0.002  0.544
 
band     8 # energy   14.26483866 # occ.  0.00000000
 
ion      s     py     pz     px    dxy    dyz    dz2    dxz  x2-y2    tot
    1  0.023  0.018  0.034  0.034  0.000  0.004  0.000  0.001  0.011  0.126
    2  0.069  0.037  0.019  0.035  0.000  0.000  0.000  0.000  0.000  0.160
    3  0.069  0.037  0.019  0.035  0.000  0.000  0.000  0.000  0.000  0.160
tot    0.162  0.092  0.072  0.104  0.000  0.004  0.000  0.001  0.011  0.446
 

 k-point   113 :   -0.29166667 0.20833333 0.22222222     weight = 0.00617284

band     1 # energy   -5.57259906 # occ.  2.00000000
 
ion      s     py     pz     px    dxy    dyz    dz2    dxz  x2-y2    tot
    1  0.037  0.005  0.007  0.000  0.000  0.001  0.000  0.000  0.000  0.051
    2  0.211  0.020  0.001  0.002  0.000  0.000  0.000  0.000  0.000  0.235
    3  0.211  0.020  0.001  0.002  0.000  0.000  0.000  0.000  0.000  0.235
tot    0.460  0.046  0.010  0.004  0.000  0.001  0.000  0.000  0.000  0.520
 
band     2 # energy    1.36170231 # occ.  2.00000000
 
ion      s     py     pz     px    dxy    dyz    dz2    dxz  x2-y2    tot
    1  0.050  0.016  0.026  0.001  0.000  0.004  0.002  0.000  0.000  0.098
    2  0.017  0.006  0.134  0.000  0.000  0.000  0.000  0.000  0.000  0.158
    3  0.017  0.006  0.134  0.000  0.000  0.000  0.000  0.000  0.000  0.158
tot    0.084  0.027  0.294  0.002  0.000  0.004  0.002  0.000  0.000  0.413
 
band     3 # energy    2.25497519 # occ.  2.00000000
 
ion      s     py     pz     px    dxy    dyz    dz2    dxz  x2-y2    tot
    1  0.007  0.008  0.000  0.002  0.000  0.003  0.000  0.000  0.005  0.026
    2  0.092  0.197  0.002  0.005  0.000  0.000  0.000  0.000  0.000  0.295
    3  0.092  0.197  0.002  0.005  0.000  0.000  0.000  0.000  0.000  0.295
tot    0.191  0.401  0.004  0.012  0.000  0.003  0.000  0.000  0.005  0.617
 
band     4 # energy    3.85464432 # occ.  2.00000000
 
ion      s     py     pz     px    dxy    dyz    dz2    dxz  x2-y2    tot
    1  0.004  0.002  0.001  0.010  0.002  0.001  0.001  0.004  0.000  0.024
    2  0.011  0.011  0.000  0.284  0.000  0.000  0.000  0.000  0.000  0.307
    3  0.011  0.011  0.000  0.284  0.000  0.000  0.000  0.000  0.000  0.307
tot    0.026  0.023  0.002  0.579  0.002  0.001  0.001  0.004  0.000  0.637
 
band     5 # energy   10.02811118 # occ.  0.00000000
 
ion      s     py     pz     px    dxy    dyz    dz2    dxz  x2-y2    tot
    1  0.006  0.005  0.002  0.005  0.001  0.009  0.003  0.002  0.034  0.067
    2  0.002  0.018  0.153  0.007  0.000  0.000  0.000  0.000  0.000  0.181
    3  0.002  0.018  0.153  0.007  0.000  0.000  0.000  0.000  0.000  0.181
tot    0.011  0.041  0.309  0.019  0.001  0.009  0.003  0.002  0.034  0.429
 
band     6 # energy   11.08101248 # occ.  0.00000000
 
ion      s     py     pz     px    dxy    dyz    dz2    dxz  x2-y2    tot
    1  0.007  0.042  0.003  0.000  0.002  0.004  0.036  0.001  0.000  0.096
    2  0.017  0.043  0.066  0.014  0.000  0.000  0.000  0.000  0.000  0.140
    3  0.017  0.043  0.066  0.014  0.000  0.000  0.000  0.000  0.000  0.140
tot    0.040  0.128  0.136  0.029  0.002  0.004  0.036  0.001  0.000  0.377
 
band     7 # energy   12.14730508 # occ.  0.00000000
 
ion      s     py     pz     px    dxy    dyz    dz2    dxz  x2-y2    tot
    1  0.141  0.001  0.019  0.000  0.000  0.000  0.000  0.000  0.002  0.165
    2  0.106  0.018  0.040  0.021  0.000  0.000  0.000  0.000  0.000  0.185
    3  0.106  0.018  0.040  0.021  0.000  0.000  0.000  0.000  0.000  0.185
tot    0.353  0.038  0.100  0.042  0.000  0.000  0.000  0.000  0.002  0.536
 
band     8 # energy   14.83523414 # occ.  0.00000000
 
ion      s     py     pz     px    dxy    dyz    dz2    dxz  x2-y2    tot
    1  0.021  0.001  0.000  0.038  0.003  0.000  0.001  0.003  0.003  0.070
    2  0.060  0.033  0.019  0.122  0.000  0.000  0.000  0.000  0.000  0.233
    3  0.060  0.033  0.019  0.122  0.000  0.000  0.000  0.000  0.000  0.233
tot    0.140  0.068  0.038  0.281  0.003  0.000  0.001  0.003  0.003  0.537
 

 k-point   114 :   -0.20833333 0.20833333 0.22222222     weight = 0.00308642

band     1 # energy   -5.98479184 # occ.  2.00000000
 
ion      s     py     pz     px    dxy    dyz    dz2    dxz  x2-y2    tot
    1  0.041  0.004  0.007  0.000  0.000  0.000  0.000  0.000  0.000  0.052
    2  0.216  0.014  0.002  0.000  0.000  0.000  0.000  0.000  0.000  0.231
    3  0.216  0.014  0.002  0.000  0.000  0.000  0.000  0.000  0.000  0.231
tot    0.472  0.032  0.010  0.000  0.000  0.000  0.000  0.000  0.000  0.515
 
band     2 # energy    0.93489283 # occ.  2.00000000
 
ion      s     py     pz     px    dxy    dyz    dz2    dxz  x2-y2    tot
    1  0.059  0.010  0.028  0.000  0.000  0.003  0.002  0.000  0.000  0.101
    2  0.020  0.003  0.134  0.000  0.000  0.000  0.000  0.000  0.000  0.157
    3  0.020  0.003  0.134  0.000  0.000  0.000  0.000  0.000  0.000  0.157
tot    0.099  0.015  0.296  0.000  0.000  0.003  0.002  0.000  0.000  0.415
 
band     3 # energy    3.10036532 # occ.  2.00000000
 
ion      s     py     pz     px    dxy    dyz    dz2    dxz  x2-y2    tot
    1  0.004  0.009  0.001  0.000  0.000  0.003  0.001  0.000  0.005  0.023
    2  0.073  0.228  0.001  0.000  0.000  0.000  0.000  0.000  0.000  0.302
    3  0.073  0.228  0.001  0.000  0.000  0.000  0.000  0.000  0.000  0.302
tot    0.150  0.466  0.002  0.000  0.000  0.003  0.001  0.000  0.005  0.627
 
band     4 # energy    4.64534202 # occ.  2.00000000
 
ion      s     py     pz     px    dxy    dyz    dz2    dxz  x2-y2    tot
    1  0.000  0.000  0.000  0.010  0.003  0.000  0.000  0.004  0.000  0.017
    2  0.000  0.000  0.000  0.325  0.000  0.000  0.000  0.000  0.000  0.325
    3  0.000  0.000  0.000  0.325  0.000  0.000  0.000  0.000  0.000  0.325
tot    0.000  0.000  0.000  0.659  0.003  0.000  0.000  0.004  0.000  0.666
 
band     5 # energy   10.45168899 # occ.  0.00000000
 
ion      s     py     pz     px    dxy    dyz    dz2    dxz  x2-y2    tot
    1  0.013  0.011  0.000  0.000  0.000  0.013  0.032  0.000  0.018  0.086
    2  0.022  0.048  0.067  0.000  0.000  0.000  0.000  0.000  0.000  0.137
    3  0.022  0.048  0.067  0.000  0.000  0.000  0.000  0.000  0.000  0.137
tot    0.057  0.107  0.135  0.000  0.000  0.013  0.032  0.000  0.018  0.361
 
band     6 # energy   11.24125533 # occ.  0.00000000
 
ion      s     py     pz     px    dxy    dyz    dz2    dxz  x2-y2    tot
    1  0.011  0.029  0.013  0.000  0.000  0.001  0.011  0.000  0.020  0.085
    2  0.015  0.016  0.148  0.000  0.000  0.000  0.000  0.000  0.000  0.179
    3  0.015  0.016  0.148  0.000  0.000  0.000  0.000  0.000  0.000  0.179
tot    0.040  0.061  0.309  0.000  0.000  0.001  0.011  0.000  0.020  0.442
 
band     7 # energy   11.86832118 # occ.  0.00000000
 
ion      s     py     pz     px    dxy    dyz    dz2    dxz  x2-y2    tot
    1  0.118  0.012  0.016  0.000  0.000  0.000  0.000  0.000  0.000  0.146
    2  0.095  0.042  0.053  0.000  0.000  0.000  0.000  0.000  0.000  0.191
    3  0.095  0.042  0.053  0.000  0.000  0.000  0.000  0.000  0.000  0.191
tot    0.308  0.096  0.123  0.000  0.000  0.000  0.000  0.000  0.000  0.527
 
band     8 # energy   14.72033103 # occ.  0.00000000
 
ion      s     py     pz     px    dxy    dyz    dz2    dxz  x2-y2    tot
    1  0.000  0.000  0.000  0.045  0.005  0.000  0.000  0.016  0.000  0.066
    2  0.000  0.000  0.000  0.218  0.000  0.000  0.000  0.000  0.000  0.218
    3  0.000  0.000  0.000  0.218  0.000  0.000  0.000  0.000  0.000  0.218
tot    0.000  0.000  0.000  0.482  0.005  0.000  0.000  0.016  0.000  0.502
 

 k-point   115 :    0.29166667 0.29166667 0.22222222     weight = 0.00308642

band     1 # energy   -2.55370108 # occ.  2.00000000
 
ion      s     py     pz     px    dxy    dyz    dz2    dxz  x2-y2    tot
    1  0.011  0.000  0.003  0.018  0.000  0.000  0.000  0.003  0.001  0.036
    2  0.189  0.004  0.001  0.069  0.000  0.000  0.000  0.000  0.000  0.263
    3  0.189  0.004  0.001  0.069  0.000  0.000  0.000  0.000  0.000  0.263
tot    0.389  0.008  0.005  0.155  0.000  0.000  0.000  0.003  0.001  0.562
 
band     2 # energy   -0.90501159 # occ.  2.00000000
 
ion      s     py     pz     px    dxy    dyz    dz2    dxz  x2-y2    tot
    1  0.000  0.020  0.000  0.000  0.003  0.004  0.000  0.000  0.000  0.027
    2  0.178  0.040  0.001  0.063  0.000  0.000  0.000  0.000  0.000  0.283
    3  0.178  0.040  0.001  0.063  0.000  0.000  0.000  0.000  0.000  0.283
tot    0.357  0.100  0.002  0.127  0.003  0.004  0.000  0.000  0.000  0.592
 
band     3 # energy    0.18018851 # occ.  2.00000000
 
ion      s     py     pz     px    dxy    dyz    dz2    dxz  x2-y2    tot
    1  0.034  0.000  0.013  0.006  0.000  0.000  0.003  0.001  0.000  0.057
    2  0.019  0.158  0.000  0.062  0.000  0.000  0.000  0.000  0.000  0.238
    3  0.019  0.158  0.000  0.062  0.000  0.000  0.000  0.000  0.000  0.238
tot    0.072  0.315  0.013  0.129  0.000  0.000  0.003  0.001  0.000  0.533
 
band     4 # energy    4.36192844 # occ.  2.00000000
 
ion      s     py     pz     px    dxy    dyz    dz2    dxz  x2-y2    tot
    1  0.010  0.000  0.003  0.043  0.000  0.000  0.000  0.016  0.004  0.077
    2  0.013  0.003  0.152  0.004  0.000  0.000  0.000  0.000  0.000  0.173
    3  0.013  0.003  0.152  0.004  0.000  0.000  0.000  0.000  0.000  0.173
tot    0.036  0.007  0.308  0.052  0.000  0.000  0.000  0.016  0.004  0.424
 
band     5 # energy    6.08922935 # occ. -0.00000000
 
ion      s     py     pz     px    dxy    dyz    dz2    dxz  x2-y2    tot
    1  0.000  0.043  0.000  0.000  0.013  0.016  0.000  0.000  0.000  0.071
    2  0.008  0.005  0.157  0.007  0.000  0.000  0.000  0.000  0.000  0.177
    3  0.008  0.005  0.157  0.007  0.000  0.000  0.000  0.000  0.000  0.177
tot    0.016  0.052  0.314  0.015  0.013  0.016  0.000  0.000  0.000  0.425
 
band     6 # energy   11.29229514 # occ.  0.00000000
 
ion      s     py     pz     px    dxy    dyz    dz2    dxz  x2-y2    tot
    1  0.271  0.000  0.056  0.007  0.000  0.000  0.000  0.003  0.000  0.338
    2  0.000  0.016  0.005  0.009  0.000  0.000  0.000  0.000  0.000  0.030
    3  0.000  0.016  0.005  0.009  0.000  0.000  0.000  0.000  0.000  0.030
tot    0.272  0.032  0.066  0.025  0.000  0.000  0.000  0.003  0.000  0.398
 
band     7 # energy   13.80111115 # occ.  0.00000000
 
ion      s     py     pz     px    dxy    dyz    dz2    dxz  x2-y2    tot
    1  0.001  0.000  0.000  0.066  0.000  0.000  0.007  0.012  0.016  0.102
    2  0.004  0.053  0.076  0.029  0.000  0.000  0.000  0.000  0.000  0.162
    3  0.004  0.053  0.076  0.029  0.000  0.000  0.000  0.000  0.000  0.162
tot    0.009  0.106  0.152  0.124  0.000  0.000  0.007  0.012  0.016  0.426
 
band     8 # energy   14.58184168 # occ.  0.00000000
 
ion      s     py     pz     px    dxy    dyz    dz2    dxz  x2-y2    tot
    1  0.000  0.025  0.000  0.000  0.032  0.005  0.000  0.000  0.000  0.063
    2  0.007  0.065  0.064  0.069  0.000  0.000  0.000  0.000  0.000  0.206
    3  0.007  0.065  0.064  0.069  0.000  0.000  0.000  0.000  0.000  0.206
tot    0.015  0.156  0.129  0.139  0.032  0.005  0.000  0.000  0.000  0.476
 

 k-point   116 :    0.37500000 0.29166667 0.22222222     weight = 0.00617284

band     1 # energy   -2.04091300 # occ.  2.00000000
 
ion      s     py     pz     px    dxy    dyz    dz2    dxz  x2-y2    tot
    1  0.004  0.013  0.001  0.009  0.001  0.002  0.000  0.001  0.001  0.031
    2  0.195  0.050  0.001  0.026  0.000  0.000  0.000  0.000  0.000  0.272
    3  0.195  0.050  0.001  0.026  0.000  0.000  0.000  0.000  0.000  0.272
tot    0.394  0.112  0.003  0.060  0.001  0.002  0.000  0.001  0.001  0.574
 
band     2 # energy   -1.33170824 # occ.  2.00000000
 
ion      s     py     pz     px    dxy    dyz    dz2    dxz  x2-y2    tot
    1  0.004  0.006  0.001  0.013  0.001  0.001  0.000  0.002  0.001  0.031
    2  0.175  0.025  0.001  0.074  0.000  0.000  0.000  0.000  0.000  0.275
    3  0.175  0.025  0.001  0.074  0.000  0.000  0.000  0.000  0.000  0.275
tot    0.355  0.056  0.003  0.161  0.001  0.001  0.000  0.002  0.001  0.581
 
band     3 # energy   -0.04558572 # occ.  2.00000000
 
ion      s     py     pz     px    dxy    dyz    dz2    dxz  x2-y2    tot
    1  0.038  0.004  0.013  0.000  0.000  0.001  0.003  0.000  0.000  0.059
    2  0.018  0.122  0.000  0.095  0.000  0.000  0.000  0.000  0.000  0.235
    3  0.018  0.122  0.000  0.095  0.000  0.000  0.000  0.000  0.000  0.235
tot    0.074  0.248  0.014  0.190  0.000  0.001  0.003  0.000  0.000  0.530
 
band     4 # energy    4.78975581 # occ.  2.00000000
 
ion      s     py     pz     px    dxy    dyz    dz2    dxz  x2-y2    tot
    1  0.002  0.025  0.001  0.022  0.003  0.009  0.000  0.008  0.003  0.072
    2  0.012  0.004  0.155  0.004  0.000  0.000  0.000  0.000  0.000  0.176
    3  0.012  0.004  0.155  0.004  0.000  0.000  0.000  0.000  0.000  0.176
tot    0.026  0.033  0.312  0.031  0.003  0.009  0.000  0.008  0.003  0.425
 
band     5 # energy    5.66539114 # occ. -0.00020298
 
ion      s     py     pz     px    dxy    dyz    dz2    dxz  x2-y2    tot
    1  0.002  0.019  0.001  0.024  0.005  0.007  0.000  0.009  0.006  0.072
    2  0.009  0.006  0.156  0.006  0.000  0.000  0.000  0.000  0.000  0.176
    3  0.009  0.006  0.156  0.006  0.000  0.000  0.000  0.000  0.000  0.176
tot    0.020  0.030  0.312  0.036  0.005  0.007  0.000  0.009  0.006  0.424
 
band     6 # energy   11.11905750 # occ.  0.00000000
 
ion      s     py     pz     px    dxy    dyz    dz2    dxz  x2-y2    tot
    1  0.276  0.003  0.061  0.000  0.000  0.001  0.000  0.000  0.000  0.341
    2  0.000  0.013  0.002  0.012  0.000  0.000  0.000  0.000  0.000  0.026
    3  0.000  0.013  0.002  0.012  0.000  0.000  0.000  0.000  0.000  0.026
tot    0.276  0.028  0.065  0.023  0.000  0.001  0.000  0.000  0.000  0.393
 
band     7 # energy   14.12519477 # occ.  0.00000000
 
ion      s     py     pz     px    dxy    dyz    dz2    dxz  x2-y2    tot
    1  0.000  0.041  0.000  0.024  0.014  0.008  0.002  0.004  0.005  0.099
    2  0.003  0.038  0.078  0.050  0.000  0.000  0.000  0.000  0.000  0.170
    3  0.003  0.038  0.078  0.050  0.000  0.000  0.000  0.000  0.000  0.170
tot    0.007  0.117  0.156  0.125  0.014  0.008  0.002  0.004  0.005  0.438
 
band     8 # energy   14.43135573 # occ.  0.00000000
 
ion      s     py     pz     px    dxy    dyz    dz2    dxz  x2-y2    tot
    1  0.000  0.007  0.000  0.030  0.010  0.002  0.001  0.006  0.019  0.076
    2  0.003  0.071  0.069  0.050  0.000  0.000  0.000  0.000  0.000  0.193
    3  0.003  0.071  0.069  0.050  0.000  0.000  0.000  0.000  0.000  0.193
tot    0.005  0.149  0.138  0.130  0.010  0.002  0.001  0.006  0.019  0.461
 

 k-point   117 :    0.45833333 0.29166667 0.22222222     weight = 0.00617284

band     1 # energy   -3.07846171 # occ.  2.00000000
 
ion      s     py     pz     px    dxy    dyz    dz2    dxz  x2-y2    tot
    1  0.016  0.013  0.004  0.003  0.001  0.002  0.000  0.000  0.000  0.040
    2  0.190  0.050  0.001  0.015  0.000  0.000  0.000  0.000  0.000  0.257
    3  0.190  0.050  0.001  0.015  0.000  0.000  0.000  0.000  0.000  0.257
tot    0.396  0.114  0.006  0.033  0.001  0.002  0.000  0.000  0.000  0.553
 
band     2 # energy   -0.57481935 # occ.  2.00000000
 
ion      s     py     pz     px    dxy    dyz    dz2    dxz  x2-y2    tot
    1  0.003  0.008  0.001  0.010  0.001  0.001  0.000  0.002  0.002  0.028
    2  0.161  0.099  0.001  0.021  0.000  0.000  0.000  0.000  0.000  0.281
    3  0.161  0.099  0.001  0.021  0.000  0.000  0.000  0.000  0.000  0.281
tot    0.325  0.205  0.003  0.052  0.001  0.001  0.000  0.002  0.002  0.591
 
band     3 # energy    0.64790869 # occ.  2.00000000
 
ion      s     py     pz     px    dxy    dyz    dz2    dxz  x2-y2    tot
    1  0.025  0.003  0.011  0.006  0.000  0.001  0.003  0.001  0.000  0.051
    2  0.029  0.047  0.000  0.173  0.000  0.000  0.000  0.000  0.000  0.249
    3  0.029  0.047  0.000  0.173  0.000  0.000  0.000  0.000  0.000  0.249
tot    0.083  0.097  0.011  0.352  0.000  0.001  0.003  0.001  0.000  0.548
 
band     4 # energy    3.87897120 # occ.  2.00000000
 
ion      s     py     pz     px    dxy    dyz    dz2    dxz  x2-y2    tot
    1  0.018  0.032  0.006  0.007  0.002  0.012  0.000  0.003  0.001  0.081
    2  0.015  0.004  0.149  0.003  0.000  0.000  0.000  0.000  0.000  0.171
    3  0.015  0.004  0.149  0.003  0.000  0.000  0.000  0.000  0.000  0.171
tot    0.048  0.040  0.304  0.013  0.002  0.012  0.000  0.003  0.001  0.423
 
band     5 # energy    6.56616606 # occ. -0.00000000
 
ion      s     py     pz     px    dxy    dyz    dz2    dxz  x2-y2    tot
    1  0.002  0.010  0.001  0.029  0.003  0.004  0.000  0.011  0.012  0.072
    2  0.006  0.008  0.157  0.005  0.000  0.000  0.000  0.000  0.000  0.177
    3  0.006  0.008  0.157  0.005  0.000  0.000  0.000  0.000  0.000  0.177
tot    0.014  0.027  0.314  0.040  0.003  0.004  0.000  0.011  0.012  0.425
 
band     6 # energy   11.62376491 # occ.  0.00000000
 
ion      s     py     pz     px    dxy    dyz    dz2    dxz  x2-y2    tot
    1  0.265  0.007  0.047  0.007  0.000  0.003  0.000  0.003  0.000  0.332
    2  0.001  0.009  0.011  0.019  0.000  0.000  0.000  0.000  0.000  0.039
    3  0.001  0.009  0.011  0.019  0.000  0.000  0.000  0.000  0.000  0.039
tot    0.267  0.025  0.068  0.044  0.000  0.003  0.000  0.003  0.000  0.410
 
band     7 # energy   13.39455240 # occ.  0.00000000
 
ion      s     py     pz     px    dxy    dyz    dz2    dxz  x2-y2    tot
    1  0.002  0.048  0.000  0.012  0.007  0.009  0.014  0.002  0.006  0.100
    2  0.006  0.033  0.070  0.048  0.000  0.000  0.000  0.000  0.000  0.157
    3  0.006  0.033  0.070  0.048  0.000  0.000  0.000  0.000  0.000  0.157
tot    0.014  0.114  0.141  0.107  0.007  0.009  0.014  0.002  0.006  0.414
 
band     8 # energy   14.50420889 # occ.  0.00000000
 
ion      s     py     pz     px    dxy    dyz    dz2    dxz  x2-y2    tot
    1  0.001  0.016  0.009  0.001  0.006  0.002  0.001  0.001  0.022  0.059
    2  0.032  0.044  0.050  0.087  0.000  0.000  0.000  0.000  0.000  0.213
    3  0.032  0.044  0.050  0.087  0.000  0.000  0.000  0.000  0.000  0.213
tot    0.064  0.104  0.108  0.175  0.006  0.002  0.001  0.001  0.022  0.484
 

 k-point   118 :   -0.45833333 0.29166667 0.22222222     weight = 0.00617284

band     1 # energy   -4.01713514 # occ.  2.00000000
 
ion      s     py     pz     px    dxy    dyz    dz2    dxz  x2-y2    tot
    1  0.024  0.011  0.005  0.002  0.000  0.001  0.000  0.000  0.000  0.045
    2  0.196  0.043  0.001  0.007  0.000  0.000  0.000  0.000  0.000  0.247
    3  0.196  0.043  0.001  0.007  0.000  0.000  0.000  0.000  0.000  0.247
tot    0.416  0.097  0.008  0.015  0.000  0.001  0.000  0.000  0.000  0.539
 
band     2 # energy   -0.04581822 # occ.  2.00000000
 
ion      s     py     pz     px    dxy    dyz    dz2    dxz  x2-y2    tot
    1  0.008  0.011  0.003  0.003  0.000  0.002  0.001  0.001  0.003  0.032
    2  0.129  0.140  0.001  0.006  0.000  0.000  0.000  0.000  0.000  0.275
    3  0.129  0.140  0.001  0.006  0.000  0.000  0.000  0.000  0.000  0.275
tot    0.266  0.291  0.005  0.015  0.000  0.002  0.001  0.001  0.003  0.583
 
band     3 # energy    1.95713614 # occ.  2.00000000
 
ion      s     py     pz     px    dxy    dyz    dz2    dxz  x2-y2    tot
    1  0.008  0.003  0.007  0.013  0.000  0.000  0.002  0.003  0.001  0.037
    2  0.032  0.016  0.002  0.223  0.000  0.000  0.000  0.000  0.000  0.272
    3  0.032  0.016  0.002  0.223  0.000  0.000  0.000  0.000  0.000  0.272
tot    0.071  0.034  0.012  0.459  0.000  0.000  0.002  0.003  0.001  0.582
 
band     4 # energy    2.97879161 # occ.  2.00000000
 
ion      s     py     pz     px    dxy    dyz    dz2    dxz  x2-y2    tot
    1  0.036  0.026  0.011  0.002  0.001  0.011  0.001  0.002  0.001  0.089
    2  0.020  0.003  0.142  0.005  0.000  0.000  0.000  0.000  0.000  0.169
    3  0.020  0.003  0.142  0.005  0.000  0.000  0.000  0.000  0.000  0.169
tot    0.075  0.032  0.294  0.013  0.001  0.011  0.001  0.002  0.001  0.427
 
band     5 # energy    7.49835441 # occ. -0.00000000
 
ion      s     py     pz     px    dxy    dyz    dz2    dxz  x2-y2    tot
    1  0.012  0.013  0.005  0.016  0.002  0.005  0.000  0.006  0.019  0.079
    2  0.003  0.012  0.153  0.005  0.000  0.000  0.000  0.000  0.000  0.172
    3  0.003  0.012  0.153  0.005  0.000  0.000  0.000  0.000  0.000  0.172
tot    0.018  0.037  0.310  0.025  0.002  0.005  0.000  0.006  0.019  0.423
 
band     6 # energy   12.22551049 # occ.  0.00000000
 
ion      s     py     pz     px    dxy    dyz    dz2    dxz  x2-y2    tot
    1  0.063  0.031  0.002  0.006  0.000  0.001  0.018  0.000  0.011  0.133
    2  0.037  0.021  0.007  0.084  0.000  0.000  0.000  0.000  0.000  0.148
    3  0.037  0.021  0.007  0.084  0.000  0.000  0.000  0.000  0.000  0.148
tot    0.137  0.072  0.015  0.175  0.000  0.001  0.018  0.000  0.011  0.429
 
band     7 # energy   12.56664904 # occ.  0.00000000
 
ion      s     py     pz     px    dxy    dyz    dz2    dxz  x2-y2    tot
    1  0.187  0.006  0.005  0.003  0.004  0.012  0.007  0.007  0.000  0.231
    2  0.015  0.017  0.081  0.005  0.000  0.000  0.000  0.000  0.000  0.118
    3  0.015  0.017  0.081  0.005  0.000  0.000  0.000  0.000  0.000  0.118
tot    0.218  0.039  0.167  0.014  0.004  0.012  0.007  0.007  0.000  0.468
 
band     8 # energy   13.85569869 # occ.  0.00000000
 
ion      s     py     pz     px    dxy    dyz    dz2    dxz  x2-y2    tot
    1  0.004  0.043  0.064  0.030  0.000  0.000  0.000  0.002  0.004  0.148
    2  0.061  0.015  0.031  0.019  0.000  0.000  0.000  0.000  0.000  0.126
    3  0.061  0.015  0.031  0.019  0.000  0.000  0.000  0.000  0.000  0.126
tot    0.126  0.073  0.125  0.069  0.000  0.000  0.000  0.002  0.004  0.400
 

 k-point   119 :   -0.37500000 0.29166667 0.22222222     weight = 0.00617284

band     1 # energy   -4.75820590 # occ.  2.00000000
 
ion      s     py     pz     px    dxy    dyz    dz2    dxz  x2-y2    tot
    1  0.030  0.009  0.006  0.000  0.000  0.001  0.000  0.000  0.000  0.048
    2  0.203  0.035  0.001  0.002  0.000  0.000  0.000  0.000  0.000  0.241
    3  0.203  0.035  0.001  0.002  0.000  0.000  0.000  0.000  0.000  0.241
tot    0.436  0.079  0.009  0.004  0.000  0.001  0.000  0.000  0.000  0.530
 
band     2 # energy    0.58545527 # occ.  2.00000000
 
ion      s     py     pz     px    dxy    dyz    dz2    dxz  x2-y2    tot
    1  0.007  0.014  0.004  0.001  0.000  0.002  0.001  0.000  0.003  0.033
    2  0.111  0.161  0.001  0.001  0.000  0.000  0.000  0.000  0.000  0.275
    3  0.111  0.161  0.001  0.001  0.000  0.000  0.000  0.000  0.000  0.275
tot    0.230  0.337  0.006  0.004  0.000  0.002  0.001  0.000  0.003  0.583
 
band     3 # energy    2.21301248 # occ.  2.00000000
 
ion      s     py     pz     px    dxy    dyz    dz2    dxz  x2-y2    tot
    1  0.042  0.021  0.018  0.002  0.000  0.008  0.001  0.000  0.001  0.094
    2  0.019  0.004  0.138  0.002  0.000  0.000  0.000  0.000  0.000  0.163
    3  0.019  0.004  0.138  0.002  0.000  0.000  0.000  0.000  0.000  0.163
tot    0.079  0.030  0.295  0.005  0.000  0.008  0.001  0.000  0.001  0.419
 
band     4 # energy    3.29074446 # occ.  2.00000000
 
ion      s     py     pz     px    dxy    dyz    dz2    dxz  x2-y2    tot
    1  0.006  0.000  0.001  0.012  0.001  0.001  0.001  0.005  0.000  0.026
    2  0.016  0.004  0.001  0.283  0.000  0.000  0.000  0.000  0.000  0.304
    3  0.016  0.004  0.001  0.283  0.000  0.000  0.000  0.000  0.000  0.304
tot    0.037  0.009  0.003  0.578  0.001  0.001  0.001  0.005  0.000  0.634
 
band     5 # energy    8.38490252 # occ.  0.00000000
 
ion      s     py     pz     px    dxy    dyz    dz2    dxz  x2-y2    tot
    1  0.018  0.015  0.009  0.004  0.001  0.008  0.001  0.002  0.027  0.084
    2  0.001  0.015  0.148  0.003  0.000  0.000  0.000  0.000  0.000  0.167
    3  0.001  0.015  0.148  0.003  0.000  0.000  0.000  0.000  0.000  0.167
tot    0.019  0.046  0.304  0.011  0.001  0.008  0.001  0.002  0.027  0.417
 
band     6 # energy   11.12491871 # occ.  0.00000000
 
ion      s     py     pz     px    dxy    dyz    dz2    dxz  x2-y2    tot
    1  0.017  0.028  0.000  0.000  0.000  0.002  0.024  0.000  0.008  0.081
    2  0.075  0.039  0.018  0.031  0.000  0.000  0.000  0.000  0.000  0.162
    3  0.075  0.039  0.018  0.031  0.000  0.000  0.000  0.000  0.000  0.162
tot    0.167  0.105  0.036  0.061  0.000  0.002  0.024  0.000  0.008  0.404
 
band     7 # energy   12.40002317 # occ.  0.00000000
 
ion      s     py     pz     px    dxy    dyz    dz2    dxz  x2-y2    tot
    1  0.139  0.016  0.013  0.000  0.001  0.006  0.008  0.002  0.001  0.185
    2  0.069  0.003  0.080  0.007  0.000  0.000  0.000  0.000  0.000  0.159
    3  0.069  0.003  0.080  0.007  0.000  0.000  0.000  0.000  0.000  0.159
tot    0.278  0.022  0.173  0.014  0.001  0.006  0.008  0.002  0.001  0.504
 
band     8 # energy   14.88565607 # occ.  0.00000000
 
ion      s     py     pz     px    dxy    dyz    dz2    dxz  x2-y2    tot
    1  0.079  0.039  0.041  0.069  0.003  0.002  0.001  0.010  0.000  0.243
    2  0.012  0.018  0.042  0.007  0.000  0.000  0.000  0.000  0.000  0.079
    3  0.012  0.018  0.042  0.007  0.000  0.000  0.000  0.000  0.000  0.079
tot    0.103  0.074  0.125  0.083  0.003  0.002  0.001  0.010  0.000  0.401
 

 k-point   120 :   -0.29166667 0.29166667 0.22222222     weight = 0.00308642

band     1 # energy   -5.27995009 # occ.  2.00000000
 
ion      s     py     pz     px    dxy    dyz    dz2    dxz  x2-y2    tot
    1  0.035  0.007  0.007  0.000  0.000  0.001  0.000  0.000  0.000  0.050
    2  0.208  0.027  0.001  0.000  0.000  0.000  0.000  0.000  0.000  0.237
    3  0.208  0.027  0.001  0.000  0.000  0.000  0.000  0.000  0.000  0.237
tot    0.451  0.062  0.009  0.000  0.000  0.001  0.000  0.000  0.000  0.524
 
band     2 # energy    1.34646387 # occ.  2.00000000
 
ion      s     py     pz     px    dxy    dyz    dz2    dxz  x2-y2    tot
    1  0.000  0.021  0.009  0.000  0.000  0.001  0.002  0.000  0.003  0.036
    2  0.083  0.168  0.014  0.000  0.000  0.000  0.000  0.000  0.000  0.265
    3  0.083  0.168  0.014  0.000  0.000  0.000  0.000  0.000  0.000  0.265
tot    0.167  0.358  0.036  0.000  0.000  0.001  0.002  0.000  0.003  0.567
 
band     3 # energy    1.71142656 # occ.  2.00000000
 
ion      s     py     pz     px    dxy    dyz    dz2    dxz  x2-y2    tot
    1  0.057  0.009  0.016  0.000  0.000  0.008  0.001  0.000  0.002  0.092
    2  0.035  0.017  0.124  0.000  0.000  0.000  0.000  0.000  0.000  0.177
    3  0.035  0.017  0.124  0.000  0.000  0.000  0.000  0.000  0.000  0.177
tot    0.128  0.043  0.264  0.000  0.000  0.008  0.001  0.000  0.002  0.445
 
band     4 # energy    4.02766816 # occ.  2.00000000
 
ion      s     py     pz     px    dxy    dyz    dz2    dxz  x2-y2    tot
    1  0.000  0.000  0.000  0.013  0.002  0.000  0.000  0.005  0.000  0.019
    2  0.000  0.000  0.000  0.320  0.000  0.000  0.000  0.000  0.000  0.320
    3  0.000  0.000  0.000  0.320  0.000  0.000  0.000  0.000  0.000  0.320
tot    0.000  0.000  0.000  0.652  0.002  0.000  0.000  0.005  0.000  0.659
 
band     5 # energy    9.22422299 # occ.  0.00000000
 
ion      s     py     pz     px    dxy    dyz    dz2    dxz  x2-y2    tot
    1  0.012  0.010  0.008  0.000  0.000  0.011  0.003  0.000  0.034  0.078
    2  0.004  0.020  0.141  0.000  0.000  0.000  0.000  0.000  0.000  0.165
    3  0.004  0.020  0.141  0.000  0.000  0.000  0.000  0.000  0.000  0.165
tot    0.020  0.050  0.290  0.000  0.000  0.011  0.003  0.000  0.034  0.408
 
band     6 # energy   10.74243124 # occ.  0.00000000
 
ion      s     py     pz     px    dxy    dyz    dz2    dxz  x2-y2    tot
    1  0.013  0.041  0.000  0.000  0.000  0.002  0.025  0.000  0.002  0.084
    2  0.072  0.050  0.033  0.000  0.000  0.000  0.000  0.000  0.000  0.155
    3  0.072  0.050  0.033  0.000  0.000  0.000  0.000  0.000  0.000  0.155
tot    0.158  0.141  0.066  0.000  0.000  0.002  0.025  0.000  0.002  0.394
 
band     7 # energy   12.01968466 # occ.  0.00000000
 
ion      s     py     pz     px    dxy    dyz    dz2    dxz  x2-y2    tot
    1  0.135  0.010  0.022  0.000  0.000  0.003  0.009  0.000  0.001  0.180
    2  0.087  0.000  0.074  0.000  0.000  0.000  0.000  0.000  0.000  0.161
    3  0.087  0.000  0.074  0.000  0.000  0.000  0.000  0.000  0.000  0.161
tot    0.309  0.010  0.171  0.000  0.000  0.003  0.009  0.000  0.001  0.503
 
band     8 # energy   16.38817501 # occ.  0.00000000
 
ion      s     py     pz     px    dxy    dyz    dz2    dxz  x2-y2    tot
    1  0.084  0.054  0.003  0.000  0.000  0.000  0.001  0.000  0.006  0.149
    2  0.020  0.094  0.115  0.000  0.000  0.000  0.000  0.000  0.000  0.229
    3  0.020  0.094  0.115  0.000  0.000  0.000  0.000  0.000  0.000  0.229
tot    0.124  0.241  0.233  0.000  0.000  0.000  0.001  0.000  0.006  0.606
 

 k-point   121 :    0.37500000 0.37500000 0.22222222     weight = 0.00308642

band     1 # energy   -2.16016512 # occ.  2.00000000
 
ion      s     py     pz     px    dxy    dyz    dz2    dxz  x2-y2    tot
    1  0.000  0.024  0.000  0.000  0.001  0.004  0.000  0.000  0.000  0.029
    2  0.208  0.041  0.001  0.023  0.000  0.000  0.000  0.000  0.000  0.274
    3  0.208  0.041  0.001  0.023  0.000  0.000  0.000  0.000  0.000  0.274
tot    0.417  0.106  0.003  0.046  0.001  0.004  0.000  0.000  0.000  0.577
 
band     2 # energy   -1.55304088 # occ.  2.00000000
 
ion      s     py     pz     px    dxy    dyz    dz2    dxz  x2-y2    tot
    1  0.020  0.000  0.006  0.011  0.000  0.000  0.001  0.002  0.002  0.042
    2  0.135  0.122  0.001  0.000  0.000  0.000  0.000  0.000  0.000  0.259
    3  0.135  0.122  0.001  0.000  0.000  0.000  0.000  0.000  0.000  0.259
tot    0.291  0.244  0.007  0.012  0.000  0.000  0.001  0.002  0.002  0.559
 
band     3 # energy    0.42331737 # occ.  2.00000000
 
ion      s     py     pz     px    dxy    dyz    dz2    dxz  x2-y2    tot
    1  0.025  0.000  0.010  0.009  0.000  0.000  0.002  0.002  0.001  0.049
    2  0.042  0.025  0.000  0.184  0.000  0.000  0.000  0.000  0.000  0.252
    3  0.042  0.025  0.000  0.184  0.000  0.000  0.000  0.000  0.000  0.252
tot    0.109  0.050  0.010  0.378  0.000  0.000  0.002  0.002  0.001  0.552
 
band     4 # energy    4.56966044 # occ.  2.00000000
 
ion      s     py     pz     px    dxy    dyz    dz2    dxz  x2-y2    tot
    1  0.000  0.049  0.000  0.000  0.004  0.018  0.000  0.000  0.000  0.071
    2  0.013  0.005  0.156  0.003  0.000  0.000  0.000  0.000  0.000  0.177
    3  0.013  0.005  0.156  0.003  0.000  0.000  0.000  0.000  0.000  0.177
tot    0.026  0.059  0.313  0.006  0.004  0.018  0.000  0.000  0.000  0.426
 
band     5 # energy    5.82237781 # occ. -0.00000000
 
ion      s     py     pz     px    dxy    dyz    dz2    dxz  x2-y2    tot
    1  0.014  0.000  0.005  0.036  0.000  0.000  0.000  0.013  0.012  0.080
    2  0.008  0.008  0.150  0.005  0.000  0.000  0.000  0.000  0.000  0.171
    3  0.008  0.008  0.150  0.005  0.000  0.000  0.000  0.000  0.000  0.171
tot    0.030  0.016  0.306  0.045  0.000  0.000  0.000  0.013  0.012  0.421
 
band     6 # energy   11.33936825 # occ.  0.00000000
 
ion      s     py     pz     px    dxy    dyz    dz2    dxz  x2-y2    tot
    1  0.267  0.000  0.054  0.009  0.000  0.000  0.000  0.003  0.001  0.334
    2  0.001  0.007  0.006  0.020  0.000  0.000  0.000  0.000  0.000  0.034
    3  0.001  0.007  0.006  0.020  0.000  0.000  0.000  0.000  0.000  0.034
tot    0.268  0.014  0.067  0.048  0.000  0.000  0.000  0.003  0.001  0.401
 
band     7 # energy   14.03078792 # occ.  0.00000000
 
ion      s     py     pz     px    dxy    dyz    dz2    dxz  x2-y2    tot
    1  0.000  0.000  0.005  0.009  0.000  0.000  0.009  0.004  0.028  0.055
    2  0.019  0.036  0.048  0.099  0.000  0.000  0.000  0.000  0.000  0.202
    3  0.019  0.036  0.048  0.099  0.000  0.000  0.000  0.000  0.000  0.202
tot    0.037  0.073  0.101  0.206  0.000  0.000  0.009  0.004  0.028  0.458
 
band     8 # energy   14.07090643 # occ.  0.00000000
 
ion      s     py     pz     px    dxy    dyz    dz2    dxz  x2-y2    tot
    1  0.000  0.080  0.000  0.000  0.014  0.015  0.000  0.000  0.000  0.109
    2  0.008  0.042  0.082  0.030  0.000  0.000  0.000  0.000  0.000  0.163
    3  0.008  0.042  0.082  0.030  0.000  0.000  0.000  0.000  0.000  0.163
tot    0.016  0.165  0.165  0.059  0.014  0.015  0.000  0.000  0.000  0.434
 

 k-point   122 :    0.45833333 0.37500000 0.22222222     weight = 0.00617284

band     1 # energy   -2.93601369 # occ.  2.00000000
 
ion      s     py     pz     px    dxy    dyz    dz2    dxz  x2-y2    tot
    1  0.012  0.018  0.003  0.001  0.000  0.002  0.000  0.000  0.000  0.037
    2  0.196  0.055  0.001  0.008  0.000  0.000  0.000  0.000  0.000  0.260
    3  0.196  0.055  0.001  0.008  0.000  0.000  0.000  0.000  0.000  0.260
tot    0.405  0.127  0.005  0.017  0.000  0.002  0.000  0.000  0.000  0.557
 
band     2 # energy   -1.45042904 # occ.  2.00000000
 
ion      s     py     pz     px    dxy    dyz    dz2    dxz  x2-y2    tot
    1  0.021  0.008  0.006  0.003  0.000  0.001  0.001  0.001  0.002  0.042
    2  0.132  0.122  0.001  0.003  0.000  0.000  0.000  0.000  0.000  0.258
    3  0.132  0.122  0.001  0.003  0.000  0.000  0.000  0.000  0.000  0.258
tot    0.285  0.252  0.008  0.009  0.000  0.001  0.001  0.001  0.002  0.558
 
band     3 # energy    1.70256067 # occ.  2.00000000
 
ion      s     py     pz     px    dxy    dyz    dz2    dxz  x2-y2    tot
    1  0.011  0.000  0.005  0.014  0.000  0.000  0.002  0.003  0.001  0.036
    2  0.040  0.009  0.001  0.227  0.000  0.000  0.000  0.000  0.000  0.276
    3  0.040  0.009  0.001  0.227  0.000  0.000  0.000  0.000  0.000  0.276
tot    0.091  0.018  0.006  0.467  0.000  0.000  0.002  0.003  0.001  0.589
 
band     4 # energy    3.89056018 # occ.  2.00000000
 
ion      s     py     pz     px    dxy    dyz    dz2    dxz  x2-y2    tot
    1  0.009  0.044  0.003  0.001  0.002  0.016  0.000  0.001  0.000  0.076
    2  0.015  0.005  0.153  0.002  0.000  0.000  0.000  0.000  0.000  0.174
    3  0.015  0.005  0.153  0.002  0.000  0.000  0.000  0.000  0.000  0.174
tot    0.039  0.054  0.309  0.004  0.002  0.016  0.000  0.001  0.000  0.425
 
band     5 # energy    6.29091991 # occ. -0.00000000
 
ion      s     py     pz     px    dxy    dyz    dz2    dxz  x2-y2    tot
    1  0.035  0.005  0.013  0.016  0.000  0.002  0.001  0.007  0.016  0.096
    2  0.005  0.011  0.139  0.004  0.000  0.000  0.000  0.000  0.000  0.160
    3  0.005  0.011  0.139  0.004  0.000  0.000  0.000  0.000  0.000  0.160
tot    0.046  0.027  0.292  0.024  0.000  0.002  0.001  0.007  0.016  0.415
 
band     6 # energy   11.97743799 # occ.  0.00000000
 
ion      s     py     pz     px    dxy    dyz    dz2    dxz  x2-y2    tot
    1  0.179  0.002  0.008  0.012  0.000  0.000  0.006  0.004  0.012  0.224
    2  0.040  0.001  0.002  0.075  0.000  0.000  0.000  0.000  0.000  0.118
    3  0.040  0.001  0.002  0.075  0.000  0.000  0.000  0.000  0.000  0.118
tot    0.259  0.005  0.012  0.163  0.000  0.000  0.006  0.004  0.012  0.461
 
band     7 # energy   12.90458003 # occ.  0.00000000
 
ion      s     py     pz     px    dxy    dyz    dz2    dxz  x2-y2    tot
    1  0.065  0.005  0.031  0.012  0.001  0.003  0.010  0.007  0.007  0.140
    2  0.029  0.031  0.058  0.019  0.000  0.000  0.000  0.000  0.000  0.136
    3  0.029  0.031  0.058  0.019  0.000  0.000  0.000  0.000  0.000  0.136
tot    0.123  0.066  0.146  0.049  0.001  0.003  0.010  0.007  0.007  0.411
 
band     8 # energy   13.80079500 # occ.  0.00000000
 
ion      s     py     pz     px    dxy    dyz    dz2    dxz  x2-y2    tot
    1  0.000  0.084  0.014  0.007  0.005  0.013  0.000  0.000  0.001  0.124
    2  0.030  0.031  0.073  0.015  0.000  0.000  0.000  0.000  0.000  0.149
    3  0.030  0.031  0.073  0.015  0.000  0.000  0.000  0.000  0.000  0.149
tot    0.060  0.146  0.161  0.037  0.005  0.013  0.000  0.000  0.001  0.422
 

 k-point   123 :   -0.45833333 0.37500000 0.22222222     weight = 0.00617284

band     1 # energy   -3.73868642 # occ.  2.00000000
 
ion      s     py     pz     px    dxy    dyz    dz2    dxz  x2-y2    tot
    1  0.021  0.014  0.005  0.000  0.000  0.002  0.000  0.000  0.000  0.043
    2  0.196  0.051  0.001  0.002  0.000  0.000  0.000  0.000  0.000  0.250
    3  0.196  0.051  0.001  0.002  0.000  0.000  0.000  0.000  0.000  0.250
tot    0.413  0.117  0.007  0.004  0.000  0.002  0.000  0.000  0.000  0.543
 
band     2 # energy   -0.97249877 # occ.  2.00000000
 
ion      s     py     pz     px    dxy    dyz    dz2    dxz  x2-y2    tot
    1  0.017  0.012  0.005  0.001  0.000  0.002  0.001  0.000  0.002  0.040
    2  0.129  0.130  0.001  0.001  0.000  0.000  0.000  0.000  0.000  0.262
    3  0.129  0.130  0.001  0.001  0.000  0.000  0.000  0.000  0.000  0.262
tot    0.275  0.273  0.007  0.003  0.000  0.002  0.001  0.000  0.002  0.563
 
band     3 # energy    2.91593751 # occ.  2.00000000
 
ion      s     py     pz     px    dxy    dyz    dz2    dxz  x2-y2    tot
    1  0.000  0.003  0.004  0.015  0.000  0.000  0.001  0.004  0.001  0.029
    2  0.014  0.004  0.008  0.266  0.000  0.000  0.000  0.000  0.000  0.292
    3  0.014  0.004  0.008  0.266  0.000  0.000  0.000  0.000  0.000  0.292
tot    0.029  0.011  0.020  0.546  0.000  0.000  0.001  0.004  0.001  0.613
 
band     4 # energy    3.19987801 # occ.  2.00000000
 
ion      s     py     pz     px    dxy    dyz    dz2    dxz  x2-y2    tot
    1  0.025  0.033  0.007  0.000  0.000  0.013  0.000  0.001  0.001  0.081
    2  0.019  0.004  0.139  0.017  0.000  0.000  0.000  0.000  0.000  0.178
    3  0.019  0.004  0.139  0.017  0.000  0.000  0.000  0.000  0.000  0.178
tot    0.063  0.041  0.286  0.034  0.000  0.013  0.000  0.001  0.001  0.438
 
band     5 # energy    6.87563212 # occ. -0.00000000
 
ion      s     py     pz     px    dxy    dyz    dz2    dxz  x2-y2    tot
    1  0.040  0.012  0.018  0.004  0.000  0.005  0.001  0.002  0.020  0.101
    2  0.002  0.014  0.135  0.002  0.000  0.000  0.000  0.000  0.000  0.153
    3  0.002  0.014  0.135  0.002  0.000  0.000  0.000  0.000  0.000  0.153
tot    0.044  0.040  0.287  0.009  0.000  0.005  0.001  0.002  0.020  0.407
 
band     6 # energy   10.95695072 # occ.  0.00000000
 
ion      s     py     pz     px    dxy    dyz    dz2    dxz  x2-y2    tot
    1  0.051  0.007  0.002  0.000  0.000  0.000  0.016  0.000  0.015  0.092
    2  0.111  0.018  0.005  0.035  0.000  0.000  0.000  0.000  0.000  0.169
    3  0.111  0.018  0.005  0.035  0.000  0.000  0.000  0.000  0.000  0.169
tot    0.274  0.042  0.012  0.071  0.000  0.000  0.016  0.000  0.015  0.431
 
band     7 # energy   13.08534435 # occ.  0.00000000
 
ion      s     py     pz     px    dxy    dyz    dz2    dxz  x2-y2    tot
    1  0.094  0.050  0.002  0.001  0.001  0.013  0.006  0.002  0.000  0.169
    2  0.033  0.021  0.092  0.003  0.000  0.000  0.000  0.000  0.000  0.150
    3  0.033  0.021  0.092  0.003  0.000  0.000  0.000  0.000  0.000  0.150
tot    0.160  0.092  0.187  0.007  0.001  0.013  0.006  0.002  0.000  0.469
 
band     8 # energy   14.37084897 # occ.  0.00000000
 
ion      s     py     pz     px    dxy    dyz    dz2    dxz  x2-y2    tot
    1  0.093  0.035  0.036  0.055  0.000  0.000  0.000  0.012  0.000  0.231
    2  0.009  0.019  0.060  0.003  0.000  0.000  0.000  0.000  0.000  0.092
    3  0.009  0.019  0.060  0.003  0.000  0.000  0.000  0.000  0.000  0.092
tot    0.112  0.072  0.156  0.061  0.000  0.000  0.000  0.012  0.000  0.414
 

 k-point   124 :   -0.37500000 0.37500000 0.22222222     weight = 0.00308642

band     1 # energy   -4.35660324 # occ.  2.00000000
 
ion      s     py     pz     px    dxy    dyz    dz2    dxz  x2-y2    tot
    1  0.027  0.011  0.006  0.000  0.000  0.001  0.000  0.000  0.000  0.046
    2  0.200  0.044  0.001  0.000  0.000  0.000  0.000  0.000  0.000  0.245
    3  0.200  0.044  0.001  0.000  0.000  0.000  0.000  0.000  0.000  0.245
tot    0.426  0.098  0.008  0.000  0.000  0.001  0.000  0.000  0.000  0.535
 
band     2 # energy   -0.27530532 # occ.  2.00000000
 
ion      s     py     pz     px    dxy    dyz    dz2    dxz  x2-y2    tot
    1  0.013  0.014  0.005  0.000  0.000  0.002  0.001  0.000  0.003  0.037
    2  0.121  0.145  0.001  0.000  0.000  0.000  0.000  0.000  0.000  0.267
    3  0.121  0.145  0.001  0.000  0.000  0.000  0.000  0.000  0.000  0.267
tot    0.255  0.303  0.007  0.000  0.000  0.002  0.001  0.000  0.003  0.571
 
band     3 # energy    2.60538052 # occ.  2.00000000
 
ion      s     py     pz     px    dxy    dyz    dz2    dxz  x2-y2    tot
    1  0.035  0.028  0.015  0.000  0.000  0.011  0.001  0.000  0.001  0.091
    2  0.018  0.004  0.142  0.000  0.000  0.000  0.000  0.000  0.000  0.164
    3  0.018  0.004  0.142  0.000  0.000  0.000  0.000  0.000  0.000  0.164
tot    0.071  0.037  0.299  0.000  0.000  0.011  0.001  0.000  0.001  0.419
 
band     4 # energy    3.58366129 # occ.  2.00000000
 
ion      s     py     pz     px    dxy    dyz    dz2    dxz  x2-y2    tot
    1  0.000  0.000  0.000  0.014  0.001  0.000  0.000  0.006  0.000  0.020
    2  0.000  0.000  0.000  0.318  0.000  0.000  0.000  0.000  0.000  0.318
    3  0.000  0.000  0.000  0.318  0.000  0.000  0.000  0.000  0.000  0.318
tot    0.000  0.000  0.000  0.650  0.001  0.000  0.000  0.006  0.000  0.656
 
band     5 # energy    7.58700694 # occ. -0.00000000
 
ion      s     py     pz     px    dxy    dyz    dz2    dxz  x2-y2    tot
    1  0.031  0.015  0.016  0.000  0.000  0.008  0.001  0.000  0.025  0.096
    2  0.001  0.016  0.136  0.000  0.000  0.000  0.000  0.000  0.000  0.153
    3  0.001  0.016  0.136  0.000  0.000  0.000  0.000  0.000  0.000  0.153
tot    0.032  0.048  0.288  0.000  0.000  0.008  0.001  0.000  0.025  0.403
 
band     6 # energy   10.46947411 # occ.  0.00000000
 
ion      s     py     pz     px    dxy    dyz    dz2    dxz  x2-y2    tot
    1  0.044  0.014  0.002  0.000  0.000  0.001  0.018  0.000  0.011  0.090
    2  0.124  0.027  0.009  0.000  0.000  0.000  0.000  0.000  0.000  0.160
    3  0.124  0.027  0.009  0.000  0.000  0.000  0.000  0.000  0.000  0.160
tot    0.292  0.068  0.020  0.000  0.000  0.001  0.018  0.000  0.011  0.410
 
band     7 # energy   12.68566421 # occ.  0.00000000
 
ion      s     py     pz     px    dxy    dyz    dz2    dxz  x2-y2    tot
    1  0.093  0.043  0.012  0.000  0.000  0.009  0.010  0.000  0.000  0.167
    2  0.051  0.013  0.088  0.000  0.000  0.000  0.000  0.000  0.000  0.152
    3  0.051  0.013  0.088  0.000  0.000  0.000  0.000  0.000  0.000  0.152
tot    0.195  0.068  0.189  0.000  0.000  0.009  0.010  0.000  0.000  0.471
 
band     8 # energy   15.75798450 # occ.  0.00000000
 
ion      s     py     pz     px    dxy    dyz    dz2    dxz  x2-y2    tot
    1  0.134  0.052  0.004  0.000  0.000  0.001  0.000  0.000  0.003  0.194
    2  0.001  0.060  0.137  0.000  0.000  0.000  0.000  0.000  0.000  0.197
    3  0.001  0.060  0.137  0.000  0.000  0.000  0.000  0.000  0.000  0.197
tot    0.135  0.171  0.278  0.000  0.000  0.001  0.000  0.000  0.003  0.588
 

 k-point   125 :    0.45833333 0.45833333 0.22222222     weight = 0.00308642

band     1 # energy   -2.79284624 # occ.  2.00000000
 
ion      s     py     pz     px    dxy    dyz    dz2    dxz  x2-y2    tot
    1  0.000  0.026  0.000  0.000  0.000  0.004  0.000  0.000  0.000  0.030
    2  0.224  0.041  0.001  0.003  0.000  0.000  0.000  0.000  0.000  0.269
    3  0.224  0.041  0.001  0.003  0.000  0.000  0.000  0.000  0.000  0.269
tot    0.447  0.109  0.003  0.005  0.000  0.004  0.000  0.000  0.000  0.568
 
band     2 # energy   -2.10332721 # occ.  2.00000000
 
ion      s     py     pz     px    dxy    dyz    dz2    dxz  x2-y2    tot
    1  0.038  0.000  0.010  0.001  0.000  0.000  0.001  0.000  0.002  0.053
    2  0.105  0.135  0.001  0.000  0.000  0.000  0.000  0.000  0.000  0.241
    3  0.105  0.135  0.001  0.000  0.000  0.000  0.000  0.000  0.000  0.241
tot    0.248  0.271  0.011  0.001  0.000  0.000  0.001  0.000  0.002  0.536
 
band     3 # energy    2.81233729 # occ.  2.00000000
 
ion      s     py     pz     px    dxy    dyz    dz2    dxz  x2-y2    tot
    1  0.003  0.000  0.002  0.015  0.000  0.000  0.001  0.005  0.001  0.026
    2  0.017  0.003  0.000  0.282  0.000  0.000  0.000  0.000  0.000  0.301
    3  0.017  0.003  0.000  0.282  0.000  0.000  0.000  0.000  0.000  0.301
tot    0.037  0.005  0.003  0.578  0.000  0.000  0.001  0.005  0.001  0.629
 
band     4 # energy    3.80122123 # occ.  2.00000000
 
ion      s     py     pz     px    dxy    dyz    dz2    dxz  x2-y2    tot
    1  0.000  0.052  0.000  0.000  0.000  0.019  0.000  0.000  0.000  0.071
    2  0.016  0.005  0.157  0.000  0.000  0.000  0.000  0.000  0.000  0.178
    3  0.016  0.005  0.157  0.000  0.000  0.000  0.000  0.000  0.000  0.178
tot    0.032  0.062  0.313  0.001  0.000  0.019  0.000  0.000  0.000  0.427
 
band     5 # energy    6.07267689 # occ. -0.00000000
 
ion      s     py     pz     px    dxy    dyz    dz2    dxz  x2-y2    tot
    1  0.064  0.000  0.027  0.004  0.000  0.000  0.001  0.002  0.019  0.117
    2  0.002  0.014  0.123  0.003  0.000  0.000  0.000  0.000  0.000  0.141
    3  0.002  0.014  0.123  0.003  0.000  0.000  0.000  0.000  0.000  0.141
tot    0.068  0.027  0.273  0.009  0.000  0.000  0.001  0.002  0.019  0.400
 
band     6 # energy   10.87998138 # occ.  0.00000000
 
ion      s     py     pz     px    dxy    dyz    dz2    dxz  x2-y2    tot
    1  0.062  0.000  0.002  0.000  0.000  0.000  0.014  0.000  0.018  0.096
    2  0.120  0.011  0.003  0.036  0.000  0.000  0.000  0.000  0.000  0.170
    3  0.120  0.011  0.003  0.036  0.000  0.000  0.000  0.000  0.000  0.170
tot    0.302  0.022  0.008  0.072  0.000  0.000  0.014  0.000  0.018  0.436
 
band     7 # energy   13.66619170 # occ.  0.00000000
 
ion      s     py     pz     px    dxy    dyz    dz2    dxz  x2-y2    tot
    1  0.000  0.104  0.000  0.000  0.002  0.018  0.000  0.000  0.000  0.123
    2  0.025  0.035  0.085  0.003  0.000  0.000  0.000  0.000  0.000  0.148
    3  0.025  0.035  0.085  0.003  0.000  0.000  0.000  0.000  0.000  0.148
tot    0.050  0.174  0.170  0.007  0.002  0.018  0.000  0.000  0.000  0.420
 
band     8 # energy   13.97632571 # occ.  0.00000000
 
ion      s     py     pz     px    dxy    dyz    dz2    dxz  x2-y2    tot
    1  0.179  0.000  0.018  0.041  0.000  0.000  0.002  0.014  0.000  0.253
    2  0.000  0.021  0.087  0.002  0.000  0.000  0.000  0.000  0.000  0.110
    3  0.000  0.021  0.087  0.002  0.000  0.000  0.000  0.000  0.000  0.110
tot    0.179  0.042  0.191  0.046  0.000  0.000  0.002  0.014  0.000  0.474
 

 k-point   126 :   -0.45833333 0.45833333 0.22222222     weight = 0.00308642

band     1 # energy   -3.26134089 # occ.  2.00000000
 
ion      s     py     pz     px    dxy    dyz    dz2    dxz  x2-y2    tot
    1  0.014  0.018  0.003  0.000  0.000  0.002  0.000  0.000  0.000  0.039
    2  0.200  0.055  0.001  0.000  0.000  0.000  0.000  0.000  0.000  0.257
    3  0.200  0.055  0.001  0.000  0.000  0.000  0.000  0.000  0.000  0.257
tot    0.415  0.128  0.006  0.000  0.000  0.002  0.000  0.000  0.000  0.552
 
band     2 # energy   -1.74660476 # occ.  2.00000000
 
ion      s     py     pz     px    dxy    dyz    dz2    dxz  x2-y2    tot
    1  0.026  0.008  0.007  0.000  0.000  0.001  0.001  0.000  0.002  0.046
    2  0.128  0.123  0.001  0.000  0.000  0.000  0.000  0.000  0.000  0.252
    3  0.128  0.123  0.001  0.000  0.000  0.000  0.000  0.000  0.000  0.252
tot    0.281  0.255  0.009  0.000  0.000  0.001  0.001  0.000  0.002  0.549
 
band     3 # energy    3.35542162 # occ.  2.00000000
 
ion      s     py     pz     px    dxy    dyz    dz2    dxz  x2-y2    tot
    1  0.000  0.000  0.000  0.015  0.000  0.000  0.000  0.006  0.000  0.021
    2  0.000  0.000  0.000  0.317  0.000  0.000  0.000  0.000  0.000  0.317
    3  0.000  0.000  0.000  0.317  0.000  0.000  0.000  0.000  0.000  0.317
tot    0.000  0.000  0.000  0.649  0.000  0.000  0.000  0.006  0.000  0.655
 
band     4 # energy    3.51581573 # occ.  2.00000000
 
ion      s     py     pz     px    dxy    dyz    dz2    dxz  x2-y2    tot
    1  0.009  0.046  0.004  0.000  0.000  0.017  0.000  0.000  0.001  0.076
    2  0.016  0.005  0.153  0.000  0.000  0.000  0.000  0.000  0.000  0.174
    3  0.016  0.005  0.153  0.000  0.000  0.000  0.000  0.000  0.000  0.174
tot    0.041  0.056  0.309  0.000  0.000  0.017  0.000  0.000  0.001  0.424
 
band     5 # energy    6.28664767 # occ. -0.00000000
 
ion      s     py     pz     px    dxy    dyz    dz2    dxz  x2-y2    tot
    1  0.058  0.005  0.028  0.000  0.000  0.002  0.002  0.000  0.021  0.116
    2  0.001  0.015  0.123  0.000  0.000  0.000  0.000  0.000  0.000  0.139
    3  0.001  0.015  0.123  0.000  0.000  0.000  0.000  0.000  0.000  0.139
tot    0.061  0.035  0.273  0.000  0.000  0.002  0.002  0.000  0.021  0.394
 
band     6 # energy   10.30890152 # occ.  0.00000000
 
ion      s     py     pz     px    dxy    dyz    dz2    dxz  x2-y2    tot
    1  0.058  0.001  0.004  0.000  0.000  0.000  0.015  0.000  0.016  0.094
    2  0.143  0.014  0.004  0.000  0.000  0.000  0.000  0.000  0.000  0.161
    3  0.143  0.014  0.004  0.000  0.000  0.000  0.000  0.000  0.000  0.161
tot    0.344  0.029  0.012  0.000  0.000  0.000  0.015  0.000  0.016  0.416
 
band     7 # energy   13.43921365 # occ.  0.00000000
 
ion      s     py     pz     px    dxy    dyz    dz2    dxz  x2-y2    tot
    1  0.029  0.088  0.002  0.000  0.000  0.016  0.003  0.000  0.000  0.139
    2  0.031  0.030  0.088  0.000  0.000  0.000  0.000  0.000  0.000  0.149
    3  0.031  0.030  0.088  0.000  0.000  0.000  0.000  0.000  0.000  0.149
tot    0.091  0.148  0.179  0.000  0.000  0.016  0.003  0.000  0.000  0.437
 
band     8 # energy   15.03127819 # occ.  0.00000000
 
ion      s     py     pz     px    dxy    dyz    dz2    dxz  x2-y2    tot
    1  0.193  0.017  0.000  0.000  0.000  0.001  0.004  0.000  0.003  0.218
    2  0.004  0.046  0.143  0.000  0.000  0.000  0.000  0.000  0.000  0.193
    3  0.004  0.046  0.143  0.000  0.000  0.000  0.000  0.000  0.000  0.193
tot    0.200  0.110  0.286  0.000  0.000  0.001  0.004  0.000  0.003  0.604
 

 k-point   127 :    0.04166667 0.04166667 0.33333333     weight = 0.00308642

band     1 # energy   -6.20681743 # occ.  2.00000000
 
ion      s     py     pz     px    dxy    dyz    dz2    dxz  x2-y2    tot
    1  0.027  0.000  0.017  0.000  0.000  0.000  0.000  0.000  0.000  0.045
    2  0.236  0.000  0.002  0.002  0.000  0.000  0.000  0.000  0.000  0.240
    3  0.236  0.000  0.002  0.002  0.000  0.000  0.000  0.000  0.000  0.240
tot    0.500  0.000  0.021  0.004  0.000  0.000  0.000  0.000  0.000  0.526
 
band     2 # energy   -1.06532928 # occ.  2.00000000
 
ion      s     py     pz     px    dxy    dyz    dz2    dxz  x2-y2    tot
    1  0.103  0.000  0.015  0.002  0.000  0.000  0.002  0.000  0.000  0.122
    2  0.019  0.000  0.114  0.000  0.000  0.000  0.000  0.000  0.000  0.133
    3  0.019  0.000  0.114  0.000  0.000  0.000  0.000  0.000  0.000  0.133
tot    0.140  0.000  0.243  0.002  0.000  0.000  0.002  0.000  0.000  0.387
 
band     3 # energy    5.62681771 # occ. -0.00146886
 
ion      s     py     pz     px    dxy    dyz    dz2    dxz  x2-y2    tot
    1  0.000  0.001  0.000  0.000  0.003  0.002  0.000  0.000  0.000  0.006
    2  0.015  0.009  0.000  0.322  0.000  0.000  0.000  0.000  0.000  0.346
    3  0.015  0.009  0.000  0.322  0.000  0.000  0.000  0.000  0.000  0.346
tot    0.030  0.019  0.000  0.644  0.003  0.002  0.000  0.000  0.000  0.698
 
band     4 # energy    5.81567976 # occ. -0.00000000
 
ion      s     py     pz     px    dxy    dyz    dz2    dxz  x2-y2    tot
    1  0.000  0.000  0.000  0.001  0.000  0.000  0.000  0.002  0.003  0.006
    2  0.000  0.337  0.000  0.010  0.000  0.000  0.000  0.000  0.000  0.347
    3  0.000  0.337  0.000  0.010  0.000  0.000  0.000  0.000  0.000  0.347
tot    0.000  0.674  0.000  0.021  0.000  0.000  0.000  0.002  0.003  0.701
 
band     5 # energy   11.98018885 # occ.  0.00000000
 
ion      s     py     pz     px    dxy    dyz    dz2    dxz  x2-y2    tot
    1  0.000  0.000  0.001  0.020  0.000  0.000  0.008  0.034  0.001  0.065
    2  0.003  0.016  0.007  0.157  0.000  0.000  0.000  0.000  0.000  0.183
    3  0.003  0.016  0.007  0.157  0.000  0.000  0.000  0.000  0.000  0.183
tot    0.005  0.033  0.016  0.334  0.000  0.000  0.008  0.034  0.001  0.431
 
band     6 # energy   12.39609963 # occ.  0.00000000
 
ion      s     py     pz     px    dxy    dyz    dz2    dxz  x2-y2    tot
    1  0.000  0.018  0.000  0.000  0.002  0.039  0.000  0.000  0.000  0.059
    2  0.007  0.180  0.004  0.009  0.000  0.000  0.000  0.000  0.000  0.200
    3  0.007  0.180  0.004  0.009  0.000  0.000  0.000  0.000  0.000  0.200
tot    0.013  0.377  0.009  0.019  0.002  0.039  0.000  0.000  0.000  0.458
 
band     7 # energy   12.95168390 # occ.  0.00000000
 
ion      s     py     pz     px    dxy    dyz    dz2    dxz  x2-y2    tot
    1  0.084  0.000  0.023  0.000  0.000  0.000  0.047  0.001  0.000  0.156
    2  0.028  0.001  0.122  0.008  0.000  0.000  0.000  0.000  0.000  0.160
    3  0.028  0.001  0.122  0.008  0.000  0.000  0.000  0.000  0.000  0.160
tot    0.141  0.002  0.268  0.017  0.000  0.000  0.047  0.001  0.000  0.476
 
band     8 # energy   13.01205711 # occ.  0.00000000
 
ion      s     py     pz     px    dxy    dyz    dz2    dxz  x2-y2    tot
    1  0.000  0.004  0.000  0.000  0.019  0.000  0.000  0.000  0.000  0.023
    2  0.019  0.004  0.212  0.010  0.000  0.000  0.000  0.000  0.000  0.246
    3  0.019  0.004  0.212  0.010  0.000  0.000  0.000  0.000  0.000  0.246
tot    0.039  0.013  0.425  0.020  0.019  0.000  0.000  0.000  0.000  0.515
 

 k-point   128 :    0.12500000 0.04166667 0.33333333     weight = 0.00617284

band     1 # energy   -5.91757473 # occ.  2.00000000
 
ion      s     py     pz     px    dxy    dyz    dz2    dxz  x2-y2    tot
    1  0.026  0.000  0.016  0.001  0.000  0.000  0.000  0.000  0.000  0.044
    2  0.233  0.001  0.002  0.007  0.000  0.000  0.000  0.000  0.000  0.243
    3  0.233  0.001  0.002  0.007  0.000  0.000  0.000  0.000  0.000  0.243
tot    0.491  0.001  0.020  0.016  0.000  0.000  0.000  0.000  0.000  0.529
 
band     2 # energy   -0.73382011 # occ.  2.00000000
 
ion      s     py     pz     px    dxy    dyz    dz2    dxz  x2-y2    tot
    1  0.097  0.001  0.014  0.006  0.000  0.000  0.002  0.001  0.000  0.120
    2  0.018  0.000  0.115  0.001  0.000  0.000  0.000  0.000  0.000  0.133
    3  0.018  0.000  0.115  0.001  0.000  0.000  0.000  0.000  0.000  0.133
tot    0.132  0.001  0.244  0.008  0.000  0.000  0.002  0.001  0.000  0.387
 
band     3 # energy    4.46376203 # occ.  2.00000000
 
ion      s     py     pz     px    dxy    dyz    dz2    dxz  x2-y2    tot
    1  0.000  0.002  0.001  0.001  0.003  0.003  0.000  0.002  0.000  0.012
    2  0.048  0.049  0.000  0.230  0.000  0.000  0.000  0.000  0.000  0.328
    3  0.048  0.049  0.000  0.230  0.000  0.000  0.000  0.000  0.000  0.328
tot    0.096  0.100  0.001  0.462  0.003  0.003  0.000  0.002  0.000  0.667
 
band     4 # energy    5.18068237 # occ.  2.02432926
 
ion      s     py     pz     px    dxy    dyz    dz2    dxz  x2-y2    tot
    1  0.000  0.001  0.000  0.002  0.000  0.002  0.000  0.004  0.002  0.012
    2  0.002  0.271  0.000  0.061  0.000  0.000  0.000  0.000  0.000  0.334
    3  0.002  0.271  0.000  0.061  0.000  0.000  0.000  0.000  0.000  0.334
tot    0.004  0.543  0.001  0.124  0.000  0.002  0.000  0.004  0.002  0.679
 
band     5 # energy   11.46847645 # occ.  0.00000000
 
ion      s     py     pz     px    dxy    dyz    dz2    dxz  x2-y2    tot
    1  0.001  0.003  0.002  0.000  0.035  0.004  0.002  0.005  0.004  0.055
    2  0.012  0.009  0.152  0.018  0.000  0.000  0.000  0.000  0.000  0.191
    3  0.012  0.009  0.152  0.018  0.000  0.000  0.000  0.000  0.000  0.191
tot    0.025  0.022  0.305  0.035  0.035  0.004  0.002  0.005  0.004  0.437
 
band     6 # energy   11.94736823 # occ.  0.00000000
 
ion      s     py     pz     px    dxy    dyz    dz2    dxz  x2-y2    tot
    1  0.002  0.007  0.005  0.021  0.004  0.001  0.012  0.015  0.000  0.067
    2  0.019  0.039  0.041  0.084  0.000  0.000  0.000  0.000  0.000  0.182
    3  0.019  0.039  0.041  0.084  0.000  0.000  0.000  0.000  0.000  0.182
tot    0.040  0.084  0.087  0.188  0.004  0.001  0.012  0.015  0.000  0.430
 
band     7 # energy   13.29129081 # occ.  0.00000000
 
ion      s     py     pz     px    dxy    dyz    dz2    dxz  x2-y2    tot
    1  0.094  0.001  0.025  0.001  0.000  0.002  0.035  0.000  0.000  0.159
    2  0.040  0.013  0.117  0.002  0.000  0.000  0.000  0.000  0.000  0.172
    3  0.040  0.013  0.117  0.002  0.000  0.000  0.000  0.000  0.000  0.172
tot    0.174  0.027  0.260  0.004  0.000  0.002  0.035  0.000  0.000  0.503
 
band     8 # energy   13.51466052 # occ.  0.00000000
 
ion      s     py     pz     px    dxy    dyz    dz2    dxz  x2-y2    tot
    1  0.007  0.019  0.003  0.001  0.000  0.026  0.002  0.004  0.001  0.064
    2  0.017  0.154  0.010  0.034  0.000  0.000  0.000  0.000  0.000  0.213
    3  0.017  0.154  0.010  0.034  0.000  0.000  0.000  0.000  0.000  0.213
tot    0.041  0.326  0.022  0.069  0.000  0.026  0.002  0.004  0.001  0.491
 

 k-point   129 :    0.20833333 0.04166667 0.33333333     weight = 0.00617284

band     1 # energy   -5.40031061 # occ.  2.00000000
 
ion      s     py     pz     px    dxy    dyz    dz2    dxz  x2-y2    tot
    1  0.022  0.000  0.015  0.002  0.000  0.000  0.000  0.001  0.000  0.042
    2  0.226  0.002  0.002  0.016  0.000  0.000  0.000  0.000  0.000  0.247
    3  0.226  0.002  0.002  0.016  0.000  0.000  0.000  0.000  0.000  0.247
tot    0.475  0.005  0.019  0.035  0.000  0.000  0.000  0.001  0.000  0.536
 
band     2 # energy   -0.14686456 # occ.  2.00000000
 
ion      s     py     pz     px    dxy    dyz    dz2    dxz  x2-y2    tot
    1  0.085  0.002  0.013  0.014  0.000  0.000  0.001  0.001  0.000  0.118
    2  0.015  0.000  0.116  0.002  0.000  0.000  0.000  0.000  0.000  0.134
    3  0.015  0.000  0.116  0.002  0.000  0.000  0.000  0.000  0.000  0.134
tot    0.116  0.003  0.245  0.018  0.000  0.000  0.001  0.001  0.000  0.385
 
band     3 # energy    2.88448166 # occ.  2.00000000
 
ion      s     py     pz     px    dxy    dyz    dz2    dxz  x2-y2    tot
    1  0.003  0.002  0.003  0.003  0.002  0.003  0.000  0.004  0.000  0.019
    2  0.082  0.056  0.000  0.170  0.000  0.000  0.000  0.000  0.000  0.308
    3  0.082  0.056  0.000  0.170  0.000  0.000  0.000  0.000  0.000  0.308
tot    0.166  0.114  0.004  0.343  0.002  0.003  0.000  0.004  0.000  0.635
 
band     4 # energy    4.46957598 # occ.  2.00000000
 
ion      s     py     pz     px    dxy    dyz    dz2    dxz  x2-y2    tot
    1  0.000  0.003  0.001  0.002  0.000  0.004  0.000  0.004  0.001  0.015
    2  0.003  0.241  0.000  0.081  0.000  0.000  0.000  0.000  0.000  0.325
    3  0.003  0.241  0.000  0.081  0.000  0.000  0.000  0.000  0.000  0.325
tot    0.007  0.485  0.001  0.164  0.000  0.004  0.000  0.004  0.001  0.666
 
band     5 # energy    9.67621797 # occ.  0.00000000
 
ion      s     py     pz     px    dxy    dyz    dz2    dxz  x2-y2    tot
    1  0.009  0.012  0.002  0.010  0.036  0.002  0.000  0.002  0.006  0.080
    2  0.001  0.003  0.152  0.008  0.000  0.000  0.000  0.000  0.000  0.164
    3  0.001  0.003  0.152  0.008  0.000  0.000  0.000  0.000  0.000  0.164
tot    0.011  0.017  0.306  0.027  0.036  0.002  0.000  0.002  0.006  0.408
 
band     6 # energy   11.62569924 # occ.  0.00000000
 
ion      s     py     pz     px    dxy    dyz    dz2    dxz  x2-y2    tot
    1  0.013  0.005  0.013  0.015  0.000  0.003  0.012  0.008  0.001  0.071
    2  0.079  0.042  0.007  0.049  0.000  0.000  0.000  0.000  0.000  0.177
    3  0.079  0.042  0.007  0.049  0.000  0.000  0.000  0.000  0.000  0.177
tot    0.172  0.089  0.027  0.114  0.000  0.003  0.012  0.008  0.001  0.425
 
band     7 # energy   13.74493209 # occ.  0.00000000
 
ion      s     py     pz     px    dxy    dyz    dz2    dxz  x2-y2    tot
    1  0.117  0.001  0.020  0.003  0.000  0.000  0.029  0.003  0.000  0.174
    2  0.037  0.000  0.135  0.001  0.000  0.000  0.000  0.000  0.000  0.173
    3  0.037  0.000  0.135  0.001  0.000  0.000  0.000  0.000  0.000  0.173
tot    0.190  0.002  0.290  0.005  0.000  0.000  0.029  0.003  0.000  0.520
 
band     8 # energy   15.12442245 # occ.  0.00000000
 
ion      s     py     pz     px    dxy    dyz    dz2    dxz  x2-y2    tot
    1  0.008  0.025  0.000  0.017  0.000  0.017  0.000  0.003  0.000  0.070
    2  0.024  0.172  0.004  0.023  0.000  0.000  0.000  0.000  0.000  0.223
    3  0.024  0.172  0.004  0.023  0.000  0.000  0.000  0.000  0.000  0.223
tot    0.056  0.368  0.008  0.063  0.000  0.017  0.000  0.003  0.000  0.517
 

 k-point   130 :    0.29166667 0.04166667 0.33333333     weight = 0.00617284

band     1 # energy   -4.66050345 # occ.  2.00000000
 
ion      s     py     pz     px    dxy    dyz    dz2    dxz  x2-y2    tot
    1  0.018  0.001  0.014  0.004  0.000  0.000  0.000  0.002  0.000  0.039
    2  0.217  0.005  0.002  0.028  0.000  0.000  0.000  0.000  0.000  0.253
    3  0.217  0.005  0.002  0.028  0.000  0.000  0.000  0.000  0.000  0.253
tot    0.453  0.011  0.017  0.061  0.000  0.000  0.000  0.002  0.000  0.545
 
band     2 # energy    0.66610264 # occ.  2.00000000
 
ion      s     py     pz     px    dxy    dyz    dz2    dxz  x2-y2    tot
    1  0.062  0.006  0.013  0.027  0.000  0.000  0.001  0.002  0.000  0.111
    2  0.012  0.002  0.117  0.007  0.000  0.000  0.000  0.000  0.000  0.137
    3  0.012  0.002  0.117  0.007  0.000  0.000  0.000  0.000  0.000  0.137
tot    0.086  0.010  0.246  0.041  0.000  0.000  0.001  0.002  0.000  0.385
 
band     3 # energy    1.23306652 # occ.  2.00000000
 
ion      s     py     pz     px    dxy    dyz    dz2    dxz  x2-y2    tot
    1  0.012  0.001  0.004  0.001  0.002  0.003  0.000  0.005  0.000  0.028
    2  0.112  0.048  0.003  0.127  0.000  0.000  0.000  0.000  0.000  0.290
    3  0.112  0.048  0.003  0.127  0.000  0.000  0.000  0.000  0.000  0.290
tot    0.235  0.097  0.010  0.255  0.002  0.003  0.000  0.005  0.000  0.607
 
band     4 # energy    3.87739396 # occ.  2.00000000
 
ion      s     py     pz     px    dxy    dyz    dz2    dxz  x2-y2    tot
    1  0.001  0.004  0.001  0.002  0.000  0.006  0.000  0.004  0.000  0.017
    2  0.004  0.233  0.000  0.084  0.000  0.000  0.000  0.000  0.000  0.321
    3  0.004  0.233  0.000  0.084  0.000  0.000  0.000  0.000  0.000  0.321
tot    0.009  0.470  0.001  0.169  0.000  0.006  0.000  0.004  0.000  0.660
 
band     5 # energy    7.81551000 # occ. -0.00000000
 
ion      s     py     pz     px    dxy    dyz    dz2    dxz  x2-y2    tot
    1  0.028  0.014  0.005  0.016  0.028  0.002  0.000  0.002  0.006  0.100
    2  0.001  0.002  0.134  0.007  0.000  0.000  0.000  0.000  0.000  0.144
    3  0.001  0.002  0.134  0.007  0.000  0.000  0.000  0.000  0.000  0.144
tot    0.029  0.019  0.273  0.031  0.028  0.002  0.000  0.002  0.006  0.389
 
band     6 # energy   11.29176367 # occ.  0.00000000
 
ion      s     py     pz     px    dxy    dyz    dz2    dxz  x2-y2    tot
    1  0.028  0.003  0.018  0.009  0.003  0.002  0.010  0.003  0.001  0.077
    2  0.121  0.030  0.002  0.023  0.000  0.000  0.000  0.000  0.000  0.177
    3  0.121  0.030  0.002  0.023  0.000  0.000  0.000  0.000  0.000  0.177
tot    0.271  0.063  0.021  0.056  0.003  0.002  0.010  0.003  0.001  0.430
 
band     7 # energy   14.21666642 # occ.  0.00000000
 
ion      s     py     pz     px    dxy    dyz    dz2    dxz  x2-y2    tot
    1  0.161  0.018  0.002  0.000  0.002  0.000  0.012  0.011  0.001  0.208
    2  0.015  0.000  0.135  0.008  0.000  0.000  0.000  0.000  0.000  0.159
    3  0.015  0.000  0.135  0.008  0.000  0.000  0.000  0.000  0.000  0.159
tot    0.192  0.018  0.271  0.017  0.002  0.000  0.012  0.011  0.001  0.526
 
band     8 # energy   15.03929628 # occ.  0.00000000
 
ion      s     py     pz     px    dxy    dyz    dz2    dxz  x2-y2    tot
    1  0.011  0.030  0.032  0.127  0.006  0.003  0.015  0.001  0.005  0.230
    2  0.018  0.006  0.030  0.000  0.000  0.000  0.000  0.000  0.000  0.054
    3  0.018  0.006  0.030  0.000  0.000  0.000  0.000  0.000  0.000  0.054
tot    0.046  0.041  0.092  0.127  0.006  0.003  0.015  0.001  0.005  0.337
 

 k-point   131 :    0.37500000 0.04166667 0.33333333     weight = 0.00617284

band     1 # energy   -3.71208311 # occ.  2.00000000
 
ion      s     py     pz     px    dxy    dyz    dz2    dxz  x2-y2    tot
    1  0.013  0.001  0.011  0.006  0.000  0.001  0.000  0.003  0.000  0.036
    2  0.208  0.009  0.001  0.042  0.000  0.000  0.000  0.000  0.000  0.261
    3  0.208  0.009  0.001  0.042  0.000  0.000  0.000  0.000  0.000  0.261
tot    0.429  0.019  0.014  0.091  0.000  0.001  0.000  0.003  0.000  0.558
 
band     2 # energy   -0.36684930 # occ.  2.00000000
 
ion      s     py     pz     px    dxy    dyz    dz2    dxz  x2-y2    tot
    1  0.007  0.003  0.011  0.005  0.001  0.002  0.001  0.003  0.000  0.031
    2  0.130  0.042  0.001  0.104  0.000  0.000  0.000  0.000  0.000  0.276
    3  0.130  0.042  0.001  0.104  0.000  0.000  0.000  0.000  0.000  0.276
tot    0.266  0.086  0.013  0.212  0.001  0.002  0.001  0.003  0.000  0.583
 
band     3 # energy    1.68605279 # occ.  2.00000000
 
ion      s     py     pz     px    dxy    dyz    dz2    dxz  x2-y2    tot
    1  0.045  0.008  0.006  0.038  0.001  0.001  0.000  0.004  0.001  0.104
    2  0.014  0.000  0.124  0.003  0.000  0.000  0.000  0.000  0.000  0.142
    3  0.014  0.000  0.124  0.003  0.000  0.000  0.000  0.000  0.000  0.142
tot    0.073  0.009  0.255  0.044  0.001  0.001  0.000  0.004  0.001  0.388
 
band     4 # energy    3.47887557 # occ.  2.00000000
 
ion      s     py     pz     px    dxy    dyz    dz2    dxz  x2-y2    tot
    1  0.000  0.005  0.001  0.002  0.000  0.007  0.000  0.003  0.000  0.019
    2  0.005  0.233  0.000  0.082  0.000  0.000  0.000  0.000  0.000  0.319
    3  0.005  0.233  0.000  0.082  0.000  0.000  0.000  0.000  0.000  0.319
tot    0.010  0.470  0.001  0.165  0.000  0.007  0.000  0.003  0.000  0.657
 
band     5 # energy    6.11369304 # occ. -0.00000000
 
ion      s     py     pz     px    dxy    dyz    dz2    dxz  x2-y2    tot
    1  0.057  0.012  0.008  0.013  0.020  0.002  0.000  0.001  0.005  0.119
    2  0.002  0.002  0.120  0.007  0.000  0.000  0.000  0.000  0.000  0.131
    3  0.002  0.002  0.120  0.007  0.000  0.000  0.000  0.000  0.000  0.131
tot    0.060  0.016  0.248  0.027  0.020  0.002  0.000  0.001  0.005  0.380
 
band     6 # energy   11.03718566 # occ.  0.00000000
 
ion      s     py     pz     px    dxy    dyz    dz2    dxz  x2-y2    tot
    1  0.040  0.001  0.020  0.003  0.006  0.001  0.009  0.001  0.002  0.082
    2  0.144  0.020  0.000  0.011  0.000  0.000  0.000  0.000  0.000  0.175
    3  0.144  0.020  0.000  0.011  0.000  0.000  0.000  0.000  0.000  0.175
tot    0.329  0.040  0.021  0.026  0.006  0.001  0.009  0.001  0.002  0.433
 
band     7 # energy   14.17623495 # occ.  0.00000000
 
ion      s     py     pz     px    dxy    dyz    dz2    dxz  x2-y2    tot
    1  0.155  0.056  0.010  0.028  0.006  0.001  0.000  0.008  0.000  0.265
    2  0.003  0.002  0.073  0.007  0.000  0.000  0.000  0.000  0.000  0.083
    3  0.003  0.002  0.073  0.007  0.000  0.000  0.000  0.000  0.000  0.083
tot    0.161  0.059  0.155  0.042  0.006  0.001  0.000  0.008  0.000  0.432
 
band     8 # energy   15.32445680 # occ.  0.00000000
 
ion      s     py     pz     px    dxy    dyz    dz2    dxz  x2-y2    tot
    1  0.020  0.005  0.016  0.097  0.001  0.007  0.012  0.005  0.000  0.163
    2  0.020  0.007  0.104  0.009  0.000  0.000  0.000  0.000  0.000  0.140
    3  0.020  0.007  0.104  0.009  0.000  0.000  0.000  0.000  0.000  0.140
tot    0.060  0.018  0.223  0.116  0.001  0.007  0.012  0.005  0.000  0.443
 

 k-point   132 :    0.45833333 0.04166667 0.33333333     weight = 0.00617284

band     1 # energy   -2.64708913 # occ.  2.00000000
 
ion      s     py     pz     px    dxy    dyz    dz2    dxz  x2-y2    tot
    1  0.004  0.003  0.004  0.010  0.000  0.001  0.000  0.005  0.000  0.027
    2  0.221  0.010  0.002  0.044  0.000  0.000  0.000  0.000  0.000  0.277
    3  0.221  0.010  0.002  0.044  0.000  0.000  0.000  0.000  0.000  0.277
tot    0.446  0.024  0.007  0.097  0.000  0.001  0.000  0.005  0.000  0.581
 
band     2 # energy   -1.71049317 # occ.  2.00000000
 
ion      s     py     pz     px    dxy    dyz    dz2    dxz  x2-y2    tot
    1  0.016  0.001  0.018  0.001  0.001  0.001  0.001  0.001  0.000  0.041
    2  0.122  0.037  0.001  0.097  0.000  0.000  0.000  0.000  0.000  0.258
    3  0.122  0.037  0.001  0.097  0.000  0.000  0.000  0.000  0.000  0.258
tot    0.261  0.076  0.020  0.196  0.001  0.001  0.001  0.001  0.000  0.556
 
band     3 # energy    2.54601782 # occ.  2.00000000
 
ion      s     py     pz     px    dxy    dyz    dz2    dxz  x2-y2    tot
    1  0.004  0.017  0.001  0.056  0.000  0.002  0.000  0.006  0.000  0.087
    2  0.013  0.001  0.135  0.003  0.000  0.000  0.000  0.000  0.000  0.151
    3  0.013  0.001  0.135  0.003  0.000  0.000  0.000  0.000  0.000  0.151
tot    0.030  0.018  0.270  0.063  0.000  0.002  0.000  0.006  0.000  0.389
 
band     4 # energy    3.30299122 # occ.  2.00000000
 
ion      s     py     pz     px    dxy    dyz    dz2    dxz  x2-y2    tot
    1  0.000  0.005  0.001  0.001  0.000  0.008  0.000  0.003  0.000  0.019
    2  0.005  0.235  0.000  0.079  0.000  0.000  0.000  0.000  0.000  0.318
    3  0.005  0.235  0.000  0.079  0.000  0.000  0.000  0.000  0.000  0.318
tot    0.010  0.475  0.001  0.159  0.000  0.008  0.000  0.003  0.000  0.656
 
band     5 # energy    4.94434670 # occ.  2.00000004
 
ion      s     py     pz     px    dxy    dyz    dz2    dxz  x2-y2    tot
    1  0.099  0.003  0.013  0.001  0.017  0.001  0.001  0.000  0.005  0.140
    2  0.002  0.003  0.106  0.007  0.000  0.000  0.000  0.000  0.000  0.117
    3  0.002  0.003  0.106  0.007  0.000  0.000  0.000  0.000  0.000  0.117
tot    0.103  0.008  0.226  0.014  0.017  0.001  0.001  0.000  0.005  0.375
 
band     6 # energy   10.91927911 # occ.  0.00000000
 
ion      s     py     pz     px    dxy    dyz    dz2    dxz  x2-y2    tot
    1  0.046  0.000  0.021  0.000  0.007  0.000  0.008  0.000  0.002  0.084
    2  0.153  0.012  0.000  0.010  0.000  0.000  0.000  0.000  0.000  0.175
    3  0.153  0.012  0.000  0.010  0.000  0.000  0.000  0.000  0.000  0.175
tot    0.352  0.023  0.021  0.020  0.007  0.000  0.008  0.000  0.002  0.434
 
band     7 # energy   14.02678619 # occ.  0.00000000
 
ion      s     py     pz     px    dxy    dyz    dz2    dxz  x2-y2    tot
    1  0.141  0.071  0.017  0.027  0.005  0.004  0.000  0.002  0.001  0.267
    2  0.005  0.002  0.060  0.004  0.000  0.000  0.000  0.000  0.000  0.071
    3  0.005  0.002  0.060  0.004  0.000  0.000  0.000  0.000  0.000  0.071
tot    0.150  0.076  0.136  0.035  0.005  0.004  0.000  0.002  0.001  0.409
 
band     8 # energy   15.86084459 # occ.  0.00000000
 
ion      s     py     pz     px    dxy    dyz    dz2    dxz  x2-y2    tot
    1  0.043  0.007  0.000  0.105  0.001  0.010  0.000  0.006  0.000  0.173
    2  0.008  0.010  0.115  0.014  0.000  0.000  0.000  0.000  0.000  0.148
    3  0.008  0.010  0.115  0.014  0.000  0.000  0.000  0.000  0.000  0.148
tot    0.059  0.028  0.230  0.133  0.001  0.010  0.000  0.006  0.000  0.468
 

 k-point   133 :   -0.45833333 0.04166667 0.33333333     weight = 0.00617284

band     1 # energy   -3.17306800 # occ.  2.00000000
 
ion      s     py     pz     px    dxy    dyz    dz2    dxz  x2-y2    tot
    1  0.010  0.003  0.009  0.006  0.000  0.001  0.000  0.003  0.000  0.033
    2  0.207  0.019  0.001  0.039  0.000  0.000  0.000  0.000  0.000  0.267
    3  0.207  0.019  0.001  0.039  0.000  0.000  0.000  0.000  0.000  0.267
tot    0.423  0.041  0.012  0.085  0.000  0.001  0.000  0.003  0.000  0.566
 
band     2 # energy   -1.09046205 # occ.  2.00000000
 
ion      s     py     pz     px    dxy    dyz    dz2    dxz  x2-y2    tot
    1  0.010  0.001  0.013  0.005  0.001  0.001  0.001  0.003  0.000  0.034
    2  0.135  0.028  0.001  0.105  0.000  0.000  0.000  0.000  0.000  0.269
    3  0.135  0.028  0.001  0.105  0.000  0.000  0.000  0.000  0.000  0.269
tot    0.280  0.057  0.015  0.214  0.001  0.001  0.001  0.003  0.000  0.572
 
band     3 # energy    2.18408866 # occ.  2.00000000
 
ion      s     py     pz     px    dxy    dyz    dz2    dxz  x2-y2    tot
    1  0.025  0.018  0.003  0.041  0.001  0.002  0.000  0.005  0.000  0.096
    2  0.013  0.002  0.129  0.002  0.000  0.000  0.000  0.000  0.000  0.146
    3  0.013  0.002  0.129  0.002  0.000  0.000  0.000  0.000  0.000  0.146
tot    0.051  0.021  0.262  0.046  0.001  0.002  0.000  0.005  0.000  0.388
 
band     4 # energy    3.36247236 # occ.  2.00000000
 
ion      s     py     pz     px    dxy    dyz    dz2    dxz  x2-y2    tot
    1  0.000  0.005  0.001  0.002  0.000  0.008  0.000  0.002  0.000  0.019
    2  0.005  0.236  0.000  0.077  0.000  0.000  0.000  0.000  0.000  0.319
    3  0.005  0.236  0.000  0.077  0.000  0.000  0.000  0.000  0.000  0.319
tot    0.010  0.478  0.001  0.157  0.000  0.008  0.000  0.002  0.000  0.657
 
band     5 # energy    5.40934452 # occ.  0.34812322
 
ion      s     py     pz     px    dxy    dyz    dz2    dxz  x2-y2    tot
    1  0.078  0.001  0.011  0.015  0.016  0.000  0.000  0.002  0.007  0.129
    2  0.002  0.003  0.113  0.006  0.000  0.000  0.000  0.000  0.000  0.124
    3  0.002  0.003  0.113  0.006  0.000  0.000  0.000  0.000  0.000  0.124
tot    0.082  0.007  0.237  0.027  0.016  0.000  0.000  0.002  0.007  0.377
 
band     6 # energy   10.95914428 # occ.  0.00000000
 
ion      s     py     pz     px    dxy    dyz    dz2    dxz  x2-y2    tot
    1  0.044  0.001  0.020  0.001  0.007  0.000  0.008  0.001  0.002  0.083
    2  0.150  0.007  0.000  0.018  0.000  0.000  0.000  0.000  0.000  0.175
    3  0.150  0.007  0.000  0.018  0.000  0.000  0.000  0.000  0.000  0.175
tot    0.344  0.014  0.021  0.037  0.007  0.000  0.008  0.001  0.002  0.433
 
band     7 # energy   14.08057588 # occ.  0.00000000
 
ion      s     py     pz     px    dxy    dyz    dz2    dxz  x2-y2    tot
    1  0.145  0.077  0.015  0.018  0.002  0.007  0.000  0.000  0.004  0.268
    2  0.004  0.003  0.063  0.004  0.000  0.000  0.000  0.000  0.000  0.074
    3  0.004  0.003  0.063  0.004  0.000  0.000  0.000  0.000  0.000  0.074
tot    0.153  0.083  0.140  0.025  0.002  0.007  0.000  0.000  0.004  0.415
 
band     8 # energy   15.61557937 # occ.  0.00000000
 
ion      s     py     pz     px    dxy    dyz    dz2    dxz  x2-y2    tot
    1  0.034  0.094  0.004  0.010  0.000  0.001  0.005  0.015  0.000  0.162
    2  0.013  0.004  0.116  0.018  0.000  0.000  0.000  0.000  0.000  0.151
    3  0.013  0.004  0.116  0.018  0.000  0.000  0.000  0.000  0.000  0.151
tot    0.060  0.102  0.237  0.045  0.000  0.001  0.005  0.015  0.000  0.465
 

 k-point   134 :   -0.37500000 0.04166667 0.33333333     weight = 0.00617284

band     1 # energy   -4.21084990 # occ.  2.00000000
 
ion      s     py     pz     px    dxy    dyz    dz2    dxz  x2-y2    tot
    1  0.016  0.002  0.013  0.004  0.000  0.001  0.000  0.002  0.000  0.038
    2  0.213  0.015  0.002  0.028  0.000  0.000  0.000  0.000  0.000  0.257
    3  0.213  0.015  0.002  0.028  0.000  0.000  0.000  0.000  0.000  0.257
tot    0.441  0.031  0.016  0.060  0.000  0.001  0.000  0.002  0.000  0.551
 
band     2 # energy    0.40030803 # occ.  2.00000000
 
ion      s     py     pz     px    dxy    dyz    dz2    dxz  x2-y2    tot
    1  0.002  0.002  0.010  0.008  0.001  0.001  0.001  0.004  0.000  0.029
    2  0.116  0.035  0.003  0.125  0.000  0.000  0.000  0.000  0.000  0.280
    3  0.116  0.035  0.003  0.125  0.000  0.000  0.000  0.000  0.000  0.280
tot    0.235  0.073  0.015  0.259  0.001  0.001  0.001  0.004  0.000  0.588
 
band     3 # energy    1.17793819 # occ.  2.00000000
 
ion      s     py     pz     px    dxy    dyz    dz2    dxz  x2-y2    tot
    1  0.062  0.012  0.007  0.022  0.001  0.001  0.001  0.004  0.000  0.109
    2  0.018  0.001  0.120  0.003  0.000  0.000  0.000  0.000  0.000  0.142
    3  0.018  0.001  0.120  0.003  0.000  0.000  0.000  0.000  0.000  0.142
tot    0.098  0.015  0.246  0.027  0.001  0.001  0.001  0.004  0.000  0.393
 
band     4 # energy    3.65177138 # occ.  2.00000000
 
ion      s     py     pz     px    dxy    dyz    dz2    dxz  x2-y2    tot
    1  0.001  0.005  0.001  0.001  0.000  0.008  0.000  0.002  0.000  0.018
    2  0.005  0.240  0.000  0.076  0.000  0.000  0.000  0.000  0.000  0.320
    3  0.005  0.240  0.000  0.076  0.000  0.000  0.000  0.000  0.000  0.320
tot    0.010  0.485  0.001  0.153  0.000  0.008  0.000  0.002  0.000  0.658
 
band     5 # energy    6.93178633 # occ. -0.00000000
 
ion      s     py     pz     px    dxy    dyz    dz2    dxz  x2-y2    tot
    1  0.041  0.003  0.006  0.027  0.019  0.000  0.000  0.004  0.009  0.109
    2  0.001  0.003  0.127  0.006  0.000  0.000  0.000  0.000  0.000  0.137
    3  0.001  0.003  0.127  0.006  0.000  0.000  0.000  0.000  0.000  0.137
tot    0.043  0.009  0.260  0.040  0.019  0.000  0.000  0.004  0.009  0.384
 
band     6 # energy   11.15000385 # occ.  0.00000000
 
ion      s     py     pz     px    dxy    dyz    dz2    dxz  x2-y2    tot
    1  0.035  0.002  0.019  0.005  0.005  0.000  0.009  0.003  0.001  0.079
    2  0.135  0.005  0.001  0.035  0.000  0.000  0.000  0.000  0.000  0.176
    3  0.135  0.005  0.001  0.035  0.000  0.000  0.000  0.000  0.000  0.176
tot    0.304  0.013  0.021  0.076  0.005  0.000  0.009  0.003  0.001  0.431
 
band     7 # energy   14.26652808 # occ.  0.00000000
 
ion      s     py     pz     px    dxy    dyz    dz2    dxz  x2-y2    tot
    1  0.171  0.043  0.002  0.013  0.000  0.010  0.002  0.001  0.007  0.250
    2  0.004  0.005  0.099  0.004  0.000  0.000  0.000  0.000  0.000  0.113
    3  0.004  0.005  0.099  0.004  0.000  0.000  0.000  0.000  0.000  0.113
tot    0.179  0.054  0.200  0.022  0.000  0.010  0.002  0.001  0.007  0.476
 
band     8 # energy   15.07719592 # occ.  0.00000000
 
ion      s     py     pz     px    dxy    dyz    dz2    dxz  x2-y2    tot
    1  0.003  0.118  0.029  0.005  0.000  0.000  0.018  0.006  0.004  0.183
    2  0.024  0.001  0.072  0.008  0.000  0.000  0.000  0.000  0.000  0.105
    3  0.024  0.001  0.072  0.008  0.000  0.000  0.000  0.000  0.000  0.105
tot    0.051  0.121  0.172  0.020  0.000  0.000  0.018  0.006  0.004  0.392
 

 k-point   135 :   -0.29166667 0.04166667 0.33333333     weight = 0.00617284

band     1 # energy   -5.05781878 # occ.  2.00000000
 
ion      s     py     pz     px    dxy    dyz    dz2    dxz  x2-y2    tot
    1  0.021  0.001  0.015  0.002  0.000  0.001  0.000  0.001  0.000  0.041
    2  0.222  0.010  0.002  0.016  0.000  0.000  0.000  0.000  0.000  0.250
    3  0.222  0.010  0.002  0.016  0.000  0.000  0.000  0.000  0.000  0.250
tot    0.465  0.021  0.018  0.035  0.000  0.001  0.000  0.001  0.000  0.540
 
band     2 # energy    0.23659174 # occ.  2.00000000
 
ion      s     py     pz     px    dxy    dyz    dz2    dxz  x2-y2    tot
    1  0.077  0.008  0.012  0.015  0.000  0.001  0.001  0.001  0.000  0.116
    2  0.014  0.001  0.117  0.002  0.000  0.000  0.000  0.000  0.000  0.134
    3  0.014  0.001  0.117  0.002  0.000  0.000  0.000  0.000  0.000  0.134
tot    0.105  0.011  0.247  0.018  0.000  0.001  0.001  0.001  0.000  0.385
 
band     3 # energy    2.05163560 # occ.  2.00000000
 
ion      s     py     pz     px    dxy    dyz    dz2    dxz  x2-y2    tot
    1  0.005  0.001  0.004  0.004  0.002  0.001  0.000  0.006  0.001  0.022
    2  0.097  0.048  0.001  0.153  0.000  0.000  0.000  0.000  0.000  0.299
    3  0.097  0.048  0.001  0.153  0.000  0.000  0.000  0.000  0.000  0.299
tot    0.199  0.097  0.005  0.311  0.002  0.001  0.000  0.006  0.001  0.621
 
band     4 # energy    4.15295308 # occ.  2.00000000
 
ion      s     py     pz     px    dxy    dyz    dz2    dxz  x2-y2    tot
    1  0.001  0.005  0.001  0.001  0.000  0.008  0.000  0.001  0.001  0.017
    2  0.004  0.241  0.000  0.078  0.000  0.000  0.000  0.000  0.000  0.323
    3  0.004  0.241  0.000  0.078  0.000  0.000  0.000  0.000  0.000  0.323
tot    0.008  0.487  0.001  0.157  0.000  0.008  0.000  0.001  0.001  0.662
 
band     5 # energy    8.73788385 # occ.  0.00000000
 
ion      s     py     pz     px    dxy    dyz    dz2    dxz  x2-y2    tot
    1  0.017  0.002  0.003  0.026  0.024  0.000  0.000  0.004  0.014  0.091
    2  0.000  0.003  0.143  0.007  0.000  0.000  0.000  0.000  0.000  0.153
    3  0.000  0.003  0.143  0.007  0.000  0.000  0.000  0.000  0.000  0.153
tot    0.018  0.009  0.288  0.039  0.024  0.000  0.000  0.004  0.014  0.397
 
band     6 # energy   11.45409112 # occ.  0.00000000
 
ion      s     py     pz     px    dxy    dyz    dz2    dxz  x2-y2    tot
    1  0.020  0.004  0.016  0.012  0.002  0.002  0.011  0.006  0.000  0.074
    2  0.103  0.009  0.003  0.062  0.000  0.000  0.000  0.000  0.000  0.177
    3  0.103  0.009  0.003  0.062  0.000  0.000  0.000  0.000  0.000  0.177
tot    0.227  0.022  0.023  0.136  0.002  0.002  0.011  0.006  0.000  0.428
 
band     7 # energy   14.00050982 # occ.  0.00000000
 
ion      s     py     pz     px    dxy    dyz    dz2    dxz  x2-y2    tot
    1  0.133  0.000  0.012  0.007  0.000  0.004  0.022  0.003  0.001  0.183
    2  0.028  0.003  0.140  0.001  0.000  0.000  0.000  0.000  0.000  0.173
    3  0.028  0.003  0.140  0.001  0.000  0.000  0.000  0.000  0.000  0.173
tot    0.190  0.006  0.292  0.010  0.000  0.004  0.022  0.003  0.001  0.528
 
band     8 # energy   15.24724918 # occ.  0.00000000
 
ion      s     py     pz     px    dxy    dyz    dz2    dxz  x2-y2    tot
    1  0.036  0.166  0.022  0.000  0.003  0.004  0.010  0.000  0.015  0.255
    2  0.010  0.004  0.017  0.009  0.000  0.000  0.000  0.000  0.000  0.040
    3  0.010  0.004  0.017  0.009  0.000  0.000  0.000  0.000  0.000  0.040
tot    0.056  0.173  0.056  0.019  0.003  0.004  0.010  0.000  0.015  0.336
 

 k-point   136 :   -0.20833333 0.04166667 0.33333333     weight = 0.00617284

band     1 # energy   -5.68711232 # occ.  2.00000000
 
ion      s     py     pz     px    dxy    dyz    dz2    dxz  x2-y2    tot
    1  0.024  0.001  0.016  0.001  0.000  0.000  0.000  0.000  0.000  0.043
    2  0.230  0.005  0.002  0.007  0.000  0.000  0.000  0.000  0.000  0.245
    3  0.230  0.005  0.002  0.007  0.000  0.000  0.000  0.000  0.000  0.245
tot    0.484  0.012  0.020  0.016  0.000  0.000  0.000  0.000  0.000  0.532
 
band     2 # energy   -0.47117447 # occ.  2.00000000
 
ion      s     py     pz     px    dxy    dyz    dz2    dxz  x2-y2    tot
    1  0.092  0.005  0.014  0.006  0.000  0.000  0.002  0.001  0.000  0.119
    2  0.017  0.001  0.115  0.001  0.000  0.000  0.000  0.000  0.000  0.133
    3  0.017  0.001  0.115  0.001  0.000  0.000  0.000  0.000  0.000  0.133
tot    0.125  0.006  0.244  0.008  0.000  0.000  0.002  0.001  0.000  0.386
 
band     3 # energy    3.69991968 # occ.  2.00000000
 
ion      s     py     pz     px    dxy    dyz    dz2    dxz  x2-y2    tot
    1  0.001  0.000  0.002  0.004  0.002  0.000  0.000  0.005  0.001  0.015
    2  0.065  0.073  0.000  0.179  0.000  0.000  0.000  0.000  0.000  0.317
    3  0.065  0.073  0.000  0.179  0.000  0.000  0.000  0.000  0.000  0.317
tot    0.131  0.147  0.002  0.361  0.002  0.000  0.000  0.005  0.001  0.650
 
band     4 # energy    4.81771248 # occ.  2.00000000
 
ion      s     py     pz     px    dxy    dyz    dz2    dxz  x2-y2    tot
    1  0.000  0.004  0.001  0.000  0.000  0.007  0.000  0.000  0.001  0.014
    2  0.002  0.232  0.000  0.094  0.000  0.000  0.000  0.000  0.000  0.329
    3  0.002  0.232  0.000  0.094  0.000  0.000  0.000  0.000  0.000  0.329
tot    0.005  0.469  0.001  0.188  0.000  0.007  0.000  0.000  0.001  0.671
 
band     5 # energy   10.60462146 # occ.  0.00000000
 
ion      s     py     pz     px    dxy    dyz    dz2    dxz  x2-y2    tot
    1  0.004  0.000  0.002  0.014  0.026  0.000  0.000  0.005  0.018  0.068
    2  0.004  0.004  0.161  0.008  0.000  0.000  0.000  0.000  0.000  0.177
    3  0.004  0.004  0.161  0.008  0.000  0.000  0.000  0.000  0.000  0.177
tot    0.011  0.009  0.323  0.030  0.026  0.000  0.000  0.005  0.018  0.423
 
band     6 # energy   11.79158458 # occ.  0.00000000
 
ion      s     py     pz     px    dxy    dyz    dz2    dxz  x2-y2    tot
    1  0.006  0.006  0.010  0.018  0.000  0.005  0.013  0.010  0.000  0.069
    2  0.051  0.022  0.014  0.091  0.000  0.000  0.000  0.000  0.000  0.178
    3  0.051  0.022  0.014  0.091  0.000  0.000  0.000  0.000  0.000  0.178
tot    0.109  0.050  0.037  0.201  0.000  0.005  0.013  0.010  0.000  0.424
 
band     7 # energy   13.50626642 # occ.  0.00000000
 
ion      s     py     pz     px    dxy    dyz    dz2    dxz  x2-y2    tot
    1  0.107  0.001  0.025  0.001  0.000  0.001  0.033  0.000  0.000  0.169
    2  0.041  0.001  0.128  0.002  0.000  0.000  0.000  0.000  0.000  0.172
    3  0.041  0.001  0.128  0.002  0.000  0.000  0.000  0.000  0.000  0.172
tot    0.189  0.002  0.282  0.005  0.000  0.001  0.033  0.000  0.000  0.513
 
band     8 # energy   14.27623169 # occ.  0.00000000
 
ion      s     py     pz     px    dxy    dyz    dz2    dxz  x2-y2    tot
    1  0.003  0.014  0.002  0.008  0.000  0.020  0.000  0.010  0.001  0.057
    2  0.021  0.129  0.003  0.071  0.000  0.000  0.000  0.000  0.000  0.224
    3  0.021  0.129  0.003  0.071  0.000  0.000  0.000  0.000  0.000  0.224
tot    0.045  0.272  0.007  0.150  0.000  0.020  0.000  0.010  0.001  0.505
 

 k-point   137 :   -0.12500000 0.04166667 0.33333333     weight = 0.00617284

band     1 # energy   -6.09099626 # occ.  2.00000000
 
ion      s     py     pz     px    dxy    dyz    dz2    dxz  x2-y2    tot
    1  0.027  0.000  0.017  0.000  0.000  0.000  0.000  0.000  0.000  0.044
    2  0.235  0.002  0.002  0.002  0.000  0.000  0.000  0.000  0.000  0.241
    3  0.235  0.002  0.002  0.002  0.000  0.000  0.000  0.000  0.000  0.241
tot    0.497  0.005  0.021  0.004  0.000  0.000  0.000  0.000  0.000  0.527
 
band     2 # energy   -0.93223346 # occ.  2.00000000
 
ion      s     py     pz     px    dxy    dyz    dz2    dxz  x2-y2    tot
    1  0.100  0.002  0.015  0.002  0.000  0.000  0.002  0.000  0.000  0.121
    2  0.018  0.000  0.114  0.000  0.000  0.000  0.000  0.000  0.000  0.133
    3  0.018  0.000  0.114  0.000  0.000  0.000  0.000  0.000  0.000  0.133
tot    0.137  0.003  0.243  0.002  0.000  0.000  0.002  0.000  0.000  0.387
 
band     3 # energy    5.12588898 # occ.  2.00343056
 
ion      s     py     pz     px    dxy    dyz    dz2    dxz  x2-y2    tot
    1  0.000  0.000  0.000  0.002  0.002  0.000  0.000  0.003  0.002  0.009
    2  0.031  0.149  0.000  0.158  0.000  0.000  0.000  0.000  0.000  0.338
    3  0.031  0.149  0.000  0.158  0.000  0.000  0.000  0.000  0.000  0.338
tot    0.061  0.298  0.000  0.317  0.002  0.000  0.000  0.003  0.002  0.684
 
band     4 # energy    5.52810601 # occ. -0.04500145
 
ion      s     py     pz     px    dxy    dyz    dz2    dxz  x2-y2    tot
    1  0.000  0.002  0.000  0.000  0.001  0.004  0.000  0.000  0.001  0.009
    2  0.001  0.175  0.000  0.164  0.000  0.000  0.000  0.000  0.000  0.340
    3  0.001  0.175  0.000  0.164  0.000  0.000  0.000  0.000  0.000  0.340
tot    0.002  0.353  0.000  0.328  0.001  0.004  0.000  0.000  0.001  0.689
 
band     5 # energy   11.92423948 # occ.  0.00000000
 
ion      s     py     pz     px    dxy    dyz    dz2    dxz  x2-y2    tot
    1  0.000  0.009  0.004  0.007  0.003  0.013  0.011  0.016  0.001  0.063
    2  0.013  0.059  0.018  0.089  0.000  0.000  0.000  0.000  0.000  0.179
    3  0.013  0.059  0.018  0.089  0.000  0.000  0.000  0.000  0.000  0.179
tot    0.026  0.127  0.039  0.185  0.003  0.013  0.011  0.016  0.001  0.421
 
band     6 # energy   12.35035698 # occ.  0.00000000
 
ion      s     py     pz     px    dxy    dyz    dz2    dxz  x2-y2    tot
    1  0.000  0.001  0.000  0.005  0.011  0.004  0.001  0.001  0.019  0.043
    2  0.010  0.018  0.178  0.011  0.000  0.000  0.000  0.000  0.000  0.216
    3  0.010  0.018  0.178  0.011  0.000  0.000  0.000  0.000  0.000  0.216
tot    0.019  0.037  0.356  0.027  0.011  0.004  0.001  0.001  0.019  0.475
 
band     7 # energy   12.89818439 # occ.  0.00000000
 
ion      s     py     pz     px    dxy    dyz    dz2    dxz  x2-y2    tot
    1  0.001  0.009  0.000  0.015  0.001  0.015  0.000  0.017  0.000  0.058
    2  0.007  0.095  0.019  0.089  0.000  0.000  0.000  0.000  0.000  0.209
    3  0.007  0.095  0.019  0.089  0.000  0.000  0.000  0.000  0.000  0.209
tot    0.014  0.199  0.037  0.193  0.001  0.015  0.000  0.017  0.000  0.477
 
band     8 # energy   13.11721315 # occ.  0.00000000
 
ion      s     py     pz     px    dxy    dyz    dz2    dxz  x2-y2    tot
    1  0.092  0.000  0.027  0.000  0.000  0.001  0.041  0.000  0.000  0.160
    2  0.034  0.008  0.120  0.003  0.000  0.000  0.000  0.000  0.000  0.167
    3  0.034  0.008  0.120  0.003  0.000  0.000  0.000  0.000  0.000  0.167
tot    0.160  0.017  0.268  0.007  0.000  0.001  0.041  0.000  0.000  0.494
 

 k-point   138 :   -0.04166667 0.04166667 0.33333333     weight = 0.00308642

band     1 # energy   -6.26474035 # occ.  2.00000000
 
ion      s     py     pz     px    dxy    dyz    dz2    dxz  x2-y2    tot
    1  0.028  0.000  0.017  0.000  0.000  0.000  0.000  0.000  0.000  0.045
    2  0.237  0.001  0.002  0.000  0.000  0.000  0.000  0.000  0.000  0.240
    3  0.237  0.001  0.002  0.000  0.000  0.000  0.000  0.000  0.000  0.240
tot    0.502  0.001  0.021  0.000  0.000  0.000  0.000  0.000  0.000  0.525
 
band     2 # energy   -1.13196647 # occ.  2.00000000
 
ion      s     py     pz     px    dxy    dyz    dz2    dxz  x2-y2    tot
    1  0.104  0.001  0.016  0.000  0.000  0.000  0.002  0.000  0.000  0.122
    2  0.019  0.000  0.113  0.000  0.000  0.000  0.000  0.000  0.000  0.133
    3  0.019  0.000  0.113  0.000  0.000  0.000  0.000  0.000  0.000  0.133
tot    0.142  0.001  0.243  0.000  0.000  0.000  0.002  0.000  0.000  0.387
 
band     3 # energy    5.90420035 # occ. -0.00000000
 
ion      s     py     pz     px    dxy    dyz    dz2    dxz  x2-y2    tot
    1  0.000  0.000  0.000  0.000  0.000  0.001  0.000  0.000  0.004  0.005
    2  0.005  0.345  0.000  0.000  0.000  0.000  0.000  0.000  0.000  0.351
    3  0.005  0.345  0.000  0.000  0.000  0.000  0.000  0.000  0.000  0.351
tot    0.011  0.691  0.000  0.000  0.000  0.001  0.000  0.000  0.004  0.707
 
band     4 # energy    5.97731254 # occ. -0.00000000
 
ion      s     py     pz     px    dxy    dyz    dz2    dxz  x2-y2    tot
    1  0.000  0.000  0.000  0.000  0.003  0.000  0.000  0.001  0.000  0.005
    2  0.000  0.000  0.000  0.352  0.000  0.000  0.000  0.000  0.000  0.352
    3  0.000  0.000  0.000  0.352  0.000  0.000  0.000  0.000  0.000  0.352
tot    0.000  0.000  0.000  0.705  0.003  0.000  0.000  0.001  0.000  0.709
 
band     5 # energy   11.99758994 # occ.  0.00000000
 
ion      s     py     pz     px    dxy    dyz    dz2    dxz  x2-y2    tot
    1  0.000  0.021  0.000  0.000  0.000  0.038  0.004  0.000  0.000  0.063
    2  0.001  0.183  0.003  0.000  0.000  0.000  0.000  0.000  0.000  0.188
    3  0.001  0.183  0.003  0.000  0.000  0.000  0.000  0.000  0.000  0.188
tot    0.003  0.388  0.007  0.000  0.000  0.038  0.004  0.000  0.000  0.440
 
band     6 # energy   12.16496026 # occ.  0.00000000
 
ion      s     py     pz     px    dxy    dyz    dz2    dxz  x2-y2    tot
    1  0.000  0.000  0.000  0.021  0.000  0.000  0.000  0.040  0.000  0.062
    2  0.000  0.000  0.000  0.195  0.000  0.000  0.000  0.000  0.000  0.195
    3  0.000  0.000  0.000  0.195  0.000  0.000  0.000  0.000  0.000  0.195
tot    0.000  0.000  0.000  0.411  0.000  0.000  0.000  0.040  0.000  0.452
 
band     7 # energy   12.85044596 # occ.  0.00000000
 
ion      s     py     pz     px    dxy    dyz    dz2    dxz  x2-y2    tot
    1  0.080  0.000  0.020  0.000  0.000  0.001  0.053  0.000  0.000  0.153
    2  0.024  0.005  0.125  0.000  0.000  0.000  0.000  0.000  0.000  0.154
    3  0.024  0.005  0.125  0.000  0.000  0.000  0.000  0.000  0.000  0.154
tot    0.128  0.009  0.271  0.000  0.000  0.001  0.053  0.000  0.000  0.461
 
band     8 # energy   13.34155269 # occ.  0.00000000
 
ion      s     py     pz     px    dxy    dyz    dz2    dxz  x2-y2    tot
    1  0.000  0.000  0.000  0.000  0.000  0.000  0.000  0.000  0.008  0.009
    2  0.041  0.004  0.220  0.000  0.000  0.000  0.000  0.000  0.000  0.264
    3  0.041  0.004  0.220  0.000  0.000  0.000  0.000  0.000  0.000  0.264
tot    0.082  0.008  0.440  0.000  0.000  0.000  0.000  0.000  0.008  0.537
 

 k-point   139 :    0.12500000 0.12500000 0.33333333     weight = 0.00308642

band     1 # energy   -5.51477986 # occ.  2.00000000
 
ion      s     py     pz     px    dxy    dyz    dz2    dxz  x2-y2    tot
    1  0.023  0.000  0.016  0.002  0.000  0.000  0.000  0.001  0.000  0.042
    2  0.228  0.000  0.002  0.016  0.000  0.000  0.000  0.000  0.000  0.246
    3  0.228  0.000  0.002  0.016  0.000  0.000  0.000  0.000  0.000  0.246
tot    0.479  0.000  0.019  0.035  0.000  0.000  0.000  0.001  0.000  0.535
 
band     2 # energy   -0.27518706 # occ.  2.00000000
 
ion      s     py     pz     px    dxy    dyz    dz2    dxz  x2-y2    tot
    1  0.088  0.000  0.013  0.014  0.000  0.000  0.002  0.001  0.000  0.119
    2  0.016  0.000  0.116  0.002  0.000  0.000  0.000  0.000  0.000  0.134
    3  0.016  0.000  0.116  0.002  0.000  0.000  0.000  0.000  0.000  0.134
tot    0.120  0.000  0.245  0.018  0.000  0.000  0.002  0.001  0.000  0.386
 
band     3 # energy    3.45351449 # occ.  2.00000000
 
ion      s     py     pz     px    dxy    dyz    dz2    dxz  x2-y2    tot
    1  0.000  0.004  0.000  0.000  0.003  0.006  0.000  0.000  0.000  0.013
    2  0.078  0.032  0.000  0.212  0.000  0.000  0.000  0.000  0.000  0.322
    3  0.078  0.032  0.000  0.212  0.000  0.000  0.000  0.000  0.000  0.322
tot    0.156  0.068  0.001  0.425  0.003  0.006  0.000  0.000  0.000  0.657
 
band     4 # energy    4.22742151 # occ.  2.00000000
 
ion      s     py     pz     px    dxy    dyz    dz2    dxz  x2-y2    tot
    1  0.003  0.000  0.004  0.005  0.000  0.000  0.001  0.008  0.001  0.021
    2  0.008  0.256  0.000  0.046  0.000  0.000  0.000  0.000  0.000  0.310
    3  0.008  0.256  0.000  0.046  0.000  0.000  0.000  0.000  0.000  0.310
tot    0.019  0.511  0.004  0.096  0.000  0.000  0.001  0.008  0.001  0.640
 
band     5 # energy   10.14176884 # occ.  0.00000000
 
ion      s     py     pz     px    dxy    dyz    dz2    dxz  x2-y2    tot
    1  0.000  0.022  0.000  0.000  0.043  0.004  0.000  0.000  0.000  0.069
    2  0.000  0.003  0.164  0.008  0.000  0.000  0.000  0.000  0.000  0.176
    3  0.000  0.003  0.164  0.008  0.000  0.000  0.000  0.000  0.000  0.176
tot    0.001  0.028  0.328  0.017  0.043  0.004  0.000  0.000  0.000  0.420
 
band     6 # energy   12.30689617 # occ.  0.00000000
 
ion      s     py     pz     px    dxy    dyz    dz2    dxz  x2-y2    tot
    1  0.003  0.000  0.011  0.019  0.000  0.000  0.018  0.015  0.002  0.069
    2  0.016  0.088  0.011  0.061  0.000  0.000  0.000  0.000  0.000  0.175
    3  0.016  0.088  0.011  0.061  0.000  0.000  0.000  0.000  0.000  0.175
tot    0.035  0.176  0.032  0.140  0.000  0.000  0.018  0.015  0.002  0.419
 
band     7 # energy   13.65716306 # occ.  0.00000000
 
ion      s     py     pz     px    dxy    dyz    dz2    dxz  x2-y2    tot
    1  0.149  0.000  0.021  0.001  0.000  0.000  0.022  0.002  0.001  0.196
    2  0.038  0.008  0.127  0.000  0.000  0.000  0.000  0.000  0.000  0.172
    3  0.038  0.008  0.127  0.000  0.000  0.000  0.000  0.000  0.000  0.172
tot    0.225  0.015  0.274  0.001  0.000  0.000  0.022  0.002  0.001  0.541
 
band     8 # energy   13.92602206 # occ.  0.00000000
 
ion      s     py     pz     px    dxy    dyz    dz2    dxz  x2-y2    tot
    1  0.000  0.020  0.000  0.000  0.001  0.021  0.000  0.000  0.000  0.043
    2  0.098  0.134  0.005  0.001  0.000  0.000  0.000  0.000  0.000  0.238
    3  0.098  0.134  0.005  0.001  0.000  0.000  0.000  0.000  0.000  0.238
tot    0.196  0.288  0.010  0.001  0.001  0.021  0.000  0.000  0.000  0.518
 

 k-point   140 :    0.20833333 0.12500000 0.33333333     weight = 0.00617284

band     1 # energy   -4.88724336 # occ.  2.00000000
 
ion      s     py     pz     px    dxy    dyz    dz2    dxz  x2-y2    tot
    1  0.020  0.000  0.014  0.004  0.000  0.000  0.000  0.002  0.000  0.040
    2  0.220  0.001  0.002  0.029  0.000  0.000  0.000  0.000  0.000  0.251
    3  0.220  0.001  0.002  0.029  0.000  0.000  0.000  0.000  0.000  0.251
tot    0.460  0.001  0.018  0.062  0.000  0.000  0.000  0.002  0.000  0.542
 
band     2 # energy    0.42796885 # occ.  2.00000000
 
ion      s     py     pz     px    dxy    dyz    dz2    dxz  x2-y2    tot
    1  0.073  0.001  0.012  0.025  0.000  0.000  0.001  0.002  0.000  0.115
    2  0.013  0.000  0.118  0.003  0.000  0.000  0.000  0.000  0.000  0.135
    3  0.013  0.000  0.118  0.003  0.000  0.000  0.000  0.000  0.000  0.135
tot    0.100  0.001  0.248  0.032  0.000  0.000  0.001  0.002  0.000  0.384
 
band     3 # energy    2.06774139 # occ.  2.00000000
 
ion      s     py     pz     px    dxy    dyz    dz2    dxz  x2-y2    tot
    1  0.002  0.005  0.002  0.001  0.002  0.005  0.000  0.002  0.000  0.019
    2  0.104  0.051  0.001  0.151  0.000  0.000  0.000  0.000  0.000  0.306
    3  0.104  0.051  0.001  0.151  0.000  0.000  0.000  0.000  0.000  0.306
tot    0.211  0.106  0.003  0.302  0.002  0.005  0.000  0.002  0.000  0.631
 
band     4 # energy    3.37562315 # occ.  2.00000000
 
ion      s     py     pz     px    dxy    dyz    dz2    dxz  x2-y2    tot
    1  0.004  0.001  0.005  0.004  0.000  0.002  0.001  0.007  0.000  0.025
    2  0.019  0.213  0.000  0.069  0.000  0.000  0.000  0.000  0.000  0.301
    3  0.019  0.213  0.000  0.069  0.000  0.000  0.000  0.000  0.000  0.301
tot    0.042  0.427  0.006  0.142  0.000  0.002  0.001  0.007  0.000  0.626
 
band     5 # energy    8.52452367 # occ.  0.00000000
 
ion      s     py     pz     px    dxy    dyz    dz2    dxz  x2-y2    tot
    1  0.005  0.031  0.001  0.003  0.036  0.004  0.000  0.000  0.001  0.082
    2  0.000  0.003  0.148  0.008  0.000  0.000  0.000  0.000  0.000  0.159
    3  0.000  0.003  0.148  0.008  0.000  0.000  0.000  0.000  0.000  0.159
tot    0.006  0.037  0.297  0.019  0.036  0.004  0.000  0.000  0.001  0.400
 
band     6 # energy   12.39239582 # occ.  0.00000000
 
ion      s     py     pz     px    dxy    dyz    dz2    dxz  x2-y2    tot
    1  0.034  0.001  0.012  0.024  0.001  0.002  0.013  0.004  0.001  0.093
    2  0.056  0.096  0.002  0.022  0.000  0.000  0.000  0.000  0.000  0.176
    3  0.056  0.096  0.002  0.022  0.000  0.000  0.000  0.000  0.000  0.176
tot    0.146  0.193  0.015  0.069  0.001  0.002  0.013  0.004  0.001  0.444
 
band     7 # energy   13.43389332 # occ.  0.00000000
 
ion      s     py     pz     px    dxy    dyz    dz2    dxz  x2-y2    tot
    1  0.191  0.006  0.005  0.035  0.001  0.000  0.003  0.015  0.009  0.266
    2  0.003  0.001  0.074  0.010  0.000  0.000  0.000  0.000  0.000  0.087
    3  0.003  0.001  0.074  0.010  0.000  0.000  0.000  0.000  0.000  0.087
tot    0.196  0.007  0.153  0.055  0.001  0.000  0.003  0.015  0.009  0.441
 
band     8 # energy   14.54595563 # occ.  0.00000000
 
ion      s     py     pz     px    dxy    dyz    dz2    dxz  x2-y2    tot
    1  0.002  0.005  0.035  0.076  0.000  0.001  0.023  0.000  0.001  0.145
    2  0.056  0.027  0.059  0.003  0.000  0.000  0.000  0.000  0.000  0.144
    3  0.056  0.027  0.059  0.003  0.000  0.000  0.000  0.000  0.000  0.144
tot    0.113  0.059  0.152  0.082  0.000  0.001  0.023  0.000  0.001  0.432
 

 k-point   141 :    0.29166667 0.12500000 0.33333333     weight = 0.00617284

band     1 # energy   -4.04400035 # occ.  2.00000000
 
ion      s     py     pz     px    dxy    dyz    dz2    dxz  x2-y2    tot
    1  0.015  0.000  0.012  0.006  0.000  0.000  0.000  0.003  0.000  0.037
    2  0.210  0.002  0.002  0.044  0.000  0.000  0.000  0.000  0.000  0.258
    3  0.210  0.002  0.002  0.044  0.000  0.000  0.000  0.000  0.000  0.258
tot    0.436  0.005  0.015  0.093  0.000  0.000  0.000  0.003  0.000  0.553
 
band     2 # energy    0.50985170 # occ.  2.00000000
 
ion      s     py     pz     px    dxy    dyz    dz2    dxz  x2-y2    tot
    1  0.002  0.005  0.008  0.005  0.002  0.003  0.000  0.002  0.000  0.027
    2  0.121  0.054  0.002  0.108  0.000  0.000  0.000  0.000  0.000  0.285
    3  0.121  0.054  0.002  0.108  0.000  0.000  0.000  0.000  0.000  0.285
tot    0.243  0.113  0.012  0.221  0.002  0.003  0.000  0.002  0.000  0.597
 
band     3 # energy    1.35718456 # occ.  2.00000000
 
ion      s     py     pz     px    dxy    dyz    dz2    dxz  x2-y2    tot
    1  0.056  0.001  0.007  0.036  0.000  0.001  0.001  0.004  0.001  0.107
    2  0.016  0.000  0.120  0.005  0.000  0.000  0.000  0.000  0.000  0.141
    3  0.016  0.000  0.120  0.005  0.000  0.000  0.000  0.000  0.000  0.141
tot    0.087  0.002  0.248  0.046  0.000  0.001  0.001  0.004  0.001  0.390
 
band     4 # energy    2.82160556 # occ.  2.00000000
 
ion      s     py     pz     px    dxy    dyz    dz2    dxz  x2-y2    tot
    1  0.005  0.004  0.005  0.002  0.001  0.004  0.000  0.005  0.000  0.026
    2  0.028  0.196  0.001  0.075  0.000  0.000  0.000  0.000  0.000  0.299
    3  0.028  0.196  0.001  0.075  0.000  0.000  0.000  0.000  0.000  0.299
tot    0.060  0.396  0.006  0.151  0.001  0.004  0.000  0.005  0.000  0.624
 
band     5 # energy    6.87618100 # occ. -0.00000000
 
ion      s     py     pz     px    dxy    dyz    dz2    dxz  x2-y2    tot
    1  0.024  0.032  0.003  0.006  0.026  0.004  0.000  0.001  0.002  0.098
    2  0.002  0.003  0.133  0.007  0.000  0.000  0.000  0.000  0.000  0.145
    3  0.002  0.003  0.133  0.007  0.000  0.000  0.000  0.000  0.000  0.145
tot    0.028  0.037  0.270  0.021  0.026  0.004  0.000  0.001  0.002  0.388
 
band     6 # energy   12.04567363 # occ.  0.00000000
 
ion      s     py     pz     px    dxy    dyz    dz2    dxz  x2-y2    tot
    1  0.117  0.001  0.004  0.028  0.006  0.003  0.008  0.000  0.001  0.166
    2  0.069  0.066  0.002  0.006  0.000  0.000  0.000  0.000  0.000  0.143
    3  0.069  0.066  0.002  0.006  0.000  0.000  0.000  0.000  0.000  0.143
tot    0.254  0.132  0.009  0.041  0.006  0.003  0.008  0.000  0.001  0.453
 
band     7 # energy   12.91218198 # occ.  0.00000000
 
ion      s     py     pz     px    dxy    dyz    dz2    dxz  x2-y2    tot
    1  0.105  0.022  0.031  0.025  0.001  0.000  0.002  0.010  0.004  0.200
    2  0.030  0.014  0.041  0.012  0.000  0.000  0.000  0.000  0.000  0.098
    3  0.030  0.014  0.041  0.012  0.000  0.000  0.000  0.000  0.000  0.098
tot    0.166  0.050  0.113  0.049  0.001  0.000  0.002  0.010  0.004  0.395
 
band     8 # energy   15.11449449 # occ.  0.00000000
 
ion      s     py     pz     px    dxy    dyz    dz2    dxz  x2-y2    tot
    1  0.018  0.000  0.026  0.074  0.000  0.000  0.020  0.007  0.000  0.145
    2  0.032  0.007  0.108  0.013  0.000  0.000  0.000  0.000  0.000  0.160
    3  0.032  0.007  0.108  0.013  0.000  0.000  0.000  0.000  0.000  0.160
tot    0.083  0.014  0.242  0.099  0.000  0.000  0.020  0.007  0.000  0.465
 

 k-point   142 :    0.37500000 0.12500000 0.33333333     weight = 0.00617284

band     1 # energy   -3.01180592 # occ.  2.00000000
 
ion      s     py     pz     px    dxy    dyz    dz2    dxz  x2-y2    tot
    1  0.009  0.001  0.009  0.008  0.000  0.000  0.000  0.004  0.000  0.032
    2  0.204  0.005  0.001  0.057  0.000  0.000  0.000  0.000  0.000  0.268
    3  0.204  0.005  0.001  0.057  0.000  0.000  0.000  0.000  0.000  0.268
tot    0.418  0.011  0.011  0.123  0.000  0.000  0.000  0.004  0.000  0.569
 
band     2 # energy   -0.94909514 # occ.  2.00000000
 
ion      s     py     pz     px    dxy    dyz    dz2    dxz  x2-y2    tot
    1  0.009  0.004  0.012  0.003  0.001  0.003  0.000  0.002  0.000  0.033
    2  0.136  0.049  0.001  0.085  0.000  0.000  0.000  0.000  0.000  0.272
    3  0.136  0.049  0.001  0.085  0.000  0.000  0.000  0.000  0.000  0.272
tot    0.282  0.102  0.013  0.173  0.001  0.003  0.000  0.002  0.000  0.577
 
band     3 # energy    2.34880713 # occ.  2.00000000
 
ion      s     py     pz     px    dxy    dyz    dz2    dxz  x2-y2    tot
    1  0.016  0.003  0.006  0.053  0.000  0.003  0.000  0.003  0.002  0.087
    2  0.011  0.015  0.115  0.020  0.000  0.000  0.000  0.000  0.000  0.160
    3  0.011  0.015  0.115  0.020  0.000  0.000  0.000  0.000  0.000  0.160
tot    0.038  0.034  0.235  0.093  0.000  0.003  0.000  0.003  0.002  0.408
 
band     4 # energy    2.53160139 # occ.  2.00000000
 
ion      s     py     pz     px    dxy    dyz    dz2    dxz  x2-y2    tot
    1  0.010  0.009  0.003  0.001  0.000  0.003  0.000  0.006  0.000  0.034
    2  0.032  0.181  0.016  0.056  0.000  0.000  0.000  0.000  0.000  0.284
    3  0.032  0.181  0.016  0.056  0.000  0.000  0.000  0.000  0.000  0.284
tot    0.073  0.370  0.034  0.113  0.000  0.003  0.000  0.006  0.000  0.601
 
band     5 # energy    5.42765129 # occ.  0.15312730
 
ion      s     py     pz     px    dxy    dyz    dz2    dxz  x2-y2    tot
    1  0.059  0.024  0.007  0.002  0.019  0.003  0.000  0.000  0.003  0.118
    2  0.003  0.003  0.120  0.007  0.000  0.000  0.000  0.000  0.000  0.132
    3  0.003  0.003  0.120  0.007  0.000  0.000  0.000  0.000  0.000  0.132
tot    0.066  0.030  0.246  0.015  0.019  0.003  0.000  0.000  0.003  0.382
 
band     6 # energy   11.71944218 # occ.  0.00000000
 
ion      s     py     pz     px    dxy    dyz    dz2    dxz  x2-y2    tot
    1  0.165  0.009  0.001  0.016  0.009  0.003  0.006  0.001  0.001  0.211
    2  0.058  0.043  0.008  0.008  0.000  0.000  0.000  0.000  0.000  0.117
    3  0.058  0.043  0.008  0.008  0.000  0.000  0.000  0.000  0.000  0.117
tot    0.281  0.095  0.017  0.032  0.009  0.003  0.006  0.001  0.001  0.445
 
band     7 # energy   12.66618406 # occ.  0.00000000
 
ion      s     py     pz     px    dxy    dyz    dz2    dxz  x2-y2    tot
    1  0.060  0.029  0.042  0.014  0.000  0.000  0.002  0.003  0.001  0.152
    2  0.063  0.019  0.031  0.011  0.000  0.000  0.000  0.000  0.000  0.124
    3  0.063  0.019  0.031  0.011  0.000  0.000  0.000  0.000  0.000  0.124
tot    0.185  0.068  0.104  0.037  0.000  0.000  0.002  0.003  0.001  0.400
 
band     8 # energy   15.78698594 # occ.  0.00000000
 
ion      s     py     pz     px    dxy    dyz    dz2    dxz  x2-y2    tot
    1  0.010  0.003  0.009  0.083  0.000  0.003  0.007  0.013  0.002  0.129
    2  0.015  0.010  0.123  0.026  0.000  0.000  0.000  0.000  0.000  0.174
    3  0.015  0.010  0.123  0.026  0.000  0.000  0.000  0.000  0.000  0.174
tot    0.040  0.024  0.255  0.134  0.000  0.003  0.007  0.013  0.002  0.477
 

 k-point   143 :    0.45833333 0.12500000 0.33333333     weight = 0.00617284

band     1 # energy   -2.49008906 # occ.  2.00000000
 
ion      s     py     pz     px    dxy    dyz    dz2    dxz  x2-y2    tot
    1  0.003  0.004  0.003  0.008  0.000  0.002  0.000  0.004  0.000  0.026
    2  0.218  0.027  0.001  0.031  0.000  0.000  0.000  0.000  0.000  0.279
    3  0.218  0.027  0.001  0.031  0.000  0.000  0.000  0.000  0.000  0.279
tot    0.440  0.059  0.006  0.071  0.000  0.002  0.000  0.004  0.000  0.583
 
band     2 # energy   -1.55986178 # occ.  2.00000000
 
ion      s     py     pz     px    dxy    dyz    dz2    dxz  x2-y2    tot
    1  0.015  0.000  0.017  0.003  0.001  0.000  0.001  0.002  0.000  0.039
    2  0.124  0.024  0.001  0.112  0.000  0.000  0.000  0.000  0.000  0.260
    3  0.124  0.024  0.001  0.112  0.000  0.000  0.000  0.000  0.000  0.260
tot    0.263  0.048  0.019  0.227  0.001  0.000  0.001  0.002  0.000  0.560
 
band     3 # energy    2.44557127 # occ.  2.00000000
 
ion      s     py     pz     px    dxy    dyz    dz2    dxz  x2-y2    tot
    1  0.002  0.007  0.007  0.001  0.001  0.006  0.001  0.002  0.000  0.026
    2  0.030  0.199  0.001  0.065  0.000  0.000  0.000  0.000  0.000  0.296
    3  0.030  0.199  0.001  0.065  0.000  0.000  0.000  0.000  0.000  0.296
tot    0.062  0.406  0.010  0.131  0.001  0.006  0.001  0.002  0.000  0.618
 
band     4 # energy    2.73998420 # occ.  2.00000000
 
ion      s     py     pz     px    dxy    dyz    dz2    dxz  x2-y2    tot
    1  0.005  0.020  0.000  0.051  0.001  0.003  0.000  0.005  0.001  0.086
    2  0.013  0.001  0.134  0.005  0.000  0.000  0.000  0.000  0.000  0.152
    3  0.013  0.001  0.134  0.005  0.000  0.000  0.000  0.000  0.000  0.152
tot    0.030  0.022  0.268  0.062  0.001  0.003  0.000  0.005  0.001  0.391
 
band     5 # energy    4.97162053 # occ.  2.00000034
 
ion      s     py     pz     px    dxy    dyz    dz2    dxz  x2-y2    tot
    1  0.080  0.006  0.009  0.010  0.014  0.001  0.000  0.001  0.006  0.128
    2  0.004  0.004  0.113  0.006  0.000  0.000  0.000  0.000  0.000  0.126
    3  0.004  0.004  0.113  0.006  0.000  0.000  0.000  0.000  0.000  0.126
tot    0.087  0.013  0.235  0.022  0.014  0.001  0.000  0.001  0.006  0.381
 
band     6 # energy   11.64662586 # occ.  0.00000000
 
ion      s     py     pz     px    dxy    dyz    dz2    dxz  x2-y2    tot
    1  0.173  0.021  0.000  0.003  0.008  0.003  0.006  0.001  0.003  0.218
    2  0.056  0.032  0.009  0.015  0.000  0.000  0.000  0.000  0.000  0.112
    3  0.056  0.032  0.009  0.015  0.000  0.000  0.000  0.000  0.000  0.112
tot    0.284  0.085  0.019  0.033  0.008  0.003  0.006  0.001  0.003  0.443
 
band     7 # energy   12.62114488 # occ.  0.00000000
 
ion      s     py     pz     px    dxy    dyz    dz2    dxz  x2-y2    tot
    1  0.054  0.033  0.044  0.010  0.000  0.002  0.002  0.000  0.000  0.144
    2  0.069  0.015  0.029  0.016  0.000  0.000  0.000  0.000  0.000  0.129
    3  0.069  0.015  0.029  0.016  0.000  0.000  0.000  0.000  0.000  0.129
tot    0.191  0.063  0.102  0.041  0.000  0.002  0.002  0.000  0.000  0.401
 
band     8 # energy   16.00555397 # occ.  0.00000000
 
ion      s     py     pz     px    dxy    dyz    dz2    dxz  x2-y2    tot
    1  0.002  0.034  0.001  0.058  0.001  0.006  0.001  0.014  0.002  0.118
    2  0.009  0.017  0.126  0.028  0.000  0.000  0.000  0.000  0.000  0.180
    3  0.009  0.017  0.126  0.028  0.000  0.000  0.000  0.000  0.000  0.180
tot    0.020  0.068  0.254  0.113  0.001  0.006  0.001  0.014  0.002  0.479
 

 k-point   144 :   -0.45833333 0.12500000 0.33333333     weight = 0.00617284

band     1 # energy   -3.54756518 # occ.  2.00000000
 
ion      s     py     pz     px    dxy    dyz    dz2    dxz  x2-y2    tot
    1  0.013  0.004  0.011  0.004  0.000  0.002  0.000  0.002  0.000  0.035
    2  0.206  0.028  0.001  0.027  0.000  0.000  0.000  0.000  0.000  0.262
    3  0.206  0.028  0.001  0.027  0.000  0.000  0.000  0.000  0.000  0.262
tot    0.424  0.060  0.014  0.058  0.000  0.002  0.000  0.002  0.000  0.560
 
band     2 # energy   -0.23876352 # occ.  2.00000000
 
ion      s     py     pz     px    dxy    dyz    dz2    dxz  x2-y2    tot
    1  0.006  0.000  0.009  0.007  0.001  0.000  0.000  0.005  0.001  0.029
    2  0.132  0.024  0.001  0.123  0.000  0.000  0.000  0.000  0.000  0.279
    3  0.132  0.024  0.001  0.123  0.000  0.000  0.000  0.000  0.000  0.279
tot    0.269  0.048  0.011  0.253  0.001  0.000  0.000  0.005  0.001  0.588
 
band     3 # energy    1.86329748 # occ.  2.00000000
 
ion      s     py     pz     px    dxy    dyz    dz2    dxz  x2-y2    tot
    1  0.040  0.025  0.006  0.024  0.002  0.002  0.001  0.003  0.000  0.102
    2  0.012  0.006  0.124  0.001  0.000  0.000  0.000  0.000  0.000  0.142
    3  0.012  0.006  0.124  0.001  0.000  0.000  0.000  0.000  0.000  0.142
tot    0.064  0.036  0.254  0.025  0.002  0.002  0.001  0.003  0.000  0.387
 
band     4 # energy    2.64112454 # occ.  2.00000000
 
ion      s     py     pz     px    dxy    dyz    dz2    dxz  x2-y2    tot
    1  0.005  0.004  0.005  0.002  0.000  0.009  0.000  0.001  0.001  0.026
    2  0.030  0.200  0.001  0.067  0.000  0.000  0.000  0.000  0.000  0.298
    3  0.030  0.200  0.001  0.067  0.000  0.000  0.000  0.000  0.000  0.298
tot    0.066  0.403  0.008  0.136  0.000  0.009  0.000  0.001  0.001  0.623
 
band     5 # energy    6.10448844 # occ. -0.00000000
 
ion      s     py     pz     px    dxy    dyz    dz2    dxz  x2-y2    tot
    1  0.040  0.001  0.005  0.034  0.013  0.000  0.000  0.004  0.011  0.107
    2  0.003  0.004  0.127  0.005  0.000  0.000  0.000  0.000  0.000  0.139
    3  0.003  0.004  0.127  0.005  0.000  0.000  0.000  0.000  0.000  0.139
tot    0.045  0.009  0.258  0.044  0.013  0.000  0.000  0.004  0.011  0.385
 
band     6 # energy   11.85870513 # occ.  0.00000000
 
ion      s     py     pz     px    dxy    dyz    dz2    dxz  x2-y2    tot
    1  0.147  0.027  0.002  0.000  0.005  0.002  0.007  0.001  0.004  0.195
    2  0.063  0.028  0.006  0.031  0.000  0.000  0.000  0.000  0.000  0.127
    3  0.063  0.028  0.006  0.031  0.000  0.000  0.000  0.000  0.000  0.127
tot    0.273  0.082  0.013  0.062  0.005  0.002  0.007  0.001  0.004  0.448
 
band     7 # energy   12.76010200 # occ.  0.00000000
 
ion      s     py     pz     px    dxy    dyz    dz2    dxz  x2-y2    tot
    1  0.076  0.039  0.038  0.005  0.001  0.005  0.002  0.001  0.001  0.169
    2  0.050  0.009  0.034  0.021  0.000  0.000  0.000  0.000  0.000  0.114
    3  0.050  0.009  0.034  0.021  0.000  0.000  0.000  0.000  0.000  0.114
tot    0.175  0.057  0.107  0.048  0.001  0.005  0.002  0.001  0.001  0.397
 
band     8 # energy   15.46264468 # occ.  0.00000000
 
ion      s     py     pz     px    dxy    dyz    dz2    dxz  x2-y2    tot
    1  0.016  0.054  0.018  0.025  0.001  0.005  0.013  0.006  0.000  0.139
    2  0.023  0.014  0.117  0.012  0.000  0.000  0.000  0.000  0.000  0.167
    3  0.023  0.014  0.117  0.012  0.000  0.000  0.000  0.000  0.000  0.167
tot    0.063  0.082  0.252  0.050  0.001  0.005  0.013  0.006  0.000  0.473
 

 k-point   145 :   -0.37500000 0.12500000 0.33333333     weight = 0.00617284

band     1 # energy   -4.49165132 # occ.  2.00000000
 
ion      s     py     pz     px    dxy    dyz    dz2    dxz  x2-y2    tot
    1  0.018  0.003  0.013  0.002  0.000  0.001  0.000  0.001  0.000  0.039
    2  0.215  0.021  0.002  0.016  0.000  0.000  0.000  0.000  0.000  0.254
    3  0.215  0.021  0.002  0.016  0.000  0.000  0.000  0.000  0.000  0.254
tot    0.448  0.046  0.017  0.034  0.000  0.001  0.000  0.001  0.000  0.547
 
band     2 # energy    0.85414808 # occ.  2.00000000
 
ion      s     py     pz     px    dxy    dyz    dz2    dxz  x2-y2    tot
    1  0.059  0.018  0.012  0.017  0.001  0.001  0.001  0.001  0.000  0.109
    2  0.011  0.003  0.117  0.007  0.000  0.000  0.000  0.000  0.000  0.138
    3  0.011  0.003  0.117  0.007  0.000  0.000  0.000  0.000  0.000  0.138
tot    0.081  0.025  0.245  0.030  0.001  0.001  0.001  0.001  0.000  0.386
 
band     3 # energy    1.30468665 # occ.  2.00000000
 
ion      s     py     pz     px    dxy    dyz    dz2    dxz  x2-y2    tot
    1  0.009  0.000  0.002  0.004  0.001  0.000  0.000  0.007  0.001  0.025
    2  0.116  0.041  0.004  0.134  0.000  0.000  0.000  0.000  0.000  0.294
    3  0.116  0.041  0.004  0.134  0.000  0.000  0.000  0.000  0.000  0.294
tot    0.241  0.082  0.009  0.272  0.001  0.000  0.000  0.007  0.001  0.614
 
band     4 # energy    3.06561454 # occ.  2.00000000
 
ion      s     py     pz     px    dxy    dyz    dz2    dxz  x2-y2    tot
    1  0.005  0.005  0.005  0.000  0.000  0.009  0.001  0.000  0.001  0.025
    2  0.024  0.200  0.000  0.076  0.000  0.000  0.000  0.000  0.000  0.300
    3  0.024  0.200  0.000  0.076  0.000  0.000  0.000  0.000  0.000  0.300
tot    0.053  0.404  0.006  0.152  0.000  0.009  0.001  0.000  0.001  0.625
 
band     5 # energy    7.69234569 # occ. -0.00000000
 
ion      s     py     pz     px    dxy    dyz    dz2    dxz  x2-y2    tot
    1  0.013  0.001  0.002  0.036  0.015  0.000  0.000  0.005  0.018  0.089
    2  0.001  0.005  0.141  0.005  0.000  0.000  0.000  0.000  0.000  0.152
    3  0.001  0.005  0.141  0.005  0.000  0.000  0.000  0.000  0.000  0.152
tot    0.015  0.011  0.283  0.047  0.015  0.000  0.000  0.005  0.018  0.393
 
band     6 # energy   12.24284310 # occ.  0.00000000
 
ion      s     py     pz     px    dxy    dyz    dz2    dxz  x2-y2    tot
    1  0.074  0.019  0.008  0.009  0.003  0.000  0.010  0.003  0.001  0.127
    2  0.069  0.026  0.000  0.067  0.000  0.000  0.000  0.000  0.000  0.163
    3  0.069  0.026  0.000  0.067  0.000  0.000  0.000  0.000  0.000  0.163
tot    0.213  0.071  0.008  0.144  0.003  0.000  0.010  0.003  0.001  0.453
 
band     7 # energy   13.13861342 # occ.  0.00000000
 
ion      s     py     pz     px    dxy    dyz    dz2    dxz  x2-y2    tot
    1  0.148  0.049  0.019  0.000  0.003  0.010  0.002  0.003  0.005  0.239
    2  0.011  0.005  0.052  0.013  0.000  0.000  0.000  0.000  0.000  0.082
    3  0.011  0.005  0.052  0.013  0.000  0.000  0.000  0.000  0.000  0.082
tot    0.170  0.059  0.124  0.027  0.003  0.010  0.002  0.003  0.005  0.403
 
band     8 # energy   14.79199155 # occ.  0.00000000
 
ion      s     py     pz     px    dxy    dyz    dz2    dxz  x2-y2    tot
    1  0.014  0.063  0.033  0.011  0.000  0.002  0.024  0.001  0.000  0.148
    2  0.042  0.011  0.092  0.007  0.000  0.000  0.000  0.000  0.000  0.152
    3  0.042  0.011  0.092  0.007  0.000  0.000  0.000  0.000  0.000  0.152
tot    0.099  0.084  0.217  0.025  0.000  0.002  0.024  0.001  0.000  0.452
 

 k-point   146 :   -0.29166667 0.12500000 0.33333333     weight = 0.00617284

band     1 # energy   -5.22875783 # occ.  2.00000000
 
ion      s     py     pz     px    dxy    dyz    dz2    dxz  x2-y2    tot
    1  0.021  0.002  0.015  0.001  0.000  0.001  0.000  0.000  0.000  0.041
    2  0.224  0.015  0.002  0.007  0.000  0.000  0.000  0.000  0.000  0.248
    3  0.224  0.015  0.002  0.007  0.000  0.000  0.000  0.000  0.000  0.248
tot    0.470  0.032  0.019  0.016  0.000  0.001  0.000  0.000  0.000  0.538
 
band     2 # energy    0.04727441 # occ.  2.00000000
 
ion      s     py     pz     px    dxy    dyz    dz2    dxz  x2-y2    tot
    1  0.082  0.013  0.012  0.006  0.000  0.001  0.001  0.001  0.000  0.117
    2  0.015  0.002  0.117  0.001  0.000  0.000  0.000  0.000  0.000  0.134
    3  0.015  0.002  0.117  0.001  0.000  0.000  0.000  0.000  0.000  0.134
tot    0.111  0.016  0.246  0.008  0.000  0.001  0.001  0.001  0.000  0.385
 
band     3 # energy    2.80272506 # occ.  2.00000000
 
ion      s     py     pz     px    dxy    dyz    dz2    dxz  x2-y2    tot
    1  0.001  0.000  0.001  0.005  0.001  0.000  0.000  0.006  0.002  0.015
    2  0.092  0.102  0.001  0.120  0.000  0.000  0.000  0.000  0.000  0.316
    3  0.092  0.102  0.001  0.120  0.000  0.000  0.000  0.000  0.000  0.316
tot    0.186  0.205  0.002  0.246  0.001  0.000  0.000  0.006  0.002  0.647
 
band     4 # energy    3.76014802 # occ.  2.00000000
 
ion      s     py     pz     px    dxy    dyz    dz2    dxz  x2-y2    tot
    1  0.004  0.005  0.005  0.000  0.000  0.008  0.001  0.001  0.001  0.024
    2  0.013  0.155  0.000  0.135  0.000  0.000  0.000  0.000  0.000  0.303
    3  0.013  0.155  0.000  0.135  0.000  0.000  0.000  0.000  0.000  0.303
tot    0.030  0.315  0.005  0.270  0.000  0.008  0.001  0.001  0.001  0.630
 
band     5 # energy    9.34829438 # occ.  0.00000000
 
ion      s     py     pz     px    dxy    dyz    dz2    dxz  x2-y2    tot
    1  0.001  0.003  0.000  0.025  0.014  0.000  0.000  0.004  0.027  0.075
    2  0.000  0.006  0.156  0.005  0.000  0.000  0.000  0.000  0.000  0.167
    3  0.000  0.006  0.156  0.005  0.000  0.000  0.000  0.000  0.000  0.167
tot    0.001  0.016  0.312  0.035  0.014  0.000  0.000  0.004  0.027  0.409
 
band     6 # energy   12.42936978 # occ.  0.00000000
 
ion      s     py     pz     px    dxy    dyz    dz2    dxz  x2-y2    tot
    1  0.011  0.012  0.012  0.010  0.002  0.005  0.017  0.005  0.000  0.075
    2  0.031  0.041  0.007  0.098  0.000  0.000  0.000  0.000  0.000  0.177
    3  0.031  0.041  0.007  0.098  0.000  0.000  0.000  0.000  0.000  0.177
tot    0.072  0.095  0.026  0.207  0.002  0.005  0.017  0.005  0.000  0.429
 
band     7 # energy   13.66767691 # occ.  0.00000000
 
ion      s     py     pz     px    dxy    dyz    dz2    dxz  x2-y2    tot
    1  0.195  0.011  0.003  0.002  0.004  0.009  0.011  0.001  0.003  0.238
    2  0.020  0.005  0.112  0.001  0.000  0.000  0.000  0.000  0.000  0.139
    3  0.020  0.005  0.112  0.001  0.000  0.000  0.000  0.000  0.000  0.139
tot    0.234  0.021  0.228  0.004  0.004  0.009  0.011  0.001  0.003  0.516
 
band     8 # energy   14.32488888 # occ.  0.00000000
 
ion      s     py     pz     px    dxy    dyz    dz2    dxz  x2-y2    tot
    1  0.006  0.033  0.001  0.002  0.002  0.004  0.003  0.010  0.001  0.061
    2  0.100  0.038  0.006  0.082  0.000  0.000  0.000  0.000  0.000  0.226
    3  0.100  0.038  0.006  0.082  0.000  0.000  0.000  0.000  0.000  0.226
tot    0.205  0.108  0.014  0.167  0.002  0.004  0.003  0.010  0.001  0.512
 

 k-point   147 :   -0.20833333 0.12500000 0.33333333     weight = 0.00617284

band     1 # energy   -5.74465517 # occ.  2.00000000
 
ion      s     py     pz     px    dxy    dyz    dz2    dxz  x2-y2    tot
    1  0.024  0.002  0.016  0.000  0.000  0.001  0.000  0.000  0.000  0.043
    2  0.231  0.010  0.002  0.002  0.000  0.000  0.000  0.000  0.000  0.244
    3  0.231  0.010  0.002  0.002  0.000  0.000  0.000  0.000  0.000  0.244
tot    0.486  0.021  0.020  0.004  0.000  0.001  0.000  0.000  0.000  0.532
 
band     2 # energy   -0.53639697 # occ.  2.00000000
 
ion      s     py     pz     px    dxy    dyz    dz2    dxz  x2-y2    tot
    1  0.093  0.008  0.014  0.002  0.000  0.001  0.002  0.000  0.000  0.120
    2  0.017  0.001  0.115  0.000  0.000  0.000  0.000  0.000  0.000  0.133
    3  0.017  0.001  0.115  0.000  0.000  0.000  0.000  0.000  0.000  0.133
tot    0.127  0.010  0.244  0.002  0.000  0.001  0.002  0.000  0.000  0.386
 
band     3 # energy    3.99944593 # occ.  2.00000000
 
ion      s     py     pz     px    dxy    dyz    dz2    dxz  x2-y2    tot
    1  0.000  0.002  0.000  0.002  0.000  0.003  0.000  0.002  0.003  0.013
    2  0.062  0.230  0.000  0.033  0.000  0.000  0.000  0.000  0.000  0.325
    3  0.062  0.230  0.000  0.033  0.000  0.000  0.000  0.000  0.000  0.325
tot    0.124  0.463  0.001  0.067  0.000  0.003  0.000  0.002  0.003  0.663
 
band     4 # energy    4.73760559 # occ.  2.00000000
 
ion      s     py     pz     px    dxy    dyz    dz2    dxz  x2-y2    tot
    1  0.001  0.002  0.002  0.002  0.001  0.003  0.000  0.004  0.000  0.016
    2  0.005  0.043  0.000  0.274  0.000  0.000  0.000  0.000  0.000  0.322
    3  0.005  0.043  0.000  0.274  0.000  0.000  0.000  0.000  0.000  0.322
tot    0.011  0.088  0.002  0.549  0.001  0.003  0.000  0.004  0.000  0.660
 
band     5 # energy   10.87462842 # occ.  0.00000000
 
ion      s     py     pz     px    dxy    dyz    dz2    dxz  x2-y2    tot
    1  0.001  0.006  0.000  0.008  0.006  0.002  0.000  0.002  0.037  0.063
    2  0.002  0.008  0.171  0.004  0.000  0.000  0.000  0.000  0.000  0.185
    3  0.002  0.008  0.171  0.004  0.000  0.000  0.000  0.000  0.000  0.185
tot    0.005  0.023  0.343  0.016  0.006  0.002  0.000  0.002  0.037  0.433
 
band     6 # energy   12.07941904 # occ.  0.00000000
 
ion      s     py     pz     px    dxy    dyz    dz2    dxz  x2-y2    tot
    1  0.002  0.019  0.009  0.001  0.001  0.017  0.016  0.002  0.000  0.067
    2  0.021  0.098  0.012  0.045  0.000  0.000  0.000  0.000  0.000  0.176
    3  0.021  0.098  0.012  0.045  0.000  0.000  0.000  0.000  0.000  0.176
tot    0.043  0.215  0.033  0.092  0.001  0.017  0.016  0.002  0.000  0.419
 
band     7 # energy   13.46945579 # occ.  0.00000000
 
ion      s     py     pz     px    dxy    dyz    dz2    dxz  x2-y2    tot
    1  0.106  0.000  0.025  0.001  0.000  0.000  0.029  0.003  0.000  0.165
    2  0.045  0.007  0.118  0.008  0.000  0.000  0.000  0.000  0.000  0.177
    3  0.045  0.007  0.118  0.008  0.000  0.000  0.000  0.000  0.000  0.177
tot    0.195  0.014  0.260  0.017  0.000  0.000  0.029  0.003  0.000  0.519
 
band     8 # energy   13.72101818 # occ.  0.00000000
 
ion      s     py     pz     px    dxy    dyz    dz2    dxz  x2-y2    tot
    1  0.010  0.003  0.004  0.018  0.000  0.003  0.001  0.022  0.000  0.061
    2  0.057  0.012  0.012  0.142  0.000  0.000  0.000  0.000  0.000  0.223
    3  0.057  0.012  0.012  0.142  0.000  0.000  0.000  0.000  0.000  0.223
tot    0.124  0.027  0.029  0.301  0.000  0.003  0.001  0.022  0.000  0.507
 

 k-point   148 :   -0.12500000 0.12500000 0.33333333     weight = 0.00308642

band     1 # energy   -6.03309390 # occ.  2.00000000
 
ion      s     py     pz     px    dxy    dyz    dz2    dxz  x2-y2    tot
    1  0.026  0.001  0.017  0.000  0.000  0.000  0.000  0.000  0.000  0.044
    2  0.234  0.005  0.002  0.000  0.000  0.000  0.000  0.000  0.000  0.242
    3  0.234  0.005  0.002  0.000  0.000  0.000  0.000  0.000  0.000  0.242
tot    0.495  0.012  0.021  0.000  0.000  0.000  0.000  0.000  0.000  0.528
 
band     2 # energy   -0.86578043 # occ.  2.00000000
 
ion      s     py     pz     px    dxy    dyz    dz2    dxz  x2-y2    tot
    1  0.099  0.005  0.015  0.000  0.000  0.000  0.002  0.000  0.000  0.121
    2  0.018  0.001  0.114  0.000  0.000  0.000  0.000  0.000  0.000  0.133
    3  0.018  0.001  0.114  0.000  0.000  0.000  0.000  0.000  0.000  0.133
tot    0.135  0.006  0.243  0.000  0.000  0.000  0.002  0.000  0.000  0.387
 
band     3 # energy    4.85627699 # occ.  2.00000000
 
ion      s     py     pz     px    dxy    dyz    dz2    dxz  x2-y2    tot
    1  0.000  0.002  0.001  0.000  0.000  0.004  0.000  0.000  0.003  0.010
    2  0.037  0.295  0.000  0.000  0.000  0.000  0.000  0.000  0.000  0.332
    3  0.037  0.295  0.000  0.000  0.000  0.000  0.000  0.000  0.000  0.332
tot    0.075  0.592  0.001  0.000  0.000  0.004  0.000  0.000  0.003  0.675
 
band     4 # energy    5.45133410 # occ. -0.00115356
 
ion      s     py     pz     px    dxy    dyz    dz2    dxz  x2-y2    tot
    1  0.000  0.000  0.000  0.002  0.002  0.000  0.000  0.004  0.000  0.009
    2  0.000  0.000  0.000  0.340  0.000  0.000  0.000  0.000  0.000  0.340
    3  0.000  0.000  0.000  0.340  0.000  0.000  0.000  0.000  0.000  0.340
tot    0.000  0.000  0.000  0.683  0.002  0.000  0.000  0.004  0.000  0.690
 
band     5 # energy   11.73025666 # occ.  0.00000000
 
ion      s     py     pz     px    dxy    dyz    dz2    dxz  x2-y2    tot
    1  0.000  0.006  0.005  0.000  0.000  0.025  0.009  0.000  0.014  0.058
    2  0.028  0.105  0.047  0.000  0.000  0.000  0.000  0.000  0.000  0.181
    3  0.028  0.105  0.047  0.000  0.000  0.000  0.000  0.000  0.000  0.181
tot    0.056  0.217  0.099  0.000  0.000  0.025  0.009  0.000  0.014  0.420
 
band     6 # energy   12.17463961 # occ.  0.00000000
 
ion      s     py     pz     px    dxy    dyz    dz2    dxz  x2-y2    tot
    1  0.002  0.023  0.001  0.000  0.000  0.003  0.003  0.000  0.023  0.055
    2  0.002  0.047  0.157  0.000  0.000  0.000  0.000  0.000  0.000  0.206
    3  0.002  0.047  0.157  0.000  0.000  0.000  0.000  0.000  0.000  0.206
tot    0.005  0.118  0.314  0.000  0.000  0.003  0.003  0.000  0.023  0.467
 
band     7 # energy   13.17450114 # occ.  0.00000000
 
ion      s     py     pz     px    dxy    dyz    dz2    dxz  x2-y2    tot
    1  0.095  0.000  0.027  0.000  0.000  0.000  0.040  0.000  0.000  0.163
    2  0.037  0.006  0.123  0.000  0.000  0.000  0.000  0.000  0.000  0.167
    3  0.037  0.006  0.123  0.000  0.000  0.000  0.000  0.000  0.000  0.167
tot    0.170  0.013  0.274  0.000  0.000  0.000  0.040  0.000  0.000  0.497
 
band     8 # energy   13.18763758 # occ.  0.00000000
 
ion      s     py     pz     px    dxy    dyz    dz2    dxz  x2-y2    tot
    1  0.000  0.000  0.000  0.020  0.001  0.000  0.000  0.037  0.000  0.058
    2  0.000  0.000  0.000  0.210  0.000  0.000  0.000  0.000  0.000  0.210
    3  0.000  0.000  0.000  0.210  0.000  0.000  0.000  0.000  0.000  0.210
tot    0.000  0.000  0.000  0.439  0.001  0.000  0.000  0.037  0.000  0.477
 

 k-point   149 :    0.20833333 0.20833333 0.33333333     weight = 0.00308642

band     1 # energy   -4.15539602 # occ.  2.00000000
 
ion      s     py     pz     px    dxy    dyz    dz2    dxz  x2-y2    tot
    1  0.016  0.000  0.013  0.006  0.000  0.000  0.000  0.003  0.000  0.038
    2  0.211  0.000  0.002  0.044  0.000  0.000  0.000  0.000  0.000  0.257
    3  0.211  0.000  0.002  0.044  0.000  0.000  0.000  0.000  0.000  0.257
tot    0.439  0.000  0.016  0.094  0.000  0.000  0.000  0.003  0.000  0.552
 
band     2 # energy    1.19172272 # occ.  2.00000000
 
ion      s     py     pz     px    dxy    dyz    dz2    dxz  x2-y2    tot
    1  0.000  0.008  0.000  0.000  0.002  0.007  0.000  0.000  0.000  0.017
    2  0.137  0.040  0.001  0.129  0.000  0.000  0.000  0.000  0.000  0.307
    3  0.137  0.040  0.001  0.129  0.000  0.000  0.000  0.000  0.000  0.307
tot    0.274  0.087  0.002  0.259  0.002  0.007  0.000  0.000  0.000  0.632
 
band     3 # energy    1.22324494 # occ.  2.00000000
 
ion      s     py     pz     px    dxy    dyz    dz2    dxz  x2-y2    tot
    1  0.052  0.000  0.011  0.040  0.000  0.000  0.001  0.003  0.001  0.108
    2  0.009  0.002  0.119  0.007  0.000  0.000  0.000  0.000  0.000  0.137
    3  0.009  0.002  0.119  0.007  0.000  0.000  0.000  0.000  0.000  0.137
tot    0.069  0.004  0.250  0.055  0.000  0.000  0.001  0.003  0.001  0.382
 
band     4 # energy    2.17284743 # occ.  2.00000000
 
ion      s     py     pz     px    dxy    dyz    dz2    dxz  x2-y2    tot
    1  0.015  0.000  0.010  0.002  0.000  0.000  0.001  0.008  0.000  0.037
    2  0.026  0.197  0.002  0.050  0.000  0.000  0.000  0.000  0.000  0.275
    3  0.026  0.197  0.002  0.050  0.000  0.000  0.000  0.000  0.000  0.275
tot    0.067  0.394  0.015  0.102  0.000  0.000  0.001  0.008  0.000  0.588
 
band     5 # energy    7.25662270 # occ. -0.00000000
 
ion      s     py     pz     px    dxy    dyz    dz2    dxz  x2-y2    tot
    1  0.000  0.045  0.000  0.000  0.030  0.005  0.000  0.000  0.000  0.081
    2  0.002  0.003  0.144  0.007  0.000  0.000  0.000  0.000  0.000  0.156
    3  0.002  0.003  0.144  0.007  0.000  0.000  0.000  0.000  0.000  0.156
tot    0.004  0.051  0.288  0.015  0.030  0.005  0.000  0.000  0.000  0.393
 
band     6 # energy   11.94655399 # occ.  0.00000000
 
ion      s     py     pz     px    dxy    dyz    dz2    dxz  x2-y2    tot
    1  0.245  0.000  0.008  0.065  0.000  0.000  0.002  0.005  0.001  0.326
    2  0.002  0.017  0.017  0.001  0.000  0.000  0.000  0.000  0.000  0.037
    3  0.002  0.017  0.017  0.001  0.000  0.000  0.000  0.000  0.000  0.037
tot    0.249  0.034  0.042  0.067  0.000  0.000  0.002  0.005  0.001  0.399
 
band     7 # energy   13.65214234 # occ.  0.00000000
 
ion      s     py     pz     px    dxy    dyz    dz2    dxz  x2-y2    tot
    1  0.001  0.000  0.026  0.004  0.000  0.000  0.017  0.011  0.007  0.066
    2  0.015  0.116  0.028  0.022  0.000  0.000  0.000  0.000  0.000  0.180
    3  0.015  0.116  0.028  0.022  0.000  0.000  0.000  0.000  0.000  0.180
tot    0.032  0.232  0.081  0.047  0.000  0.000  0.017  0.011  0.007  0.427
 
band     8 # energy   15.01878753 # occ.  0.00000000
 
ion      s     py     pz     px    dxy    dyz    dz2    dxz  x2-y2    tot
    1  0.000  0.006  0.000  0.000  0.008  0.007  0.000  0.000  0.000  0.021
    2  0.124  0.108  0.009  0.029  0.000  0.000  0.000  0.000  0.000  0.269
    3  0.124  0.108  0.009  0.029  0.000  0.000  0.000  0.000  0.000  0.269
tot    0.248  0.222  0.017  0.058  0.008  0.007  0.000  0.000  0.000  0.560
 

 k-point   150 :    0.29166667 0.20833333 0.33333333     weight = 0.00617284

band     1 # energy   -3.22090455 # occ.  2.00000000
 
ion      s     py     pz     px    dxy    dyz    dz2    dxz  x2-y2    tot
    1  0.011  0.000  0.010  0.008  0.000  0.000  0.000  0.004  0.000  0.034
    2  0.202  0.001  0.001  0.061  0.000  0.000  0.000  0.000  0.000  0.265
    3  0.202  0.001  0.001  0.061  0.000  0.000  0.000  0.000  0.000  0.265
tot    0.415  0.003  0.013  0.129  0.000  0.000  0.000  0.004  0.000  0.564
 
band     2 # energy   -0.03540183 # occ.  2.00000000
 
ion      s     py     pz     px    dxy    dyz    dz2    dxz  x2-y2    tot
    1  0.003  0.007  0.005  0.001  0.002  0.006  0.000  0.001  0.000  0.024
    2  0.146  0.054  0.001  0.089  0.000  0.000  0.000  0.000  0.000  0.290
    3  0.146  0.054  0.001  0.089  0.000  0.000  0.000  0.000  0.000  0.290
tot    0.295  0.114  0.007  0.180  0.002  0.006  0.000  0.001  0.000  0.604
 
band     3 # energy    1.46585017 # occ.  2.00000000
 
ion      s     py     pz     px    dxy    dyz    dz2    dxz  x2-y2    tot
    1  0.004  0.002  0.016  0.008  0.000  0.002  0.001  0.003  0.000  0.036
    2  0.035  0.165  0.003  0.065  0.000  0.000  0.000  0.000  0.000  0.269
    3  0.035  0.165  0.003  0.065  0.000  0.000  0.000  0.000  0.000  0.269
tot    0.075  0.333  0.022  0.137  0.000  0.002  0.001  0.003  0.000  0.573
 
band     4 # energy    2.24269144 # occ.  2.00000000
 
ion      s     py     pz     px    dxy    dyz    dz2    dxz  x2-y2    tot
    1  0.040  0.001  0.003  0.046  0.000  0.000  0.000  0.007  0.003  0.100
    2  0.016  0.007  0.124  0.001  0.000  0.000  0.000  0.000  0.000  0.148
    3  0.016  0.007  0.124  0.001  0.000  0.000  0.000  0.000  0.000  0.148
tot    0.072  0.016  0.250  0.048  0.000  0.000  0.000  0.007  0.003  0.396
 
band     5 # energy    5.94430878 # occ. -0.00000000
 
ion      s     py     pz     px    dxy    dyz    dz2    dxz  x2-y2    tot
    1  0.010  0.049  0.001  0.001  0.022  0.006  0.000  0.000  0.000  0.089
    2  0.004  0.003  0.136  0.006  0.000  0.000  0.000  0.000  0.000  0.149
    3  0.004  0.003  0.136  0.006  0.000  0.000  0.000  0.000  0.000  0.149
tot    0.017  0.055  0.274  0.013  0.022  0.006  0.000  0.000  0.000  0.388
 
band     6 # energy   11.03328173 # occ.  0.00000000
 
ion      s     py     pz     px    dxy    dyz    dz2    dxz  x2-y2    tot
    1  0.270  0.005  0.015  0.036  0.001  0.001  0.001  0.003  0.000  0.331
    2  0.001  0.011  0.014  0.003  0.000  0.000  0.000  0.000  0.000  0.028
    3  0.001  0.011  0.014  0.003  0.000  0.000  0.000  0.000  0.000  0.028
tot    0.271  0.026  0.043  0.041  0.001  0.001  0.001  0.003  0.000  0.387
 
band     7 # energy   13.98554624 # occ.  0.00000000
 
ion      s     py     pz     px    dxy    dyz    dz2    dxz  x2-y2    tot
    1  0.000  0.002  0.032  0.001  0.003  0.001  0.009  0.003  0.005  0.055
    2  0.061  0.111  0.014  0.019  0.000  0.000  0.000  0.000  0.000  0.204
    3  0.061  0.111  0.014  0.019  0.000  0.000  0.000  0.000  0.000  0.204
tot    0.122  0.224  0.060  0.038  0.003  0.001  0.009  0.003  0.005  0.464
 
band     8 # energy   15.65648648 # occ.  0.00000000
 
ion      s     py     pz     px    dxy    dyz    dz2    dxz  x2-y2    tot
    1  0.009  0.000  0.009  0.057  0.003  0.000  0.008  0.010  0.003  0.099
    2  0.034  0.037  0.093  0.036  0.000  0.000  0.000  0.000  0.000  0.200
    3  0.034  0.037  0.093  0.036  0.000  0.000  0.000  0.000  0.000  0.200
tot    0.076  0.073  0.195  0.129  0.003  0.000  0.008  0.010  0.003  0.499
 

 k-point   151 :    0.37500000 0.20833333 0.33333333     weight = 0.00617284

band     1 # energy   -2.17875446 # occ.  2.00000000
 
ion      s     py     pz     px    dxy    dyz    dz2    dxz  x2-y2    tot
    1  0.003  0.001  0.003  0.011  0.000  0.001  0.000  0.006  0.001  0.025
    2  0.212  0.009  0.001  0.060  0.000  0.000  0.000  0.000  0.000  0.281
    3  0.212  0.009  0.001  0.060  0.000  0.000  0.000  0.000  0.000  0.281
tot    0.426  0.018  0.006  0.130  0.000  0.001  0.000  0.006  0.001  0.588
 
band     2 # energy   -1.28051138 # occ.  2.00000000
 
ion      s     py     pz     px    dxy    dyz    dz2    dxz  x2-y2    tot
    1  0.011  0.005  0.013  0.000  0.001  0.003  0.000  0.000  0.000  0.035
    2  0.134  0.050  0.001  0.083  0.000  0.000  0.000  0.000  0.000  0.268
    3  0.134  0.050  0.001  0.083  0.000  0.000  0.000  0.000  0.000  0.268
tot    0.280  0.106  0.015  0.165  0.001  0.003  0.000  0.000  0.000  0.571
 
band     3 # energy    1.24889716 # occ.  2.00000000
 
ion      s     py     pz     px    dxy    dyz    dz2    dxz  x2-y2    tot
    1  0.007  0.004  0.013  0.002  0.000  0.004  0.001  0.002  0.000  0.034
    2  0.049  0.163  0.001  0.063  0.000  0.000  0.000  0.000  0.000  0.275
    3  0.049  0.163  0.001  0.063  0.000  0.000  0.000  0.000  0.000  0.275
tot    0.104  0.330  0.015  0.129  0.000  0.004  0.001  0.002  0.000  0.584
 
band     4 # energy    3.11828460 # occ.  2.00000000
 
ion      s     py     pz     px    dxy    dyz    dz2    dxz  x2-y2    tot
    1  0.004  0.011  0.000  0.060  0.000  0.001  0.000  0.007  0.004  0.086
    2  0.011  0.002  0.135  0.003  0.000  0.000  0.000  0.000  0.000  0.151
    3  0.011  0.002  0.135  0.003  0.000  0.000  0.000  0.000  0.000  0.151
tot    0.026  0.015  0.270  0.065  0.000  0.001  0.000  0.007  0.004  0.388
 
band     5 # energy    4.90018541 # occ.  2.00000000
 
ion      s     py     pz     px    dxy    dyz    dz2    dxz  x2-y2    tot
    1  0.039  0.037  0.004  0.002  0.015  0.004  0.000  0.000  0.003  0.105
    2  0.005  0.003  0.126  0.005  0.000  0.000  0.000  0.000  0.000  0.140
    3  0.005  0.003  0.126  0.005  0.000  0.000  0.000  0.000  0.000  0.140
tot    0.050  0.044  0.256  0.013  0.015  0.004  0.000  0.000  0.003  0.384
 
band     6 # energy   10.64081503 # occ.  0.00000000
 
ion      s     py     pz     px    dxy    dyz    dz2    dxz  x2-y2    tot
    1  0.280  0.017  0.017  0.011  0.002  0.002  0.001  0.001  0.000  0.331
    2  0.001  0.009  0.014  0.004  0.000  0.000  0.000  0.000  0.000  0.027
    3  0.001  0.009  0.014  0.004  0.000  0.000  0.000  0.000  0.000  0.027
tot    0.281  0.035  0.045  0.019  0.002  0.002  0.001  0.001  0.000  0.385
 
band     7 # energy   13.97029262 # occ.  0.00000000
 
ion      s     py     pz     px    dxy    dyz    dz2    dxz  x2-y2    tot
    1  0.001  0.002  0.034  0.000  0.005  0.000  0.006  0.000  0.002  0.051
    2  0.083  0.089  0.009  0.033  0.000  0.000  0.000  0.000  0.000  0.214
    3  0.083  0.089  0.009  0.033  0.000  0.000  0.000  0.000  0.000  0.214
tot    0.167  0.180  0.052  0.065  0.005  0.000  0.006  0.000  0.002  0.478
 
band     8 # energy   16.14797735 # occ.  0.00000000
 
ion      s     py     pz     px    dxy    dyz    dz2    dxz  x2-y2    tot
    1  0.001  0.012  0.001  0.065  0.002  0.003  0.001  0.013  0.006  0.103
    2  0.003  0.032  0.116  0.043  0.000  0.000  0.000  0.000  0.000  0.193
    3  0.003  0.032  0.116  0.043  0.000  0.000  0.000  0.000  0.000  0.193
tot    0.007  0.075  0.232  0.150  0.002  0.003  0.001  0.013  0.006  0.489
 

 k-point   152 :    0.45833333 0.20833333 0.33333333     weight = 0.00617284

band     1 # energy   -2.69238048 # occ.  2.00000000
 
ion      s     py     pz     px    dxy    dyz    dz2    dxz  x2-y2    tot
    1  0.008  0.005  0.008  0.004  0.000  0.003  0.000  0.002  0.000  0.031
    2  0.200  0.044  0.001  0.026  0.000  0.000  0.000  0.000  0.000  0.271
    3  0.200  0.044  0.001  0.026  0.000  0.000  0.000  0.000  0.000  0.271
tot    0.409  0.093  0.010  0.055  0.000  0.003  0.000  0.002  0.000  0.573
 
band     2 # energy   -0.69507585 # occ.  2.00000000
 
ion      s     py     pz     px    dxy    dyz    dz2    dxz  x2-y2    tot
    1  0.006  0.000  0.008  0.008  0.000  0.000  0.000  0.005  0.001  0.029
    2  0.146  0.017  0.001  0.116  0.000  0.000  0.000  0.000  0.000  0.280
    3  0.146  0.017  0.001  0.116  0.000  0.000  0.000  0.000  0.000  0.280
tot    0.298  0.035  0.010  0.239  0.000  0.000  0.000  0.005  0.001  0.589
 
band     3 # energy    1.31996550 # occ.  2.00000000
 
ion      s     py     pz     px    dxy    dyz    dz2    dxz  x2-y2    tot
    1  0.006  0.007  0.014  0.000  0.000  0.005  0.001  0.001  0.000  0.035
    2  0.045  0.162  0.001  0.066  0.000  0.000  0.000  0.000  0.000  0.274
    3  0.045  0.162  0.001  0.066  0.000  0.000  0.000  0.000  0.000  0.274
tot    0.096  0.331  0.016  0.132  0.000  0.005  0.001  0.001  0.000  0.582
 
band     4 # energy    2.73624869 # occ.  2.00000000
 
ion      s     py     pz     px    dxy    dyz    dz2    dxz  x2-y2    tot
    1  0.022  0.031  0.002  0.028  0.003  0.004  0.000  0.003  0.001  0.094
    2  0.012  0.002  0.130  0.003  0.000  0.000  0.000  0.000  0.000  0.147
    3  0.012  0.002  0.130  0.003  0.000  0.000  0.000  0.000  0.000  0.147
tot    0.047  0.035  0.262  0.035  0.003  0.004  0.000  0.003  0.001  0.389
 
band     5 # energy    5.33862141 # occ.  1.45780227
 
ion      s     py     pz     px    dxy    dyz    dz2    dxz  x2-y2    tot
    1  0.023  0.010  0.003  0.036  0.009  0.001  0.000  0.004  0.010  0.097
    2  0.005  0.004  0.131  0.005  0.000  0.000  0.000  0.000  0.000  0.145
    3  0.005  0.004  0.131  0.005  0.000  0.000  0.000  0.000  0.000  0.145
tot    0.032  0.018  0.265  0.046  0.009  0.001  0.000  0.004  0.010  0.386
 
band     6 # energy   10.77112563 # occ.  0.00000000
 
ion      s     py     pz     px    dxy    dyz    dz2    dxz  x2-y2    tot
    1  0.277  0.032  0.017  0.000  0.001  0.003  0.001  0.000  0.001  0.331
    2  0.001  0.008  0.014  0.005  0.000  0.000  0.000  0.000  0.000  0.027
    3  0.001  0.008  0.014  0.005  0.000  0.000  0.000  0.000  0.000  0.027
tot    0.278  0.047  0.044  0.011  0.001  0.003  0.001  0.000  0.001  0.385
 
band     7 # energy   13.98189110 # occ.  0.00000000
 
ion      s     py     pz     px    dxy    dyz    dz2    dxz  x2-y2    tot
    1  0.001  0.000  0.033  0.002  0.007  0.000  0.007  0.001  0.001  0.052
    2  0.076  0.069  0.010  0.055  0.000  0.000  0.000  0.000  0.000  0.211
    3  0.076  0.069  0.010  0.055  0.000  0.000  0.000  0.000  0.000  0.211
tot    0.153  0.138  0.054  0.113  0.007  0.000  0.007  0.001  0.001  0.474
 
band     8 # energy   15.95868791 # occ.  0.00000000
 
ion      s     py     pz     px    dxy    dyz    dz2    dxz  x2-y2    tot
    1  0.005  0.039  0.005  0.032  0.001  0.007  0.004  0.006  0.006  0.106
    2  0.014  0.037  0.110  0.032  0.000  0.000  0.000  0.000  0.000  0.192
    3  0.014  0.037  0.110  0.032  0.000  0.000  0.000  0.000  0.000  0.192
tot    0.032  0.113  0.224  0.096  0.001  0.007  0.004  0.006  0.006  0.491
 

 k-point   153 :   -0.45833333 0.20833333 0.33333333     weight = 0.00617284

band     1 # energy   -3.71183595 # occ.  2.00000000
 
ion      s     py     pz     px    dxy    dyz    dz2    dxz  x2-y2    tot
    1  0.014  0.005  0.012  0.002  0.000  0.002  0.000  0.001  0.000  0.036
    2  0.206  0.037  0.001  0.016  0.000  0.000  0.000  0.000  0.000  0.261
    3  0.206  0.037  0.001  0.016  0.000  0.000  0.000  0.000  0.000  0.261
tot    0.427  0.079  0.014  0.034  0.000  0.002  0.000  0.001  0.000  0.557
 
band     2 # energy    0.61626467 # occ.  2.00000000
 
ion      s     py     pz     px    dxy    dyz    dz2    dxz  x2-y2    tot
    1  0.001  0.000  0.002  0.008  0.001  0.001  0.000  0.006  0.002  0.020
    2  0.144  0.055  0.001  0.100  0.000  0.000  0.000  0.000  0.000  0.300
    3  0.144  0.055  0.001  0.100  0.000  0.000  0.000  0.000  0.000  0.300
tot    0.289  0.110  0.004  0.208  0.001  0.001  0.000  0.006  0.002  0.620
 
band     3 # energy    1.60697094 # occ.  2.00000000
 
ion      s     py     pz     px    dxy    dyz    dz2    dxz  x2-y2    tot
    1  0.010  0.032  0.020  0.008  0.001  0.000  0.002  0.000  0.000  0.073
    2  0.005  0.073  0.068  0.042  0.000  0.000  0.000  0.000  0.000  0.189
    3  0.005  0.073  0.068  0.042  0.000  0.000  0.000  0.000  0.000  0.189
tot    0.020  0.179  0.157  0.092  0.001  0.000  0.002  0.000  0.000  0.451
 
band     4 # energy    1.85472415 # occ.  2.00000000
 
ion      s     py     pz     px    dxy    dyz    dz2    dxz  x2-y2    tot
    1  0.048  0.004  0.001  0.005  0.001  0.009  0.000  0.001  0.000  0.070
    2  0.037  0.064  0.055  0.067  0.000  0.000  0.000  0.000  0.000  0.223
    3  0.037  0.064  0.055  0.067  0.000  0.000  0.000  0.000  0.000  0.223
tot    0.121  0.133  0.112  0.138  0.001  0.009  0.000  0.001  0.000  0.516
 
band     5 # energy    6.59798376 # occ. -0.00000000
 
ion      s     py     pz     px    dxy    dyz    dz2    dxz  x2-y2    tot
    1  0.002  0.009  0.000  0.040  0.008  0.001  0.000  0.005  0.018  0.084
    2  0.003  0.005  0.141  0.004  0.000  0.000  0.000  0.000  0.000  0.153
    3  0.003  0.005  0.141  0.004  0.000  0.000  0.000  0.000  0.000  0.153
tot    0.008  0.020  0.282  0.049  0.008  0.001  0.000  0.005  0.018  0.390
 
band     6 # energy   11.42801222 # occ.  0.00000000
 
ion      s     py     pz     px    dxy    dyz    dz2    dxz  x2-y2    tot
    1  0.260  0.045  0.013  0.007  0.000  0.004  0.001  0.000  0.001  0.330
    2  0.001  0.006  0.015  0.008  0.000  0.000  0.000  0.000  0.000  0.030
    3  0.001  0.006  0.015  0.008  0.000  0.000  0.000  0.000  0.000  0.030
tot    0.261  0.057  0.043  0.024  0.000  0.004  0.001  0.000  0.001  0.391
 
band     7 # energy   13.92005259 # occ.  0.00000000
 
ion      s     py     pz     px    dxy    dyz    dz2    dxz  x2-y2    tot
    1  0.000  0.001  0.029  0.003  0.007  0.004  0.013  0.004  0.000  0.061
    2  0.034  0.049  0.021  0.087  0.000  0.000  0.000  0.000  0.000  0.192
    3  0.034  0.049  0.021  0.087  0.000  0.000  0.000  0.000  0.000  0.192
tot    0.068  0.100  0.071  0.178  0.007  0.004  0.013  0.004  0.000  0.445
 
band     8 # energy   15.31715794 # occ.  0.00000000
 
ion      s     py     pz     px    dxy    dyz    dz2    dxz  x2-y2    tot
    1  0.007  0.028  0.007  0.003  0.000  0.006  0.007  0.000  0.007  0.065
    2  0.075  0.050  0.054  0.051  0.000  0.000  0.000  0.000  0.000  0.230
    3  0.075  0.050  0.054  0.051  0.000  0.000  0.000  0.000  0.000  0.230
tot    0.156  0.128  0.115  0.106  0.000  0.006  0.007  0.000  0.007  0.526
 

 k-point   154 :   -0.37500000 0.20833333 0.33333333     weight = 0.00617284

band     1 # energy   -4.54828436 # occ.  2.00000000
 
ion      s     py     pz     px    dxy    dyz    dz2    dxz  x2-y2    tot
    1  0.018  0.004  0.014  0.001  0.000  0.002  0.000  0.000  0.000  0.039
    2  0.216  0.029  0.002  0.007  0.000  0.000  0.000  0.000  0.000  0.254
    3  0.216  0.029  0.002  0.007  0.000  0.000  0.000  0.000  0.000  0.254
tot    0.450  0.062  0.017  0.015  0.000  0.002  0.000  0.000  0.000  0.547
 
band     2 # energy    0.80144402 # occ.  2.00000000
 
ion      s     py     pz     px    dxy    dyz    dz2    dxz  x2-y2    tot
    1  0.065  0.026  0.011  0.006  0.001  0.002  0.001  0.001  0.000  0.112
    2  0.012  0.004  0.119  0.001  0.000  0.000  0.000  0.000  0.000  0.136
    3  0.012  0.004  0.119  0.001  0.000  0.000  0.000  0.000  0.000  0.136
tot    0.088  0.034  0.249  0.008  0.001  0.002  0.001  0.001  0.000  0.383
 
band     3 # energy    1.65790009 # occ.  2.00000000
 
ion      s     py     pz     px    dxy    dyz    dz2    dxz  x2-y2    tot
    1  0.001  0.003  0.001  0.004  0.000  0.004  0.000  0.003  0.002  0.018
    2  0.120  0.157  0.001  0.029  0.000  0.000  0.000  0.000  0.000  0.307
    3  0.120  0.157  0.001  0.029  0.000  0.000  0.000  0.000  0.000  0.307
tot    0.242  0.317  0.002  0.061  0.000  0.004  0.000  0.003  0.002  0.632
 
band     4 # energy    2.73454917 # occ.  2.00000000
 
ion      s     py     pz     px    dxy    dyz    dz2    dxz  x2-y2    tot
    1  0.008  0.002  0.009  0.003  0.000  0.004  0.001  0.004  0.000  0.031
    2  0.023  0.046  0.000  0.217  0.000  0.000  0.000  0.000  0.000  0.286
    3  0.023  0.046  0.000  0.217  0.000  0.000  0.000  0.000  0.000  0.286
tot    0.054  0.093  0.009  0.437  0.000  0.004  0.001  0.004  0.000  0.604
 
band     5 # energy    7.90166223 # occ. -0.00000000
 
ion      s     py     pz     px    dxy    dyz    dz2    dxz  x2-y2    tot
    1  0.002  0.015  0.000  0.025  0.006  0.002  0.000  0.003  0.028  0.081
    2  0.001  0.007  0.146  0.004  0.000  0.000  0.000  0.000  0.000  0.158
    3  0.001  0.007  0.146  0.004  0.000  0.000  0.000  0.000  0.000  0.158
tot    0.004  0.029  0.293  0.032  0.006  0.002  0.000  0.003  0.028  0.397
 
band     6 # energy   12.50963409 # occ.  0.00000000
 
ion      s     py     pz     px    dxy    dyz    dz2    dxz  x2-y2    tot
    1  0.204  0.051  0.001  0.023  0.002  0.001  0.004  0.001  0.000  0.287
    2  0.011  0.010  0.012  0.037  0.000  0.000  0.000  0.000  0.000  0.070
    3  0.011  0.010  0.012  0.037  0.000  0.000  0.000  0.000  0.000  0.070
tot    0.227  0.070  0.025  0.096  0.002  0.001  0.004  0.001  0.000  0.427
 
band     7 # energy   13.20992368 # occ.  0.00000000
 
ion      s     py     pz     px    dxy    dyz    dz2    dxz  x2-y2    tot
    1  0.028  0.000  0.026  0.003  0.006  0.014  0.013  0.002  0.003  0.094
    2  0.021  0.045  0.038  0.056  0.000  0.000  0.000  0.000  0.000  0.160
    3  0.021  0.045  0.038  0.056  0.000  0.000  0.000  0.000  0.000  0.160
tot    0.071  0.090  0.102  0.114  0.006  0.014  0.013  0.002  0.003  0.414
 
band     8 # energy   14.74985134 # occ.  0.00000000
 
ion      s     py     pz     px    dxy    dyz    dz2    dxz  x2-y2    tot
    1  0.009  0.018  0.019  0.025  0.001  0.000  0.013  0.006  0.002  0.092
    2  0.083  0.015  0.054  0.052  0.000  0.000  0.000  0.000  0.000  0.204
    3  0.083  0.015  0.054  0.052  0.000  0.000  0.000  0.000  0.000  0.204
tot    0.175  0.048  0.128  0.128  0.001  0.000  0.013  0.006  0.002  0.500
 

 k-point   155 :   -0.29166667 0.20833333 0.33333333     weight = 0.00617284

band     1 # energy   -5.17167812 # occ.  2.00000000
 
ion      s     py     pz     px    dxy    dyz    dz2    dxz  x2-y2    tot
    1  0.021  0.003  0.015  0.000  0.000  0.001  0.000  0.000  0.000  0.041
    2  0.224  0.022  0.002  0.002  0.000  0.000  0.000  0.000  0.000  0.249
    3  0.224  0.022  0.002  0.002  0.000  0.000  0.000  0.000  0.000  0.249
tot    0.468  0.046  0.019  0.004  0.000  0.001  0.000  0.000  0.000  0.539
 
band     2 # energy    0.11071986 # occ.  2.00000000
 
ion      s     py     pz     px    dxy    dyz    dz2    dxz  x2-y2    tot
    1  0.080  0.019  0.012  0.002  0.000  0.002  0.001  0.000  0.000  0.117
    2  0.015  0.002  0.117  0.000  0.000  0.000  0.000  0.000  0.000  0.134
    3  0.015  0.002  0.117  0.000  0.000  0.000  0.000  0.000  0.000  0.134
tot    0.109  0.024  0.247  0.002  0.000  0.002  0.001  0.000  0.000  0.385
 
band     3 # energy    2.47135457 # occ.  2.00000000
 
ion      s     py     pz     px    dxy    dyz    dz2    dxz  x2-y2    tot
    1  0.003  0.004  0.003  0.001  0.000  0.006  0.000  0.001  0.002  0.019
    2  0.092  0.209  0.001  0.005  0.000  0.000  0.000  0.000  0.000  0.306
    3  0.092  0.209  0.001  0.005  0.000  0.000  0.000  0.000  0.000  0.306
tot    0.187  0.422  0.004  0.011  0.000  0.006  0.000  0.001  0.002  0.632
 
band     4 # energy    3.98562437 # occ.  2.00000000
 
ion      s     py     pz     px    dxy    dyz    dz2    dxz  x2-y2    tot
    1  0.002  0.001  0.003  0.005  0.001  0.001  0.000  0.007  0.000  0.020
    2  0.011  0.010  0.000  0.293  0.000  0.000  0.000  0.000  0.000  0.314
    3  0.011  0.010  0.000  0.293  0.000  0.000  0.000  0.000  0.000  0.314
tot    0.024  0.021  0.003  0.591  0.001  0.001  0.000  0.007  0.000  0.648
 
band     5 # energy    9.11901737 # occ.  0.00000000
 
ion      s     py     pz     px    dxy    dyz    dz2    dxz  x2-y2    tot
    1  0.008  0.020  0.002  0.008  0.003  0.003  0.000  0.001  0.037  0.082
    2  0.000  0.009  0.150  0.002  0.000  0.000  0.000  0.000  0.000  0.161
    3  0.000  0.009  0.150  0.002  0.000  0.000  0.000  0.000  0.000  0.161
tot    0.009  0.038  0.301  0.012  0.003  0.003  0.000  0.001  0.037  0.404
 
band     6 # energy   11.92599540 # occ.  0.00000000
 
ion      s     py     pz     px    dxy    dyz    dz2    dxz  x2-y2    tot
    1  0.016  0.019  0.014  0.000  0.000  0.009  0.012  0.000  0.002  0.072
    2  0.073  0.068  0.004  0.035  0.000  0.000  0.000  0.000  0.000  0.180
    3  0.073  0.068  0.004  0.035  0.000  0.000  0.000  0.000  0.000  0.180
tot    0.162  0.155  0.023  0.070  0.000  0.009  0.012  0.000  0.002  0.433
 
band     7 # energy   13.80806951 # occ.  0.00000000
 
ion      s     py     pz     px    dxy    dyz    dz2    dxz  x2-y2    tot
    1  0.164  0.000  0.006  0.005  0.005  0.006  0.018  0.003  0.000  0.207
    2  0.024  0.002  0.129  0.003  0.000  0.000  0.000  0.000  0.000  0.159
    3  0.024  0.002  0.129  0.003  0.000  0.000  0.000  0.000  0.000  0.159
tot    0.212  0.004  0.265  0.012  0.005  0.006  0.018  0.003  0.000  0.525
 
band     8 # energy   14.75602426 # occ.  0.00000000
 
ion      s     py     pz     px    dxy    dyz    dz2    dxz  x2-y2    tot
    1  0.026  0.053  0.024  0.084  0.008  0.002  0.014  0.000  0.000  0.212
    2  0.029  0.008  0.014  0.027  0.000  0.000  0.000  0.000  0.000  0.079
    3  0.029  0.008  0.014  0.027  0.000  0.000  0.000  0.000  0.000  0.079
tot    0.084  0.070  0.053  0.138  0.008  0.002  0.014  0.000  0.000  0.370
 

 k-point   156 :   -0.20833333 0.20833333 0.33333333     weight = 0.00308642

band     1 # energy   -5.57218747 # occ.  2.00000000
 
ion      s     py     pz     px    dxy    dyz    dz2    dxz  x2-y2    tot
    1  0.023  0.002  0.016  0.000  0.000  0.001  0.000  0.000  0.000  0.043
    2  0.229  0.015  0.002  0.000  0.000  0.000  0.000  0.000  0.000  0.246
    3  0.229  0.015  0.002  0.000  0.000  0.000  0.000  0.000  0.000  0.246
tot    0.481  0.033  0.020  0.000  0.000  0.001  0.000  0.000  0.000  0.534
 
band     2 # energy   -0.34098840 # occ.  2.00000000
 
ion      s     py     pz     px    dxy    dyz    dz2    dxz  x2-y2    tot
    1  0.089  0.013  0.013  0.000  0.000  0.001  0.002  0.000  0.000  0.119
    2  0.016  0.002  0.116  0.000  0.000  0.000  0.000  0.000  0.000  0.133
    3  0.016  0.002  0.116  0.000  0.000  0.000  0.000  0.000  0.000  0.133
tot    0.122  0.016  0.245  0.000  0.000  0.001  0.002  0.000  0.000  0.386
 
band     3 # energy    3.30297790 # occ.  2.00000000
 
ion      s     py     pz     px    dxy    dyz    dz2    dxz  x2-y2    tot
    1  0.002  0.004  0.002  0.000  0.000  0.006  0.000  0.000  0.003  0.018
    2  0.072  0.239  0.000  0.000  0.000  0.000  0.000  0.000  0.000  0.312
    3  0.072  0.239  0.000  0.000  0.000  0.000  0.000  0.000  0.000  0.312
tot    0.147  0.482  0.003  0.000  0.000  0.006  0.000  0.000  0.003  0.641
 
band     4 # energy    4.75665503 # occ.  2.00000000
 
ion      s     py     pz     px    dxy    dyz    dz2    dxz  x2-y2    tot
    1  0.000  0.000  0.000  0.004  0.001  0.000  0.000  0.007  0.000  0.013
    2  0.000  0.000  0.000  0.331  0.000  0.000  0.000  0.000  0.000  0.331
    3  0.000  0.000  0.000  0.331  0.000  0.000  0.000  0.000  0.000  0.331
tot    0.000  0.000  0.000  0.666  0.001  0.000  0.000  0.007  0.000  0.675
 
band     5 # energy   10.18040815 # occ.  0.00000000
 
ion      s     py     pz     px    dxy    dyz    dz2    dxz  x2-y2    tot
    1  0.007  0.017  0.003  0.000  0.000  0.005  0.000  0.000  0.043  0.075
    2  0.003  0.011  0.154  0.000  0.000  0.000  0.000  0.000  0.000  0.169
    3  0.003  0.011  0.154  0.000  0.000  0.000  0.000  0.000  0.000  0.169
tot    0.013  0.039  0.312  0.000  0.000  0.005  0.000  0.000  0.043  0.413
 
band     6 # energy   11.58615110 # occ.  0.00000000
 
ion      s     py     pz     px    dxy    dyz    dz2    dxz  x2-y2    tot
    1  0.011  0.024  0.012  0.000  0.000  0.013  0.012  0.000  0.000  0.071
    2  0.072  0.093  0.011  0.000  0.000  0.000  0.000  0.000  0.000  0.176
    3  0.072  0.093  0.011  0.000  0.000  0.000  0.000  0.000  0.000  0.176
tot    0.155  0.210  0.033  0.000  0.000  0.013  0.012  0.000  0.000  0.423
 
band     7 # energy   13.61230868 # occ.  0.00000000
 
ion      s     py     pz     px    dxy    dyz    dz2    dxz  x2-y2    tot
    1  0.107  0.004  0.025  0.000  0.000  0.002  0.033  0.000  0.000  0.170
    2  0.039  0.000  0.132  0.000  0.000  0.000  0.000  0.000  0.000  0.172
    3  0.039  0.000  0.132  0.000  0.000  0.000  0.000  0.000  0.000  0.172
tot    0.186  0.004  0.289  0.000  0.000  0.002  0.033  0.000  0.000  0.514
 
band     8 # energy   14.85469117 # occ.  0.00000000
 
ion      s     py     pz     px    dxy    dyz    dz2    dxz  x2-y2    tot
    1  0.000  0.000  0.000  0.025  0.002  0.000  0.000  0.031  0.000  0.057
    2  0.000  0.000  0.000  0.224  0.000  0.000  0.000  0.000  0.000  0.224
    3  0.000  0.000  0.000  0.224  0.000  0.000  0.000  0.000  0.000  0.224
tot    0.000  0.000  0.000  0.474  0.002  0.000  0.000  0.031  0.000  0.506
 

 k-point   157 :    0.29166667 0.29166667 0.33333333     weight = 0.00308642

band     1 # energy   -2.22754446 # occ.  2.00000000
 
ion      s     py     pz     px    dxy    dyz    dz2    dxz  x2-y2    tot
    1  0.006  0.000  0.006  0.010  0.000  0.000  0.000  0.006  0.001  0.028
    2  0.197  0.004  0.001  0.074  0.000  0.000  0.000  0.000  0.000  0.277
    3  0.197  0.004  0.001  0.074  0.000  0.000  0.000  0.000  0.000  0.277
tot    0.400  0.009  0.009  0.157  0.000  0.000  0.000  0.006  0.001  0.582
 
band     2 # energy   -0.61138060 # occ.  2.00000000
 
ion      s     py     pz     px    dxy    dyz    dz2    dxz  x2-y2    tot
    1  0.000  0.011  0.000  0.000  0.002  0.008  0.000  0.000  0.000  0.020
    2  0.185  0.043  0.001  0.068  0.000  0.000  0.000  0.000  0.000  0.297
    3  0.185  0.043  0.001  0.068  0.000  0.000  0.000  0.000  0.000  0.297
tot    0.370  0.097  0.002  0.135  0.002  0.008  0.000  0.000  0.000  0.613
 
band     3 # energy    0.40097907 # occ.  2.00000000
 
ion      s     py     pz     px    dxy    dyz    dz2    dxz  x2-y2    tot
    1  0.016  0.000  0.025  0.003  0.000  0.000  0.001  0.002  0.000  0.048
    2  0.020  0.165  0.000  0.063  0.000  0.000  0.000  0.000  0.000  0.247
    3  0.020  0.165  0.000  0.063  0.000  0.000  0.000  0.000  0.000  0.247
tot    0.055  0.329  0.026  0.129  0.000  0.000  0.001  0.002  0.000  0.542
 
band     4 # energy    3.22150158 # occ.  2.00000000
 
ion      s     py     pz     px    dxy    dyz    dz2    dxz  x2-y2    tot
    1  0.014  0.000  0.001  0.062  0.000  0.000  0.000  0.007  0.006  0.091
    2  0.011  0.003  0.132  0.003  0.000  0.000  0.000  0.000  0.000  0.148
    3  0.011  0.003  0.132  0.003  0.000  0.000  0.000  0.000  0.000  0.148
tot    0.036  0.005  0.266  0.068  0.000  0.000  0.000  0.007  0.006  0.387
 
band     5 # energy    4.98376591 # occ.  2.00000085
 
ion      s     py     pz     px    dxy    dyz    dz2    dxz  x2-y2    tot
    1  0.000  0.061  0.000  0.000  0.016  0.007  0.000  0.000  0.000  0.084
    2  0.006  0.003  0.138  0.005  0.000  0.000  0.000  0.000  0.000  0.151
    3  0.006  0.003  0.138  0.005  0.000  0.000  0.000  0.000  0.000  0.151
tot    0.012  0.067  0.275  0.009  0.016  0.007  0.000  0.000  0.000  0.387
 
band     6 # energy   10.10535799 # occ.  0.00000000
 
ion      s     py     pz     px    dxy    dyz    dz2    dxz  x2-y2    tot
    1  0.311  0.000  0.023  0.012  0.000  0.000  0.000  0.001  0.000  0.348
    2  0.000  0.007  0.004  0.004  0.000  0.000  0.000  0.000  0.000  0.015
    3  0.000  0.007  0.004  0.004  0.000  0.000  0.000  0.000  0.000  0.015
tot    0.311  0.014  0.031  0.019  0.000  0.000  0.000  0.001  0.000  0.377
 
band     7 # energy   15.54487594 # occ.  0.00000000
 
ion      s     py     pz     px    dxy    dyz    dz2    dxz  x2-y2    tot
    1  0.001  0.000  0.030  0.017  0.000  0.000  0.009  0.006  0.010  0.072
    2  0.010  0.137  0.042  0.010  0.000  0.000  0.000  0.000  0.000  0.200
    3  0.010  0.137  0.042  0.010  0.000  0.000  0.000  0.000  0.000  0.200
tot    0.021  0.275  0.114  0.037  0.000  0.000  0.009  0.006  0.010  0.471
 
band     8 # energy   15.99396244 # occ.  0.00000000
 
ion      s     py     pz     px    dxy    dyz    dz2    dxz  x2-y2    tot
    1  0.000  0.004  0.000  0.000  0.018  0.000  0.000  0.000  0.000  0.022
    2  0.053  0.095  0.036  0.082  0.000  0.000  0.000  0.000  0.000  0.267
    3  0.053  0.095  0.036  0.082  0.000  0.000  0.000  0.000  0.000  0.267
tot    0.107  0.194  0.072  0.165  0.018  0.000  0.000  0.000  0.000  0.555
 

 k-point   158 :    0.37500000 0.29166667 0.33333333     weight = 0.00617284

band     1 # energy   -1.72419714 # occ.  2.00000000
 
ion      s     py     pz     px    dxy    dyz    dz2    dxz  x2-y2    tot
    1  0.002  0.007  0.002  0.005  0.001  0.004  0.000  0.003  0.000  0.024
    2  0.203  0.053  0.001  0.028  0.000  0.000  0.000  0.000  0.000  0.286
    3  0.203  0.053  0.001  0.028  0.000  0.000  0.000  0.000  0.000  0.286
tot    0.409  0.114  0.005  0.060  0.001  0.004  0.000  0.003  0.000  0.595
 
band     2 # energy   -1.03139308 # occ.  2.00000000
 
ion      s     py     pz     px    dxy    dyz    dz2    dxz  x2-y2    tot
    1  0.002  0.003  0.003  0.007  0.000  0.002  0.000  0.005  0.001  0.024
    2  0.182  0.026  0.001  0.080  0.000  0.000  0.000  0.000  0.000  0.289
    3  0.182  0.026  0.001  0.080  0.000  0.000  0.000  0.000  0.000  0.289
tot    0.365  0.055  0.005  0.167  0.000  0.002  0.000  0.005  0.001  0.601
 
band     3 # energy    0.18199802 # occ.  2.00000000
 
ion      s     py     pz     px    dxy    dyz    dz2    dxz  x2-y2    tot
    1  0.017  0.002  0.026  0.000  0.000  0.002  0.001  0.000  0.000  0.049
    2  0.020  0.127  0.000  0.097  0.000  0.000  0.000  0.000  0.000  0.245
    3  0.020  0.127  0.000  0.097  0.000  0.000  0.000  0.000  0.000  0.245
tot    0.058  0.257  0.026  0.195  0.000  0.002  0.001  0.000  0.000  0.539
 
band     4 # energy    3.66542481 # occ.  2.00000000
 
ion      s     py     pz     px    dxy    dyz    dz2    dxz  x2-y2    tot
    1  0.003  0.036  0.000  0.031  0.004  0.004  0.000  0.003  0.003  0.086
    2  0.009  0.003  0.135  0.003  0.000  0.000  0.000  0.000  0.000  0.151
    3  0.009  0.003  0.135  0.003  0.000  0.000  0.000  0.000  0.000  0.151
tot    0.022  0.042  0.271  0.037  0.004  0.004  0.000  0.003  0.003  0.387
 
band     5 # energy    4.55069583 # occ.  2.00000000
 
ion      s     py     pz     px    dxy    dyz    dz2    dxz  x2-y2    tot
    1  0.003  0.027  0.000  0.035  0.006  0.003  0.000  0.004  0.007  0.086
    2  0.007  0.004  0.136  0.004  0.000  0.000  0.000  0.000  0.000  0.150
    3  0.007  0.004  0.136  0.004  0.000  0.000  0.000  0.000  0.000  0.150
tot    0.017  0.034  0.272  0.042  0.006  0.003  0.000  0.004  0.007  0.387
 
band     6 # energy    9.90996775 # occ.  0.00000000
 
ion      s     py     pz     px    dxy    dyz    dz2    dxz  x2-y2    tot
    1  0.321  0.004  0.025  0.000  0.000  0.000  0.000  0.000  0.000  0.351
    2  0.000  0.005  0.002  0.005  0.000  0.000  0.000  0.000  0.000  0.012
    3  0.000  0.005  0.002  0.005  0.000  0.000  0.000  0.000  0.000  0.012
tot    0.321  0.015  0.028  0.010  0.000  0.000  0.000  0.000  0.000  0.376
 
band     7 # energy   15.76789544 # occ.  0.00000000
 
ion      s     py     pz     px    dxy    dyz    dz2    dxz  x2-y2    tot
    1  0.002  0.007  0.024  0.000  0.012  0.001  0.004  0.000  0.001  0.052
    2  0.032  0.099  0.033  0.064  0.000  0.000  0.000  0.000  0.000  0.228
    3  0.032  0.099  0.033  0.064  0.000  0.000  0.000  0.000  0.000  0.228
tot    0.066  0.205  0.090  0.128  0.012  0.001  0.004  0.000  0.001  0.508
 
band     8 # energy   16.22716541 # occ.  0.00000000
 
ion      s     py     pz     px    dxy    dyz    dz2    dxz  x2-y2    tot
    1  0.000  0.009  0.000  0.031  0.001  0.002  0.000  0.005  0.015  0.064
    2  0.009  0.059  0.083  0.076  0.000  0.000  0.000  0.000  0.000  0.226
    3  0.009  0.059  0.083  0.076  0.000  0.000  0.000  0.000  0.000  0.226
tot    0.018  0.127  0.165  0.183  0.001  0.002  0.000  0.005  0.015  0.517
 

 k-point   159 :    0.45833333 0.29166667 0.33333333     weight = 0.00617284

band     1 # energy   -2.74105448 # occ.  2.00000000
 
ion      s     py     pz     px    dxy    dyz    dz2    dxz  x2-y2    tot
    1  0.009  0.007  0.008  0.002  0.000  0.004  0.000  0.001  0.000  0.031
    2  0.198  0.054  0.001  0.016  0.000  0.000  0.000  0.000  0.000  0.270
    3  0.198  0.054  0.001  0.016  0.000  0.000  0.000  0.000  0.000  0.270
tot    0.406  0.115  0.011  0.034  0.000  0.004  0.000  0.001  0.000  0.572
 
band     2 # energy   -0.29036016 # occ.  2.00000000
 
ion      s     py     pz     px    dxy    dyz    dz2    dxz  x2-y2    tot
    1  0.001  0.004  0.002  0.005  0.000  0.003  0.000  0.004  0.001  0.022
    2  0.166  0.106  0.001  0.022  0.000  0.000  0.000  0.000  0.000  0.294
    3  0.166  0.106  0.001  0.022  0.000  0.000  0.000  0.000  0.000  0.294
tot    0.333  0.216  0.004  0.048  0.000  0.003  0.000  0.004  0.001  0.610
 
band     3 # energy    0.85949328 # occ.  2.00000000
 
ion      s     py     pz     px    dxy    dyz    dz2    dxz  x2-y2    tot
    1  0.011  0.002  0.020  0.004  0.000  0.001  0.001  0.003  0.000  0.042
    2  0.031  0.046  0.001  0.181  0.000  0.000  0.000  0.000  0.000  0.258
    3  0.031  0.046  0.001  0.181  0.000  0.000  0.000  0.000  0.000  0.258
tot    0.072  0.095  0.022  0.365  0.000  0.001  0.001  0.003  0.000  0.558
 
band     4 # energy    2.72233812 # occ.  2.00000000
 
ion      s     py     pz     px    dxy    dyz    dz2    dxz  x2-y2    tot
    1  0.027  0.046  0.002  0.010  0.003  0.005  0.000  0.001  0.001  0.096
    2  0.012  0.003  0.129  0.003  0.000  0.000  0.000  0.000  0.000  0.146
    3  0.012  0.003  0.129  0.003  0.000  0.000  0.000  0.000  0.000  0.146
tot    0.051  0.051  0.260  0.015  0.003  0.005  0.000  0.001  0.001  0.389
 
band     5 # energy    5.46703786 # occ. -0.05057638
 
ion      s     py     pz     px    dxy    dyz    dz2    dxz  x2-y2    tot
    1  0.003  0.015  0.000  0.041  0.004  0.002  0.000  0.005  0.016  0.085
    2  0.005  0.005  0.138  0.003  0.000  0.000  0.000  0.000  0.000  0.151
    3  0.005  0.005  0.138  0.003  0.000  0.000  0.000  0.000  0.000  0.151
tot    0.013  0.025  0.275  0.048  0.004  0.002  0.000  0.005  0.016  0.387
 
band     6 # energy   10.48703568 # occ.  0.00000000
 
ion      s     py     pz     px    dxy    dyz    dz2    dxz  x2-y2    tot
    1  0.293  0.013  0.020  0.011  0.000  0.001  0.001  0.001  0.000  0.341
    2  0.000  0.004  0.008  0.008  0.000  0.000  0.000  0.000  0.000  0.020
    3  0.000  0.004  0.008  0.008  0.000  0.000  0.000  0.000  0.000  0.020
tot    0.294  0.020  0.037  0.027  0.000  0.001  0.001  0.001  0.000  0.380
 
band     7 # energy   14.83866005 # occ.  0.00000000
 
ion      s     py     pz     px    dxy    dyz    dz2    dxz  x2-y2    tot
    1  0.001  0.005  0.031  0.000  0.002  0.004  0.010  0.000  0.007  0.060
    2  0.036  0.024  0.022  0.124  0.000  0.000  0.000  0.000  0.000  0.205
    3  0.036  0.024  0.022  0.124  0.000  0.000  0.000  0.000  0.000  0.205
tot    0.072  0.052  0.076  0.248  0.002  0.004  0.010  0.000  0.007  0.470
 
band     8 # energy   15.85454211 # occ.  0.00000000
 
ion      s     py     pz     px    dxy    dyz    dz2    dxz  x2-y2    tot
    1  0.002  0.023  0.001  0.003  0.009  0.004  0.003  0.002  0.004  0.050
    2  0.047  0.065  0.058  0.071  0.000  0.000  0.000  0.000  0.000  0.241
    3  0.047  0.065  0.058  0.071  0.000  0.000  0.000  0.000  0.000  0.241
tot    0.095  0.153  0.117  0.146  0.009  0.004  0.003  0.002  0.004  0.532
 

 k-point   160 :   -0.45833333 0.29166667 0.33333333     weight = 0.00617284

band     1 # energy   -3.65682447 # occ.  2.00000000
 
ion      s     py     pz     px    dxy    dyz    dz2    dxz  x2-y2    tot
    1  0.013  0.006  0.011  0.001  0.000  0.003  0.000  0.000  0.000  0.036
    2  0.206  0.046  0.001  0.007  0.000  0.000  0.000  0.000  0.000  0.261
    3  0.206  0.046  0.001  0.007  0.000  0.000  0.000  0.000  0.000  0.261
tot    0.426  0.099  0.014  0.015  0.000  0.003  0.000  0.000  0.000  0.558
 
band     2 # energy    0.22290309 # occ.  2.00000000
 
ion      s     py     pz     px    dxy    dyz    dz2    dxz  x2-y2    tot
    1  0.003  0.007  0.006  0.002  0.000  0.004  0.000  0.002  0.001  0.026
    2  0.132  0.148  0.001  0.006  0.000  0.000  0.000  0.000  0.000  0.287
    3  0.132  0.148  0.001  0.006  0.000  0.000  0.000  0.000  0.000  0.287
tot    0.268  0.303  0.009  0.013  0.000  0.004  0.000  0.002  0.001  0.600
 
band     3 # energy    1.74768384 # occ.  2.00000000
 
ion      s     py     pz     px    dxy    dyz    dz2    dxz  x2-y2    tot
    1  0.037  0.039  0.009  0.008  0.001  0.004  0.001  0.000  0.001  0.100
    2  0.010  0.005  0.117  0.014  0.000  0.000  0.000  0.000  0.000  0.146
    3  0.010  0.005  0.117  0.014  0.000  0.000  0.000  0.000  0.000  0.146
tot    0.057  0.049  0.244  0.035  0.001  0.004  0.001  0.000  0.001  0.391
 
band     4 # energy    2.17600223 # occ.  2.00000000
 
ion      s     py     pz     px    dxy    dyz    dz2    dxz  x2-y2    tot
    1  0.015  0.001  0.006  0.003  0.000  0.002  0.000  0.007  0.000  0.035
    2  0.040  0.012  0.007  0.223  0.000  0.000  0.000  0.000  0.000  0.282
    3  0.040  0.012  0.007  0.223  0.000  0.000  0.000  0.000  0.000  0.282
tot    0.095  0.024  0.020  0.450  0.000  0.002  0.000  0.007  0.000  0.599
 
band     5 # energy    6.41166109 # occ. -0.00000000
 
ion      s     py     pz     px    dxy    dyz    dz2    dxz  x2-y2    tot
    1  0.018  0.021  0.002  0.022  0.003  0.002  0.000  0.003  0.023  0.094
    2  0.003  0.007  0.135  0.003  0.000  0.000  0.000  0.000  0.000  0.147
    3  0.003  0.007  0.135  0.003  0.000  0.000  0.000  0.000  0.000  0.147
tot    0.023  0.035  0.272  0.028  0.003  0.002  0.000  0.003  0.023  0.388
 
band     6 # energy   11.68802795 # occ.  0.00000000
 
ion      s     py     pz     px    dxy    dyz    dz2    dxz  x2-y2    tot
    1  0.243  0.020  0.007  0.034  0.001  0.001  0.002  0.004  0.002  0.314
    2  0.006  0.002  0.018  0.020  0.000  0.000  0.000  0.000  0.000  0.045
    3  0.006  0.002  0.018  0.020  0.000  0.000  0.000  0.000  0.000  0.045
tot    0.254  0.023  0.042  0.074  0.001  0.001  0.002  0.004  0.002  0.403
 
band     7 # energy   13.19368360 # occ.  0.00000000
 
ion      s     py     pz     px    dxy    dyz    dz2    dxz  x2-y2    tot
    1  0.002  0.001  0.034  0.006  0.001  0.005  0.008  0.000  0.005  0.062
    2  0.076  0.028  0.015  0.071  0.000  0.000  0.000  0.000  0.000  0.191
    3  0.076  0.028  0.015  0.071  0.000  0.000  0.000  0.000  0.000  0.191
tot    0.155  0.058  0.065  0.148  0.001  0.005  0.008  0.000  0.005  0.444
 
band     8 # energy   15.38815794 # occ.  0.00000000
 
ion      s     py     pz     px    dxy    dyz    dz2    dxz  x2-y2    tot
    1  0.016  0.053  0.018  0.017  0.002  0.007  0.014  0.002  0.000  0.129
    2  0.031  0.017  0.107  0.020  0.000  0.000  0.000  0.000  0.000  0.175
    3  0.031  0.017  0.107  0.020  0.000  0.000  0.000  0.000  0.000  0.175
tot    0.078  0.087  0.233  0.056  0.002  0.007  0.014  0.002  0.000  0.480
 

 k-point   161 :   -0.37500000 0.29166667 0.33333333     weight = 0.00617284

band     1 # energy   -4.37905406 # occ.  2.00000000
 
ion      s     py     pz     px    dxy    dyz    dz2    dxz  x2-y2    tot
    1  0.017  0.005  0.013  0.000  0.000  0.002  0.000  0.000  0.000  0.038
    2  0.214  0.038  0.002  0.002  0.000  0.000  0.000  0.000  0.000  0.255
    3  0.214  0.038  0.002  0.002  0.000  0.000  0.000  0.000  0.000  0.255
tot    0.445  0.080  0.016  0.004  0.000  0.002  0.000  0.000  0.000  0.549
 
band     2 # energy    0.80703524 # occ.  2.00000000
 
ion      s     py     pz     px    dxy    dyz    dz2    dxz  x2-y2    tot
    1  0.002  0.022  0.013  0.000  0.000  0.002  0.001  0.000  0.001  0.041
    2  0.086  0.143  0.024  0.001  0.000  0.000  0.000  0.000  0.000  0.254
    3  0.086  0.143  0.024  0.001  0.000  0.000  0.000  0.000  0.000  0.254
tot    0.174  0.309  0.061  0.002  0.000  0.002  0.001  0.000  0.001  0.549
 
band     3 # energy    1.03028244 # occ.  2.00000000
 
ion      s     py     pz     px    dxy    dyz    dz2    dxz  x2-y2    tot
    1  0.065  0.017  0.003  0.002  0.000  0.007  0.000  0.000  0.002  0.096
    2  0.044  0.030  0.097  0.001  0.000  0.000  0.000  0.000  0.000  0.172
    3  0.044  0.030  0.097  0.001  0.000  0.000  0.000  0.000  0.000  0.172
tot    0.153  0.076  0.197  0.004  0.000  0.007  0.000  0.000  0.002  0.440
 
band     4 # energy    3.41795121 # occ.  2.00000000
 
ion      s     py     pz     px    dxy    dyz    dz2    dxz  x2-y2    tot
    1  0.002  0.000  0.003  0.006  0.000  0.001  0.000  0.009  0.000  0.021
    2  0.015  0.004  0.000  0.292  0.000  0.000  0.000  0.000  0.000  0.312
    3  0.015  0.004  0.000  0.292  0.000  0.000  0.000  0.000  0.000  0.312
tot    0.032  0.009  0.003  0.590  0.000  0.001  0.000  0.009  0.000  0.644
 
band     5 # energy    7.34349485 # occ. -0.00000000
 
ion      s     py     pz     px    dxy    dyz    dz2    dxz  x2-y2    tot
    1  0.028  0.027  0.004  0.006  0.001  0.003  0.000  0.001  0.029  0.100
    2  0.001  0.008  0.133  0.001  0.000  0.000  0.000  0.000  0.000  0.144
    3  0.001  0.008  0.133  0.001  0.000  0.000  0.000  0.000  0.000  0.144
tot    0.030  0.044  0.270  0.009  0.001  0.003  0.000  0.001  0.029  0.388
 
band     6 # energy   11.63218018 # occ.  0.00000000
 
ion      s     py     pz     px    dxy    dyz    dz2    dxz  x2-y2    tot
    1  0.039  0.011  0.016  0.000  0.000  0.003  0.010  0.000  0.005  0.085
    2  0.110  0.034  0.000  0.034  0.000  0.000  0.000  0.000  0.000  0.179
    3  0.110  0.034  0.000  0.034  0.000  0.000  0.000  0.000  0.000  0.179
tot    0.259  0.079  0.017  0.069  0.000  0.003  0.010  0.000  0.005  0.443
 
band     7 # energy   13.61799810 # occ.  0.00000000
 
ion      s     py     pz     px    dxy    dyz    dz2    dxz  x2-y2    tot
    1  0.172  0.006  0.009  0.060  0.007  0.007  0.001  0.005  0.001  0.268
    2  0.003  0.008  0.067  0.001  0.000  0.000  0.000  0.000  0.000  0.079
    3  0.003  0.008  0.067  0.001  0.000  0.000  0.000  0.000  0.000  0.079
tot    0.178  0.022  0.143  0.062  0.007  0.007  0.001  0.005  0.001  0.426
 
band     8 # energy   14.89850410 # occ.  0.00000000
 
ion      s     py     pz     px    dxy    dyz    dz2    dxz  x2-y2    tot
    1  0.010  0.055  0.034  0.034  0.000  0.004  0.024  0.000  0.000  0.161
    2  0.033  0.006  0.093  0.004  0.000  0.000  0.000  0.000  0.000  0.136
    3  0.033  0.006  0.093  0.004  0.000  0.000  0.000  0.000  0.000  0.136
tot    0.077  0.068  0.219  0.042  0.000  0.004  0.024  0.000  0.000  0.433
 

 k-point   162 :   -0.29166667 0.29166667 0.33333333     weight = 0.00308642

band     1 # energy   -4.88735492 # occ.  2.00000000
 
ion      s     py     pz     px    dxy    dyz    dz2    dxz  x2-y2    tot
    1  0.020  0.004  0.014  0.000  0.000  0.002  0.000  0.000  0.000  0.040
    2  0.220  0.029  0.002  0.000  0.000  0.000  0.000  0.000  0.000  0.251
    3  0.220  0.029  0.002  0.000  0.000  0.000  0.000  0.000  0.000  0.251
tot    0.460  0.063  0.018  0.000  0.000  0.002  0.000  0.000  0.000  0.542
 
band     2 # energy    0.42355212 # occ.  2.00000000
 
ion      s     py     pz     px    dxy    dyz    dz2    dxz  x2-y2    tot
    1  0.072  0.027  0.012  0.000  0.000  0.002  0.001  0.000  0.000  0.114
    2  0.013  0.004  0.118  0.000  0.000  0.000  0.000  0.000  0.000  0.135
    3  0.013  0.004  0.118  0.000  0.000  0.000  0.000  0.000  0.000  0.135
tot    0.098  0.035  0.248  0.000  0.000  0.002  0.001  0.000  0.000  0.384
 
band     3 # energy    1.62842509 # occ.  2.00000000
 
ion      s     py     pz     px    dxy    dyz    dz2    dxz  x2-y2    tot
    1  0.007  0.004  0.004  0.000  0.000  0.007  0.000  0.000  0.002  0.024
    2  0.104  0.189  0.001  0.000  0.000  0.000  0.000  0.000  0.000  0.295
    3  0.104  0.189  0.001  0.000  0.000  0.000  0.000  0.000  0.000  0.295
tot    0.215  0.383  0.006  0.000  0.000  0.007  0.000  0.000  0.002  0.614
 
band     4 # energy    4.13204836 # occ.  2.00000000
 
ion      s     py     pz     px    dxy    dyz    dz2    dxz  x2-y2    tot
    1  0.000  0.000  0.000  0.006  0.001  0.000  0.000  0.009  0.000  0.016
    2  0.000  0.000  0.000  0.326  0.000  0.000  0.000  0.000  0.000  0.326
    3  0.000  0.000  0.000  0.326  0.000  0.000  0.000  0.000  0.000  0.326
tot    0.000  0.000  0.000  0.657  0.001  0.000  0.000  0.009  0.000  0.667
 
band     5 # energy    8.28702462 # occ.  0.00000000
 
ion      s     py     pz     px    dxy    dyz    dz2    dxz  x2-y2    tot
    1  0.024  0.029  0.004  0.000  0.000  0.004  0.000  0.000  0.036  0.097
    2  0.001  0.010  0.137  0.000  0.000  0.000  0.000  0.000  0.000  0.147
    3  0.001  0.010  0.137  0.000  0.000  0.000  0.000  0.000  0.000  0.147
tot    0.025  0.048  0.279  0.000  0.000  0.004  0.000  0.000  0.036  0.392
 
band     6 # energy   11.22160781 # occ.  0.00000000
 
ion      s     py     pz     px    dxy    dyz    dz2    dxz  x2-y2    tot
    1  0.024  0.014  0.018  0.000  0.000  0.006  0.010  0.000  0.003  0.075
    2  0.119  0.053  0.003  0.000  0.000  0.000  0.000  0.000  0.000  0.175
    3  0.119  0.053  0.003  0.000  0.000  0.000  0.000  0.000  0.000  0.175
tot    0.263  0.120  0.023  0.000  0.000  0.006  0.010  0.000  0.003  0.425
 
band     7 # energy   14.17686602 # occ.  0.00000000
 
ion      s     py     pz     px    dxy    dyz    dz2    dxz  x2-y2    tot
    1  0.122  0.011  0.013  0.000  0.000  0.007  0.022  0.000  0.000  0.176
    2  0.028  0.005  0.144  0.000  0.000  0.000  0.000  0.000  0.000  0.178
    3  0.028  0.005  0.144  0.000  0.000  0.000  0.000  0.000  0.000  0.178
tot    0.178  0.022  0.301  0.000  0.000  0.007  0.022  0.000  0.000  0.531
 
band     8 # energy   15.71888931 # occ.  0.00000000
 
ion      s     py     pz     px    dxy    dyz    dz2    dxz  x2-y2    tot
    1  0.000  0.000  0.000  0.219  0.030  0.000  0.000  0.009  0.000  0.257
    2  0.000  0.000  0.000  0.011  0.000  0.000  0.000  0.000  0.000  0.011
    3  0.000  0.000  0.000  0.011  0.000  0.000  0.000  0.000  0.000  0.011
tot    0.000  0.000  0.000  0.241  0.030  0.000  0.000  0.009  0.000  0.280
 

 k-point   163 :    0.37500000 0.37500000 0.33333333     weight = 0.00308642

band     1 # energy   -1.83976876 # occ.  2.00000000
 
ion      s     py     pz     px    dxy    dyz    dz2    dxz  x2-y2    tot
    1  0.000  0.013  0.000  0.000  0.001  0.008  0.000  0.000  0.000  0.022
    2  0.218  0.044  0.001  0.025  0.000  0.000  0.000  0.000  0.000  0.288
    3  0.218  0.044  0.001  0.025  0.000  0.000  0.000  0.000  0.000  0.288
tot    0.436  0.101  0.003  0.050  0.001  0.008  0.000  0.000  0.000  0.599
 
band     2 # energy   -1.25590136 # occ.  2.00000000
 
ion      s     py     pz     px    dxy    dyz    dz2    dxz  x2-y2    tot
    1  0.010  0.000  0.012  0.006  0.000  0.000  0.000  0.004  0.001  0.034
    2  0.139  0.130  0.001  0.000  0.000  0.000  0.000  0.000  0.000  0.270
    3  0.139  0.130  0.001  0.000  0.000  0.000  0.000  0.000  0.000  0.270
tot    0.288  0.261  0.014  0.006  0.000  0.000  0.000  0.004  0.001  0.574
 
band     3 # energy    0.64497210 # occ.  2.00000000
 
ion      s     py     pz     px    dxy    dyz    dz2    dxz  x2-y2    tot
    1  0.011  0.000  0.018  0.005  0.000  0.000  0.001  0.004  0.000  0.040
    2  0.045  0.024  0.000  0.193  0.000  0.000  0.000  0.000  0.000  0.262
    3  0.045  0.024  0.000  0.193  0.000  0.000  0.000  0.000  0.000  0.262
tot    0.100  0.049  0.019  0.391  0.000  0.000  0.001  0.004  0.000  0.564
 
band     4 # energy    3.44600089 # occ.  2.00000000
 
ion      s     py     pz     px    dxy    dyz    dz2    dxz  x2-y2    tot
    1  0.000  0.071  0.000  0.000  0.006  0.008  0.000  0.000  0.000  0.085
    2  0.010  0.003  0.136  0.002  0.000  0.000  0.000  0.000  0.000  0.151
    3  0.010  0.003  0.136  0.002  0.000  0.000  0.000  0.000  0.000  0.151
tot    0.020  0.078  0.272  0.004  0.006  0.008  0.000  0.000  0.000  0.387
 
band     5 # energy    4.69361743 # occ.  2.00000000
 
ion      s     py     pz     px    dxy    dyz    dz2    dxz  x2-y2    tot
    1  0.021  0.000  0.002  0.051  0.000  0.000  0.000  0.006  0.015  0.095
    2  0.006  0.005  0.131  0.003  0.000  0.000  0.000  0.000  0.000  0.145
    3  0.006  0.005  0.131  0.003  0.000  0.000  0.000  0.000  0.000  0.145
tot    0.033  0.010  0.264  0.057  0.000  0.000  0.000  0.006  0.015  0.386
 
band     6 # energy   10.16612664 # occ.  0.00000000
 
ion      s     py     pz     px    dxy    dyz    dz2    dxz  x2-y2    tot
    1  0.305  0.000  0.022  0.014  0.000  0.000  0.000  0.001  0.001  0.343
    2  0.000  0.003  0.007  0.008  0.000  0.000  0.000  0.000  0.000  0.018
    3  0.000  0.003  0.007  0.008  0.000  0.000  0.000  0.000  0.000  0.018
tot    0.305  0.006  0.035  0.030  0.000  0.000  0.000  0.001  0.001  0.378
 
band     7 # energy   14.90479501 # occ.  0.00000000
 
ion      s     py     pz     px    dxy    dyz    dz2    dxz  x2-y2    tot
    1  0.002  0.000  0.032  0.000  0.000  0.000  0.006  0.000  0.010  0.050
    2  0.062  0.015  0.013  0.133  0.000  0.000  0.000  0.000  0.000  0.223
    3  0.062  0.015  0.013  0.133  0.000  0.000  0.000  0.000  0.000  0.223
tot    0.126  0.030  0.058  0.267  0.000  0.000  0.006  0.000  0.010  0.496
 
band     8 # energy   16.23622256 # occ.  0.00000000
 
ion      s     py     pz     px    dxy    dyz    dz2    dxz  x2-y2    tot
    1  0.000  0.065  0.000  0.000  0.012  0.013  0.000  0.000  0.000  0.090
    2  0.000  0.054  0.107  0.044  0.000  0.000  0.000  0.000  0.000  0.204
    3  0.000  0.054  0.107  0.044  0.000  0.000  0.000  0.000  0.000  0.204
tot    0.000  0.172  0.213  0.088  0.012  0.013  0.000  0.000  0.000  0.498
 

 k-point   164 :    0.45833333 0.37500000 0.33333333     weight = 0.00617284

band     1 # energy   -2.60108473 # occ.  2.00000000
 
ion      s     py     pz     px    dxy    dyz    dz2    dxz  x2-y2    tot
    1  0.006  0.010  0.006  0.001  0.000  0.005  0.000  0.000  0.000  0.029
    2  0.205  0.058  0.001  0.008  0.000  0.000  0.000  0.000  0.000  0.274
    3  0.205  0.058  0.001  0.008  0.000  0.000  0.000  0.000  0.000  0.274
tot    0.417  0.127  0.009  0.017  0.000  0.005  0.000  0.000  0.000  0.577
 
band     2 # energy   -1.15380604 # occ.  2.00000000
 
ion      s     py     pz     px    dxy    dyz    dz2    dxz  x2-y2    tot
    1  0.010  0.004  0.012  0.002  0.000  0.003  0.000  0.001  0.001  0.034
    2  0.137  0.129  0.001  0.003  0.000  0.000  0.000  0.000  0.000  0.270
    3  0.137  0.129  0.001  0.003  0.000  0.000  0.000  0.000  0.000  0.270
tot    0.284  0.263  0.014  0.008  0.000  0.003  0.000  0.001  0.001  0.574
 
band     3 # energy    1.88503421 # occ.  2.00000000
 
ion      s     py     pz     px    dxy    dyz    dz2    dxz  x2-y2    tot
    1  0.004  0.000  0.010  0.007  0.000  0.000  0.001  0.007  0.001  0.030
    2  0.041  0.008  0.001  0.235  0.000  0.000  0.000  0.000  0.000  0.286
    3  0.041  0.008  0.001  0.235  0.000  0.000  0.000  0.000  0.000  0.286
tot    0.086  0.017  0.012  0.477  0.000  0.000  0.001  0.007  0.001  0.601
 
band     4 # energy    2.75024971 # occ.  2.00000000
 
ion      s     py     pz     px    dxy    dyz    dz2    dxz  x2-y2    tot
    1  0.014  0.064  0.001  0.001  0.002  0.007  0.000  0.000  0.001  0.090
    2  0.012  0.003  0.132  0.002  0.000  0.000  0.000  0.000  0.000  0.150
    3  0.012  0.003  0.132  0.002  0.000  0.000  0.000  0.000  0.000  0.150
tot    0.038  0.070  0.265  0.006  0.002  0.007  0.000  0.000  0.001  0.390
 
band     5 # energy    5.14487117 # occ.  2.00737059
 
ion      s     py     pz     px    dxy    dyz    dz2    dxz  x2-y2    tot
    1  0.052  0.008  0.006  0.023  0.001  0.001  0.000  0.003  0.019  0.113
    2  0.004  0.006  0.122  0.003  0.000  0.000  0.000  0.000  0.000  0.135
    3  0.004  0.006  0.122  0.003  0.000  0.000  0.000  0.000  0.000  0.135
tot    0.061  0.021  0.249  0.028  0.001  0.001  0.000  0.003  0.019  0.383
 
band     6 # energy   11.25974252 # occ.  0.00000000
 
ion      s     py     pz     px    dxy    dyz    dz2    dxz  x2-y2    tot
    1  0.251  0.002  0.009  0.039  0.000  0.000  0.002  0.004  0.004  0.313
    2  0.005  0.001  0.019  0.018  0.000  0.000  0.000  0.000  0.000  0.043
    3  0.005  0.001  0.019  0.018  0.000  0.000  0.000  0.000  0.000  0.043
tot    0.261  0.003  0.048  0.076  0.000  0.000  0.002  0.004  0.004  0.398
 
band     7 # energy   13.11688254 # occ.  0.00000000
 
ion      s     py     pz     px    dxy    dyz    dz2    dxz  x2-y2    tot
    1  0.000  0.000  0.038  0.007  0.000  0.001  0.006  0.000  0.005  0.058
    2  0.098  0.016  0.011  0.073  0.000  0.000  0.000  0.000  0.000  0.198
    3  0.098  0.016  0.011  0.073  0.000  0.000  0.000  0.000  0.000  0.198
tot    0.196  0.032  0.059  0.154  0.000  0.001  0.006  0.000  0.005  0.454
 
band     8 # energy   15.99312528 # occ.  0.00000000
 
ion      s     py     pz     px    dxy    dyz    dz2    dxz  x2-y2    tot
    1  0.004  0.080  0.004  0.004  0.005  0.017  0.003  0.000  0.000  0.116
    2  0.009  0.035  0.121  0.017  0.000  0.000  0.000  0.000  0.000  0.183
    3  0.009  0.035  0.121  0.017  0.000  0.000  0.000  0.000  0.000  0.183
tot    0.022  0.150  0.246  0.039  0.005  0.017  0.003  0.000  0.000  0.482
 

 k-point   165 :   -0.45833333 0.37500000 0.33333333     weight = 0.00617284

band     1 # energy   -3.38522910 # occ.  2.00000000
 
ion      s     py     pz     px    dxy    dyz    dz2    dxz  x2-y2    tot
    1  0.011  0.008  0.010  0.000  0.000  0.004  0.000  0.000  0.000  0.034
    2  0.206  0.055  0.001  0.002  0.000  0.000  0.000  0.000  0.000  0.264
    3  0.206  0.055  0.001  0.002  0.000  0.000  0.000  0.000  0.000  0.264
tot    0.423  0.118  0.013  0.004  0.000  0.004  0.000  0.000  0.000  0.562
 
band     2 # energy   -0.68440523 # occ.  2.00000000
 
ion      s     py     pz     px    dxy    dyz    dz2    dxz  x2-y2    tot
    1  0.008  0.007  0.011  0.000  0.000  0.004  0.000  0.000  0.001  0.032
    2  0.134  0.138  0.001  0.001  0.000  0.000  0.000  0.000  0.000  0.274
    3  0.134  0.138  0.001  0.001  0.000  0.000  0.000  0.000  0.000  0.274
tot    0.275  0.282  0.013  0.003  0.000  0.004  0.000  0.000  0.001  0.579
 
band     3 # energy    2.00933164 # occ.  2.00000000
 
ion      s     py     pz     px    dxy    dyz    dz2    dxz  x2-y2    tot
    1  0.034  0.052  0.005  0.001  0.000  0.006  0.000  0.000  0.001  0.100
    2  0.013  0.003  0.127  0.001  0.000  0.000  0.000  0.000  0.000  0.144
    3  0.013  0.003  0.127  0.001  0.000  0.000  0.000  0.000  0.000  0.144
tot    0.060  0.059  0.258  0.003  0.000  0.006  0.000  0.000  0.001  0.387
 
band     4 # energy    3.06681494 # occ.  2.00000000
 
ion      s     py     pz     px    dxy    dyz    dz2    dxz  x2-y2    tot
    1  0.002  0.000  0.003  0.007  0.000  0.000  0.000  0.010  0.000  0.022
    2  0.017  0.002  0.001  0.290  0.000  0.000  0.000  0.000  0.000  0.310
    3  0.017  0.002  0.001  0.290  0.000  0.000  0.000  0.000  0.000  0.310
tot    0.036  0.005  0.004  0.586  0.000  0.000  0.000  0.010  0.000  0.642
 
band     5 # energy    5.75091150 # occ. -0.00000080
 
ion      s     py     pz     px    dxy    dyz    dz2    dxz  x2-y2    tot
    1  0.060  0.019  0.008  0.005  0.000  0.002  0.000  0.001  0.023  0.120
    2  0.002  0.008  0.119  0.001  0.000  0.000  0.000  0.000  0.000  0.131
    3  0.002  0.008  0.119  0.001  0.000  0.000  0.000  0.000  0.000  0.131
tot    0.065  0.035  0.246  0.008  0.000  0.002  0.000  0.001  0.023  0.381
 
band     6 # energy   11.39784526 # occ.  0.00000000
 
ion      s     py     pz     px    dxy    dyz    dz2    dxz  x2-y2    tot
    1  0.057  0.003  0.015  0.001  0.000  0.001  0.008  0.001  0.009  0.096
    2  0.126  0.015  0.000  0.034  0.000  0.000  0.000  0.000  0.000  0.175
    3  0.126  0.015  0.000  0.034  0.000  0.000  0.000  0.000  0.000  0.175
tot    0.310  0.034  0.015  0.070  0.000  0.001  0.008  0.001  0.009  0.447
 
band     7 # energy   13.26233808 # occ.  0.00000000
 
ion      s     py     pz     px    dxy    dyz    dz2    dxz  x2-y2    tot
    1  0.146  0.002  0.022  0.078  0.002  0.002  0.000  0.005  0.002  0.260
    2  0.010  0.007  0.050  0.000  0.000  0.000  0.000  0.000  0.000  0.068
    3  0.010  0.007  0.050  0.000  0.000  0.000  0.000  0.000  0.000  0.068
tot    0.167  0.016  0.122  0.078  0.002  0.002  0.000  0.005  0.002  0.395
 
band     8 # energy   15.55549871 # occ.  0.00000000
 
ion      s     py     pz     px    dxy    dyz    dz2    dxz  x2-y2    tot
    1  0.017  0.070  0.014  0.017  0.000  0.014  0.010  0.000  0.000  0.142
    2  0.020  0.021  0.121  0.003  0.000  0.000  0.000  0.000  0.000  0.164
    3  0.020  0.021  0.121  0.003  0.000  0.000  0.000  0.000  0.000  0.164
tot    0.056  0.112  0.255  0.024  0.000  0.014  0.010  0.000  0.000  0.470
 

 k-point   166 :   -0.37500000 0.37500000 0.33333333     weight = 0.00308642

band     1 # energy   -3.98808413 # occ.  2.00000000
 
ion      s     py     pz     px    dxy    dyz    dz2    dxz  x2-y2    tot
    1  0.015  0.006  0.012  0.000  0.000  0.003  0.000  0.000  0.000  0.037
    2  0.210  0.047  0.002  0.000  0.000  0.000  0.000  0.000  0.000  0.259
    3  0.210  0.047  0.002  0.000  0.000  0.000  0.000  0.000  0.000  0.259
tot    0.436  0.100  0.015  0.000  0.000  0.003  0.000  0.000  0.000  0.554
 
band     2 # energy   -0.00223298 # occ.  2.00000000
 
ion      s     py     pz     px    dxy    dyz    dz2    dxz  x2-y2    tot
    1  0.005  0.008  0.010  0.000  0.000  0.005  0.001  0.000  0.001  0.030
    2  0.124  0.153  0.001  0.000  0.000  0.000  0.000  0.000  0.000  0.278
    3  0.124  0.153  0.001  0.000  0.000  0.000  0.000  0.000  0.000  0.278
tot    0.253  0.314  0.013  0.000  0.000  0.005  0.001  0.000  0.001  0.587
 
band     3 # energy    1.40579004 # occ.  2.00000000
 
ion      s     py     pz     px    dxy    dyz    dz2    dxz  x2-y2    tot
    1  0.054  0.040  0.006  0.000  0.000  0.005  0.001  0.000  0.001  0.107
    2  0.015  0.003  0.122  0.000  0.000  0.000  0.000  0.000  0.000  0.141
    3  0.015  0.003  0.122  0.000  0.000  0.000  0.000  0.000  0.000  0.141
tot    0.085  0.046  0.251  0.000  0.000  0.005  0.001  0.000  0.001  0.389
 
band     4 # energy    3.68390688 # occ.  2.00000000
 
ion      s     py     pz     px    dxy    dyz    dz2    dxz  x2-y2    tot
    1  0.000  0.000  0.000  0.006  0.000  0.000  0.000  0.010  0.000  0.017
    2  0.000  0.000  0.000  0.323  0.000  0.000  0.000  0.000  0.000  0.323
    3  0.000  0.000  0.000  0.323  0.000  0.000  0.000  0.000  0.000  0.323
tot    0.000  0.000  0.000  0.653  0.000  0.000  0.000  0.010  0.000  0.664
 
band     5 # energy    6.51165961 # occ. -0.00000000
 
ion      s     py     pz     px    dxy    dyz    dz2    dxz  x2-y2    tot
    1  0.051  0.027  0.008  0.000  0.000  0.003  0.000  0.000  0.027  0.115
    2  0.001  0.009  0.123  0.000  0.000  0.000  0.000  0.000  0.000  0.133
    3  0.001  0.009  0.123  0.000  0.000  0.000  0.000  0.000  0.000  0.133
tot    0.053  0.045  0.253  0.000  0.000  0.003  0.000  0.000  0.027  0.381
 
band     6 # energy   10.93748547 # occ.  0.00000000
 
ion      s     py     pz     px    dxy    dyz    dz2    dxz  x2-y2    tot
    1  0.036  0.005  0.021  0.000  0.000  0.002  0.009  0.000  0.007  0.079
    2  0.147  0.026  0.001  0.000  0.000  0.000  0.000  0.000  0.000  0.174
    3  0.147  0.026  0.001  0.000  0.000  0.000  0.000  0.000  0.000  0.174
tot    0.329  0.058  0.022  0.000  0.000  0.002  0.009  0.000  0.007  0.427
 
band     7 # energy   14.74678173 # occ.  0.00000000
 
ion      s     py     pz     px    dxy    dyz    dz2    dxz  x2-y2    tot
    1  0.178  0.009  0.000  0.000  0.000  0.011  0.006  0.000  0.002  0.207
    2  0.011  0.014  0.157  0.000  0.000  0.000  0.000  0.000  0.000  0.182
    3  0.011  0.014  0.157  0.000  0.000  0.000  0.000  0.000  0.000  0.182
tot    0.200  0.037  0.314  0.000  0.000  0.011  0.006  0.000  0.002  0.570
 
band     8 # energy   15.28168126 # occ.  0.00000000
 
ion      s     py     pz     px    dxy    dyz    dz2    dxz  x2-y2    tot
    1  0.000  0.000  0.000  0.232  0.011  0.000  0.000  0.013  0.000  0.256
    2  0.000  0.000  0.000  0.007  0.000  0.000  0.000  0.000  0.000  0.007
    3  0.000  0.000  0.000  0.007  0.000  0.000  0.000  0.000  0.000  0.007
tot    0.000  0.000  0.000  0.245  0.011  0.000  0.000  0.013  0.000  0.269
 

 k-point   167 :    0.45833333 0.45833333 0.33333333     weight = 0.00308642

band     1 # energy   -2.45927691 # occ.  2.00000000
 
ion      s     py     pz     px    dxy    dyz    dz2    dxz  x2-y2    tot
    1  0.000  0.015  0.000  0.000  0.000  0.008  0.000  0.000  0.000  0.023
    2  0.235  0.044  0.002  0.003  0.000  0.000  0.000  0.000  0.000  0.284
    3  0.235  0.044  0.002  0.003  0.000  0.000  0.000  0.000  0.000  0.284
tot    0.470  0.103  0.003  0.006  0.000  0.008  0.000  0.000  0.000  0.590
 
band     2 # energy   -1.79383940 # occ.  2.00000000
 
ion      s     py     pz     px    dxy    dyz    dz2    dxz  x2-y2    tot
    1  0.019  0.000  0.021  0.001  0.000  0.000  0.001  0.000  0.001  0.044
    2  0.108  0.143  0.001  0.000  0.000  0.000  0.000  0.000  0.000  0.253
    3  0.108  0.143  0.001  0.000  0.000  0.000  0.000  0.000  0.000  0.253
tot    0.236  0.287  0.023  0.001  0.000  0.000  0.001  0.000  0.001  0.549
 
band     3 # energy    2.67463305 # occ.  2.00000000
 
ion      s     py     pz     px    dxy    dyz    dz2    dxz  x2-y2    tot
    1  0.000  0.076  0.000  0.000  0.001  0.008  0.000  0.000  0.000  0.085
    2  0.012  0.003  0.136  0.000  0.000  0.000  0.000  0.000  0.000  0.152
    3  0.012  0.003  0.136  0.000  0.000  0.000  0.000  0.000  0.000  0.152
tot    0.025  0.082  0.272  0.000  0.001  0.008  0.000  0.000  0.000  0.389
 
band     4 # energy    2.94158567 # occ.  2.00000000
 
ion      s     py     pz     px    dxy    dyz    dz2    dxz  x2-y2    tot
    1  0.001  0.000  0.004  0.007  0.000  0.000  0.000  0.010  0.000  0.022
    2  0.017  0.002  0.000  0.289  0.000  0.000  0.000  0.000  0.000  0.308
    3  0.017  0.002  0.000  0.289  0.000  0.000  0.000  0.000  0.000  0.308
tot    0.034  0.005  0.005  0.585  0.000  0.000  0.000  0.010  0.000  0.638
 
band     5 # energy    4.89211235 # occ.  2.00000000
 
ion      s     py     pz     px    dxy    dyz    dz2    dxz  x2-y2    tot
    1  0.097  0.000  0.012  0.006  0.000  0.000  0.000  0.001  0.022  0.138
    2  0.003  0.008  0.107  0.002  0.000  0.000  0.000  0.000  0.000  0.120
    3  0.003  0.008  0.107  0.002  0.000  0.000  0.000  0.000  0.000  0.120
tot    0.102  0.015  0.227  0.010  0.000  0.000  0.000  0.001  0.022  0.378
 
band     6 # energy   11.31117283 # occ.  0.00000000
 
ion      s     py     pz     px    dxy    dyz    dz2    dxz  x2-y2    tot
    1  0.065  0.000  0.015  0.002  0.000  0.000  0.008  0.001  0.010  0.101
    2  0.130  0.009  0.000  0.034  0.000  0.000  0.000  0.000  0.000  0.174
    3  0.130  0.009  0.000  0.034  0.000  0.000  0.000  0.000  0.000  0.174
tot    0.325  0.019  0.015  0.070  0.000  0.000  0.008  0.001  0.010  0.448
 
band     7 # energy   13.13559839 # occ.  0.00000000
 
ion      s     py     pz     px    dxy    dyz    dz2    dxz  x2-y2    tot
    1  0.139  0.000  0.026  0.082  0.000  0.000  0.000  0.005  0.002  0.254
    2  0.014  0.006  0.048  0.000  0.000  0.000  0.000  0.000  0.000  0.068
    3  0.014  0.006  0.048  0.000  0.000  0.000  0.000  0.000  0.000  0.068
tot    0.167  0.012  0.121  0.082  0.000  0.000  0.000  0.005  0.002  0.390
 
band     8 # energy   15.98428608 # occ.  0.00000000
 
ion      s     py     pz     px    dxy    dyz    dz2    dxz  x2-y2    tot
    1  0.000  0.097  0.000  0.000  0.001  0.022  0.000  0.000  0.000  0.120
    2  0.011  0.034  0.129  0.004  0.000  0.000  0.000  0.000  0.000  0.178
    3  0.011  0.034  0.129  0.004  0.000  0.000  0.000  0.000  0.000  0.178
tot    0.021  0.166  0.258  0.009  0.001  0.022  0.000  0.000  0.000  0.476
 

 k-point   168 :   -0.45833333 0.45833333 0.33333333     weight = 0.00308642

band     1 # energy   -2.91876717 # occ.  2.00000000
 
ion      s     py     pz     px    dxy    dyz    dz2    dxz  x2-y2    tot
    1  0.007  0.010  0.007  0.000  0.000  0.005  0.000  0.000  0.000  0.031
    2  0.210  0.059  0.001  0.000  0.000  0.000  0.000  0.000  0.000  0.270
    3  0.210  0.059  0.001  0.000  0.000  0.000  0.000  0.000  0.000  0.270
tot    0.428  0.128  0.010  0.000  0.000  0.005  0.000  0.000  0.000  0.571
 
band     2 # energy   -1.44194885 # occ.  2.00000000
 
ion      s     py     pz     px    dxy    dyz    dz2    dxz  x2-y2    tot
    1  0.013  0.005  0.015  0.000  0.000  0.003  0.001  0.000  0.001  0.037
    2  0.133  0.130  0.001  0.000  0.000  0.000  0.000  0.000  0.000  0.264
    3  0.133  0.130  0.001  0.000  0.000  0.000  0.000  0.000  0.000  0.264
tot    0.278  0.265  0.017  0.000  0.000  0.003  0.001  0.000  0.001  0.565
 
band     3 # energy    2.37163408 # occ.  2.00000000
 
ion      s     py     pz     px    dxy    dyz    dz2    dxz  x2-y2    tot
    1  0.014  0.067  0.002  0.000  0.000  0.007  0.000  0.000  0.001  0.091
    2  0.013  0.004  0.132  0.000  0.000  0.000  0.000  0.000  0.000  0.149
    3  0.013  0.004  0.132  0.000  0.000  0.000  0.000  0.000  0.000  0.149
tot    0.040  0.074  0.266  0.000  0.000  0.007  0.000  0.000  0.001  0.388
 
band     4 # energy    3.45357103 # occ.  2.00000000
 
ion      s     py     pz     px    dxy    dyz    dz2    dxz  x2-y2    tot
    1  0.000  0.000  0.000  0.007  0.000  0.000  0.000  0.011  0.000  0.018
    2  0.000  0.000  0.000  0.323  0.000  0.000  0.000  0.000  0.000  0.323
    3  0.000  0.000  0.000  0.323  0.000  0.000  0.000  0.000  0.000  0.323
tot    0.000  0.000  0.000  0.652  0.000  0.000  0.000  0.011  0.000  0.663
 
band     5 # energy    5.12633116 # occ.  2.00349566
 
ion      s     py     pz     px    dxy    dyz    dz2    dxz  x2-y2    tot
    1  0.091  0.008  0.013  0.000  0.000  0.001  0.001  0.000  0.023  0.137
    2  0.002  0.009  0.109  0.000  0.000  0.000  0.000  0.000  0.000  0.119
    3  0.002  0.009  0.109  0.000  0.000  0.000  0.000  0.000  0.000  0.119
tot    0.095  0.025  0.230  0.000  0.000  0.001  0.001  0.000  0.023  0.374
 
band     6 # energy   10.78379608 # occ.  0.00000000
 
ion      s     py     pz     px    dxy    dyz    dz2    dxz  x2-y2    tot
    1  0.042  0.001  0.022  0.000  0.000  0.000  0.008  0.000  0.009  0.082
    2  0.159  0.014  0.000  0.000  0.000  0.000  0.000  0.000  0.000  0.173
    3  0.159  0.014  0.000  0.000  0.000  0.000  0.000  0.000  0.000  0.173
tot    0.361  0.028  0.022  0.000  0.000  0.000  0.008  0.000  0.009  0.428
 
band     7 # energy   14.94665159 # occ.  0.00000000
 
ion      s     py     pz     px    dxy    dyz    dz2    dxz  x2-y2    tot
    1  0.243  0.000  0.015  0.000  0.000  0.002  0.000  0.000  0.011  0.271
    2  0.003  0.010  0.142  0.000  0.000  0.000  0.000  0.000  0.000  0.156
    3  0.003  0.010  0.142  0.000  0.000  0.000  0.000  0.000  0.000  0.156
tot    0.249  0.021  0.300  0.000  0.000  0.002  0.000  0.000  0.011  0.583
 
band     8 # energy   15.05667562 # occ.  0.00000000
 
ion      s     py     pz     px    dxy    dyz    dz2    dxz  x2-y2    tot
    1  0.000  0.000  0.000  0.239  0.001  0.000  0.000  0.014  0.000  0.254
    2  0.000  0.000  0.000  0.006  0.000  0.000  0.000  0.000  0.000  0.006
    3  0.000  0.000  0.000  0.006  0.000  0.000  0.000  0.000  0.000  0.006
tot    0.000  0.000  0.000  0.252  0.001  0.000  0.000  0.014  0.000  0.267
 

 k-point   169 :    0.04166667 0.04166667 0.44444444     weight = 0.00308642

band     1 # energy   -5.83105184 # occ.  2.00000000
 
ion      s     py     pz     px    dxy    dyz    dz2    dxz  x2-y2    tot
    1  0.005  0.000  0.027  0.000  0.000  0.000  0.000  0.000  0.000  0.032
    2  0.256  0.000  0.001  0.002  0.000  0.000  0.000  0.000  0.000  0.259
    3  0.256  0.000  0.001  0.002  0.000  0.000  0.000  0.000  0.000  0.259
tot    0.517  0.000  0.028  0.004  0.000  0.000  0.000  0.000  0.000  0.550
 
band     2 # energy   -1.89843206 # occ.  2.00000000
 
ion      s     py     pz     px    dxy    dyz    dz2    dxz  x2-y2    tot
    1  0.132  0.000  0.002  0.002  0.000  0.000  0.001  0.000  0.000  0.138
    2  0.004  0.000  0.108  0.000  0.000  0.000  0.000  0.000  0.000  0.111
    3  0.004  0.000  0.108  0.000  0.000  0.000  0.000  0.000  0.000  0.111
tot    0.139  0.000  0.218  0.002  0.000  0.000  0.001  0.000  0.000  0.360
 
band     3 # energy    5.72415925 # occ. -0.00000533
 
ion      s     py     pz     px    dxy    dyz    dz2    dxz  x2-y2    tot
    1  0.000  0.000  0.000  0.000  0.000  0.002  0.000  0.000  0.000  0.003
    2  0.014  0.009  0.000  0.327  0.000  0.000  0.000  0.000  0.000  0.351
    3  0.014  0.009  0.000  0.327  0.000  0.000  0.000  0.000  0.000  0.351
tot    0.029  0.019  0.000  0.655  0.000  0.002  0.000  0.000  0.000  0.705
 
band     4 # energy    5.90291960 # occ. -0.00000000
 
ion      s     py     pz     px    dxy    dyz    dz2    dxz  x2-y2    tot
    1  0.000  0.000  0.000  0.000  0.000  0.000  0.000  0.003  0.000  0.003
    2  0.000  0.342  0.000  0.010  0.000  0.000  0.000  0.000  0.000  0.353
    3  0.000  0.342  0.000  0.010  0.000  0.000  0.000  0.000  0.000  0.353
tot    0.000  0.684  0.000  0.021  0.000  0.000  0.000  0.003  0.000  0.708
 
band     5 # energy   12.13022750 # occ.  0.00000000
 
ion      s     py     pz     px    dxy    dyz    dz2    dxz  x2-y2    tot
    1  0.000  0.000  0.007  0.003  0.000  0.000  0.000  0.048  0.000  0.058
    2  0.007  0.018  0.000  0.170  0.000  0.000  0.000  0.000  0.000  0.195
    3  0.007  0.018  0.000  0.170  0.000  0.000  0.000  0.000  0.000  0.195
tot    0.015  0.035  0.007  0.342  0.000  0.000  0.000  0.048  0.000  0.448
 
band     6 # energy   12.48661918 # occ.  0.00000000
 
ion      s     py     pz     px    dxy    dyz    dz2    dxz  x2-y2    tot
    1  0.000  0.002  0.000  0.000  0.001  0.052  0.000  0.000  0.000  0.055
    2  0.004  0.185  0.003  0.012  0.000  0.000  0.000  0.000  0.000  0.204
    3  0.004  0.185  0.003  0.012  0.000  0.000  0.000  0.000  0.000  0.204
tot    0.009  0.371  0.006  0.023  0.001  0.052  0.000  0.000  0.000  0.463
 
band     7 # energy   12.76320796 # occ.  0.00000000
 
ion      s     py     pz     px    dxy    dyz    dz2    dxz  x2-y2    tot
    1  0.000  0.003  0.000  0.000  0.026  0.001  0.000  0.000  0.000  0.030
    2  0.002  0.003  0.229  0.002  0.000  0.000  0.000  0.000  0.000  0.235
    3  0.002  0.003  0.229  0.002  0.000  0.000  0.000  0.000  0.000  0.235
tot    0.003  0.009  0.458  0.004  0.026  0.001  0.000  0.000  0.000  0.499
 
band     8 # energy   15.08802633 # occ.  0.00000000
 
ion      s     py     pz     px    dxy    dyz    dz2    dxz  x2-y2    tot
    1  0.091  0.000  0.006  0.000  0.000  0.000  0.068  0.000  0.000  0.166
    2  0.005  0.000  0.190  0.000  0.000  0.000  0.000  0.000  0.000  0.196
    3  0.005  0.000  0.190  0.000  0.000  0.000  0.000  0.000  0.000  0.196
tot    0.102  0.000  0.387  0.000  0.000  0.000  0.068  0.000  0.000  0.557
 

 k-point   170 :    0.12500000 0.04166667 0.44444444     weight = 0.00617284

band     1 # energy   -5.55250963 # occ.  2.00000000
 
ion      s     py     pz     px    dxy    dyz    dz2    dxz  x2-y2    tot
    1  0.004  0.000  0.026  0.000  0.000  0.000  0.000  0.001  0.000  0.031
    2  0.252  0.001  0.001  0.008  0.000  0.000  0.000  0.000  0.000  0.261
    3  0.252  0.001  0.001  0.008  0.000  0.000  0.000  0.000  0.000  0.261
tot    0.507  0.001  0.027  0.016  0.000  0.000  0.000  0.001  0.000  0.553
 
band     2 # energy   -1.55423755 # occ.  2.00000000
 
ion      s     py     pz     px    dxy    dyz    dz2    dxz  x2-y2    tot
    1  0.124  0.001  0.002  0.008  0.000  0.000  0.001  0.000  0.000  0.136
    2  0.003  0.000  0.108  0.000  0.000  0.000  0.000  0.000  0.000  0.112
    3  0.003  0.000  0.108  0.000  0.000  0.000  0.000  0.000  0.000  0.112
tot    0.131  0.001  0.219  0.008  0.000  0.000  0.001  0.000  0.000  0.360
 
band     3 # energy    4.59016360 # occ.  2.00000000
 
ion      s     py     pz     px    dxy    dyz    dz2    dxz  x2-y2    tot
    1  0.000  0.000  0.001  0.000  0.000  0.004  0.000  0.002  0.000  0.008
    2  0.047  0.051  0.000  0.237  0.000  0.000  0.000  0.000  0.000  0.335
    3  0.047  0.051  0.000  0.237  0.000  0.000  0.000  0.000  0.000  0.335
tot    0.094  0.103  0.001  0.473  0.000  0.004  0.000  0.002  0.000  0.678
 
band     4 # energy    5.26371478 # occ.  2.05621915
 
ion      s     py     pz     px    dxy    dyz    dz2    dxz  x2-y2    tot
    1  0.000  0.000  0.001  0.000  0.000  0.003  0.000  0.005  0.000  0.009
    2  0.002  0.274  0.000  0.063  0.000  0.000  0.000  0.000  0.000  0.339
    3  0.002  0.274  0.000  0.063  0.000  0.000  0.000  0.000  0.000  0.339
tot    0.003  0.549  0.001  0.126  0.000  0.003  0.000  0.005  0.000  0.686
 
band     5 # energy   11.11211163 # occ.  0.00000000
 
ion      s     py     pz     px    dxy    dyz    dz2    dxz  x2-y2    tot
    1  0.002  0.011  0.000  0.005  0.043  0.000  0.000  0.000  0.004  0.065
    2  0.001  0.000  0.179  0.001  0.000  0.000  0.000  0.000  0.000  0.182
    3  0.001  0.000  0.179  0.001  0.000  0.000  0.000  0.000  0.000  0.182
tot    0.003  0.012  0.359  0.007  0.043  0.000  0.000  0.000  0.004  0.429
 
band     6 # energy   12.12364857 # occ.  0.00000000
 
ion      s     py     pz     px    dxy    dyz    dz2    dxz  x2-y2    tot
    1  0.001  0.001  0.021  0.002  0.000  0.005  0.001  0.027  0.000  0.058
    2  0.042  0.049  0.001  0.101  0.000  0.000  0.000  0.000  0.000  0.192
    3  0.042  0.049  0.001  0.101  0.000  0.000  0.000  0.000  0.000  0.192
tot    0.084  0.098  0.023  0.205  0.000  0.005  0.001  0.027  0.000  0.442
 
band     7 # energy   13.58665380 # occ.  0.00000000
 
ion      s     py     pz     px    dxy    dyz    dz2    dxz  x2-y2    tot
    1  0.000  0.002  0.000  0.000  0.000  0.040  0.000  0.007  0.000  0.050
    2  0.017  0.170  0.000  0.033  0.000  0.000  0.000  0.000  0.000  0.220
    3  0.017  0.170  0.000  0.033  0.000  0.000  0.000  0.000  0.000  0.220
tot    0.034  0.342  0.001  0.067  0.000  0.040  0.000  0.007  0.000  0.490
 
band     8 # energy   15.30931448 # occ.  0.00000000
 
ion      s     py     pz     px    dxy    dyz    dz2    dxz  x2-y2    tot
    1  0.125  0.001  0.005  0.002  0.000  0.000  0.047  0.001  0.004  0.184
    2  0.006  0.000  0.190  0.000  0.000  0.000  0.000  0.000  0.000  0.196
    3  0.006  0.000  0.190  0.000  0.000  0.000  0.000  0.000  0.000  0.196
tot    0.137  0.001  0.385  0.002  0.000  0.000  0.047  0.001  0.004  0.577
 

 k-point   171 :    0.20833333 0.04166667 0.44444444     weight = 0.00617284

band     1 # energy   -5.05308142 # occ.  2.00000000
 
ion      s     py     pz     px    dxy    dyz    dz2    dxz  x2-y2    tot
    1  0.004  0.000  0.024  0.000  0.000  0.000  0.000  0.002  0.000  0.030
    2  0.243  0.003  0.000  0.018  0.000  0.000  0.000  0.000  0.000  0.264
    3  0.243  0.003  0.000  0.018  0.000  0.000  0.000  0.000  0.000  0.264
tot    0.490  0.005  0.025  0.036  0.000  0.000  0.000  0.002  0.000  0.558
 
band     2 # energy   -0.94374744 # occ.  2.00000000
 
ion      s     py     pz     px    dxy    dyz    dz2    dxz  x2-y2    tot
    1  0.110  0.003  0.002  0.017  0.000  0.000  0.001  0.000  0.000  0.133
    2  0.003  0.000  0.110  0.000  0.000  0.000  0.000  0.000  0.000  0.113
    3  0.003  0.000  0.110  0.000  0.000  0.000  0.000  0.000  0.000  0.113
tot    0.116  0.003  0.222  0.018  0.000  0.000  0.001  0.000  0.000  0.359
 
band     3 # energy    3.03971220 # occ.  2.00000000
 
ion      s     py     pz     px    dxy    dyz    dz2    dxz  x2-y2    tot
    1  0.000  0.000  0.004  0.000  0.000  0.004  0.000  0.005  0.000  0.014
    2  0.082  0.059  0.000  0.176  0.000  0.000  0.000  0.000  0.000  0.317
    3  0.082  0.059  0.000  0.176  0.000  0.000  0.000  0.000  0.000  0.317
tot    0.164  0.118  0.004  0.353  0.000  0.004  0.000  0.005  0.000  0.648
 
band     4 # energy    4.54870587 # occ.  2.00000000
 
ion      s     py     pz     px    dxy    dyz    dz2    dxz  x2-y2    tot
    1  0.000  0.000  0.001  0.000  0.000  0.006  0.000  0.005  0.000  0.012
    2  0.003  0.244  0.000  0.083  0.000  0.000  0.000  0.000  0.000  0.330
    3  0.003  0.244  0.000  0.083  0.000  0.000  0.000  0.000  0.000  0.330
tot    0.007  0.489  0.001  0.165  0.000  0.006  0.000  0.005  0.000  0.672
 
band     5 # energy    9.16276093 # occ.  0.00000000
 
ion      s     py     pz     px    dxy    dyz    dz2    dxz  x2-y2    tot
    1  0.013  0.017  0.000  0.015  0.039  0.000  0.000  0.000  0.006  0.091
    2  0.000  0.000  0.148  0.001  0.000  0.000  0.000  0.000  0.000  0.149
    3  0.000  0.000  0.148  0.001  0.000  0.000  0.000  0.000  0.000  0.149
tot    0.013  0.018  0.296  0.017  0.039  0.000  0.000  0.000  0.006  0.389
 
band     6 # energy   11.89623385 # occ.  0.00000000
 
ion      s     py     pz     px    dxy    dyz    dz2    dxz  x2-y2    tot
    1  0.003  0.001  0.032  0.002  0.000  0.005  0.001  0.013  0.000  0.057
    2  0.095  0.043  0.000  0.053  0.000  0.000  0.000  0.000  0.000  0.191
    3  0.095  0.043  0.000  0.053  0.000  0.000  0.000  0.000  0.000  0.191
tot    0.193  0.087  0.033  0.107  0.000  0.005  0.001  0.013  0.000  0.439
 
band     7 # energy   14.88136962 # occ.  0.00000000
 
ion      s     py     pz     px    dxy    dyz    dz2    dxz  x2-y2    tot
    1  0.137  0.026  0.000  0.095  0.008  0.000  0.000  0.001  0.020  0.286
    2  0.000  0.001  0.057  0.001  0.000  0.000  0.000  0.000  0.000  0.059
    3  0.000  0.001  0.057  0.001  0.000  0.000  0.000  0.000  0.000  0.059
tot    0.138  0.028  0.113  0.096  0.008  0.000  0.000  0.001  0.020  0.404
 
band     8 # energy   15.26007003 # occ.  0.00000000
 
ion      s     py     pz     px    dxy    dyz    dz2    dxz  x2-y2    tot
    1  0.001  0.002  0.001  0.000  0.000  0.030  0.001  0.010  0.000  0.046
    2  0.023  0.181  0.002  0.032  0.000  0.000  0.000  0.000  0.000  0.238
    3  0.023  0.181  0.002  0.032  0.000  0.000  0.000  0.000  0.000  0.238
tot    0.048  0.364  0.006  0.064  0.000  0.030  0.001  0.010  0.000  0.522
 

 k-point   172 :    0.29166667 0.04166667 0.44444444     weight = 0.00617284

band     1 # energy   -4.33665378 # occ.  2.00000000
 
ion      s     py     pz     px    dxy    dyz    dz2    dxz  x2-y2    tot
    1  0.003  0.000  0.021  0.001  0.000  0.001  0.000  0.003  0.000  0.028
    2  0.232  0.006  0.000  0.031  0.000  0.000  0.000  0.000  0.000  0.269
    3  0.232  0.006  0.000  0.031  0.000  0.000  0.000  0.000  0.000  0.269
tot    0.467  0.012  0.022  0.062  0.000  0.001  0.000  0.003  0.000  0.567
 
band     2 # energy   -0.09015582 # occ.  2.00000000
 
ion      s     py     pz     px    dxy    dyz    dz2    dxz  x2-y2    tot
    1  0.088  0.006  0.002  0.030  0.000  0.000  0.001  0.000  0.000  0.127
    2  0.002  0.000  0.112  0.001  0.000  0.000  0.000  0.000  0.000  0.115
    3  0.002  0.000  0.112  0.001  0.000  0.000  0.000  0.000  0.000  0.115
tot    0.093  0.006  0.227  0.031  0.000  0.000  0.001  0.000  0.000  0.358
 
band     3 # energy    1.40630241 # occ.  2.00000000
 
ion      s     py     pz     px    dxy    dyz    dz2    dxz  x2-y2    tot
    1  0.001  0.000  0.008  0.000  0.000  0.003  0.000  0.006  0.000  0.019
    2  0.113  0.052  0.000  0.137  0.000  0.000  0.000  0.000  0.000  0.302
    3  0.113  0.052  0.000  0.137  0.000  0.000  0.000  0.000  0.000  0.302
tot    0.226  0.105  0.009  0.273  0.000  0.003  0.000  0.006  0.000  0.622
 
band     4 # energy    3.95458542 # occ.  2.00000000
 
ion      s     py     pz     px    dxy    dyz    dz2    dxz  x2-y2    tot
    1  0.000  0.001  0.001  0.000  0.000  0.008  0.000  0.005  0.000  0.015
    2  0.004  0.236  0.000  0.086  0.000  0.000  0.000  0.000  0.000  0.326
    3  0.004  0.236  0.000  0.086  0.000  0.000  0.000  0.000  0.000  0.326
tot    0.008  0.473  0.001  0.171  0.000  0.008  0.000  0.005  0.000  0.666
 
band     5 # energy    7.22561932 # occ. -0.00000000
 
ion      s     py     pz     px    dxy    dyz    dz2    dxz  x2-y2    tot
    1  0.036  0.018  0.001  0.021  0.029  0.000  0.000  0.000  0.006  0.111
    2  0.000  0.000  0.128  0.001  0.000  0.000  0.000  0.000  0.000  0.129
    3  0.000  0.000  0.128  0.001  0.000  0.000  0.000  0.000  0.000  0.129
tot    0.036  0.019  0.256  0.023  0.029  0.000  0.000  0.000  0.006  0.370
 
band     6 # energy   11.61782129 # occ.  0.00000000
 
ion      s     py     pz     px    dxy    dyz    dz2    dxz  x2-y2    tot
    1  0.005  0.000  0.039  0.001  0.001  0.003  0.001  0.005  0.000  0.057
    2  0.135  0.030  0.000  0.026  0.000  0.000  0.000  0.000  0.000  0.191
    3  0.135  0.030  0.000  0.026  0.000  0.000  0.000  0.000  0.000  0.191
tot    0.275  0.061  0.039  0.053  0.001  0.003  0.001  0.005  0.000  0.438
 
band     7 # energy   14.13318398 # occ.  0.00000000
 
ion      s     py     pz     px    dxy    dyz    dz2    dxz  x2-y2    tot
    1  0.147  0.040  0.002  0.084  0.012  0.000  0.002  0.001  0.004  0.292
    2  0.001  0.000  0.045  0.001  0.000  0.000  0.000  0.000  0.000  0.047
    3  0.001  0.000  0.045  0.001  0.000  0.000  0.000  0.000  0.000  0.047
tot    0.148  0.041  0.092  0.085  0.012  0.000  0.002  0.001  0.004  0.385
 
band     8 # energy   16.03696147 # occ.  0.00000000
 
ion      s     py     pz     px    dxy    dyz    dz2    dxz  x2-y2    tot
    1  0.121  0.099  0.000  0.018  0.000  0.001  0.001  0.000  0.017  0.258
    2  0.001  0.001  0.106  0.001  0.000  0.000  0.000  0.000  0.000  0.109
    3  0.001  0.001  0.106  0.001  0.000  0.000  0.000  0.000  0.000  0.109
tot    0.123  0.101  0.212  0.019  0.000  0.001  0.001  0.000  0.017  0.475
 

 k-point   173 :    0.37500000 0.04166667 0.44444444     weight = 0.00617284

band     1 # energy   -3.41431018 # occ.  2.00000000
 
ion      s     py     pz     px    dxy    dyz    dz2    dxz  x2-y2    tot
    1  0.002  0.000  0.017  0.001  0.000  0.001  0.000  0.005  0.000  0.026
    2  0.221  0.010  0.000  0.046  0.000  0.000  0.000  0.000  0.000  0.276
    3  0.221  0.010  0.000  0.046  0.000  0.000  0.000  0.000  0.000  0.276
tot    0.443  0.020  0.018  0.093  0.000  0.001  0.000  0.005  0.000  0.579
 
band     2 # energy   -0.14765679 # occ.  2.00000000
 
ion      s     py     pz     px    dxy    dyz    dz2    dxz  x2-y2    tot
    1  0.001  0.000  0.014  0.001  0.000  0.002  0.000  0.005  0.000  0.024
    2  0.136  0.044  0.000  0.108  0.000  0.000  0.000  0.000  0.000  0.288
    3  0.136  0.044  0.000  0.108  0.000  0.000  0.000  0.000  0.000  0.288
tot    0.272  0.088  0.015  0.218  0.000  0.002  0.000  0.005  0.000  0.600
 
band     3 # energy    0.94849564 # occ.  2.00000000
 
ion      s     py     pz     px    dxy    dyz    dz2    dxz  x2-y2    tot
    1  0.056  0.011  0.001  0.047  0.001  0.000  0.000  0.001  0.001  0.117
    2  0.003  0.000  0.117  0.001  0.000  0.000  0.000  0.000  0.000  0.121
    3  0.003  0.000  0.117  0.001  0.000  0.000  0.000  0.000  0.000  0.121
tot    0.062  0.011  0.235  0.048  0.001  0.000  0.000  0.001  0.001  0.359
 
band     4 # energy    3.55290663 # occ.  2.00000000
 
ion      s     py     pz     px    dxy    dyz    dz2    dxz  x2-y2    tot
    1  0.000  0.001  0.001  0.000  0.000  0.010  0.000  0.004  0.000  0.016
    2  0.005  0.235  0.000  0.084  0.000  0.000  0.000  0.000  0.000  0.324
    3  0.005  0.235  0.000  0.084  0.000  0.000  0.000  0.000  0.000  0.324
tot    0.010  0.472  0.001  0.167  0.000  0.010  0.000  0.004  0.000  0.664
 
band     5 # energy    5.46835644 # occ. -0.05318085
 
ion      s     py     pz     px    dxy    dyz    dz2    dxz  x2-y2    tot
    1  0.071  0.015  0.001  0.017  0.022  0.000  0.000  0.000  0.005  0.131
    2  0.000  0.000  0.114  0.001  0.000  0.000  0.000  0.000  0.000  0.115
    3  0.000  0.000  0.114  0.001  0.000  0.000  0.000  0.000  0.000  0.115
tot    0.072  0.015  0.228  0.019  0.022  0.000  0.000  0.000  0.005  0.362
 
band     6 # energy   11.40556577 # occ.  0.00000000
 
ion      s     py     pz     px    dxy    dyz    dz2    dxz  x2-y2    tot
    1  0.008  0.000  0.043  0.001  0.001  0.001  0.001  0.001  0.000  0.057
    2  0.158  0.019  0.000  0.013  0.000  0.000  0.000  0.000  0.000  0.190
    3  0.158  0.019  0.000  0.013  0.000  0.000  0.000  0.000  0.000  0.190
tot    0.323  0.039  0.043  0.027  0.001  0.001  0.001  0.001  0.000  0.437
 
band     7 # energy   13.63020162 # occ.  0.00000000
 
ion      s     py     pz     px    dxy    dyz    dz2    dxz  x2-y2    tot
    1  0.160  0.056  0.003  0.056  0.012  0.000  0.002  0.001  0.000  0.290
    2  0.001  0.000  0.047  0.001  0.000  0.000  0.000  0.000  0.000  0.049
    3  0.001  0.000  0.047  0.001  0.000  0.000  0.000  0.000  0.000  0.049
tot    0.163  0.056  0.096  0.057  0.012  0.000  0.002  0.001  0.000  0.388
 
band     8 # energy   15.70584163 # occ.  0.00000000
 
ion      s     py     pz     px    dxy    dyz    dz2    dxz  x2-y2    tot
    1  0.116  0.123  0.001  0.019  0.004  0.001  0.002  0.000  0.013  0.280
    2  0.000  0.001  0.071  0.000  0.000  0.000  0.000  0.000  0.000  0.072
    3  0.000  0.001  0.071  0.000  0.000  0.000  0.000  0.000  0.000  0.072
tot    0.116  0.125  0.142  0.020  0.004  0.001  0.002  0.000  0.013  0.424
 

 k-point   174 :    0.45833333 0.04166667 0.44444444     weight = 0.00617284

band     1 # energy   -2.37040860 # occ.  2.00000000
 
ion      s     py     pz     px    dxy    dyz    dz2    dxz  x2-y2    tot
    1  0.001  0.000  0.005  0.001  0.000  0.002  0.000  0.008  0.000  0.018
    2  0.234  0.011  0.000  0.047  0.000  0.000  0.000  0.000  0.000  0.293
    3  0.234  0.011  0.000  0.047  0.000  0.000  0.000  0.000  0.000  0.293
tot    0.468  0.023  0.006  0.096  0.000  0.002  0.000  0.008  0.000  0.604
 
band     2 # energy   -1.47033351 # occ.  2.00000000
 
ion      s     py     pz     px    dxy    dyz    dz2    dxz  x2-y2    tot
    1  0.002  0.000  0.026  0.000  0.000  0.001  0.000  0.001  0.000  0.032
    2  0.128  0.039  0.000  0.102  0.000  0.000  0.000  0.000  0.000  0.270
    3  0.128  0.039  0.000  0.102  0.000  0.000  0.000  0.000  0.000  0.270
tot    0.258  0.079  0.027  0.204  0.000  0.001  0.000  0.001  0.000  0.571
 
band     3 # energy    1.84588344 # occ.  2.00000000
 
ion      s     py     pz     px    dxy    dyz    dz2    dxz  x2-y2    tot
    1  0.005  0.021  0.000  0.069  0.000  0.000  0.000  0.001  0.000  0.097
    2  0.002  0.000  0.127  0.000  0.000  0.000  0.000  0.000  0.000  0.130
    3  0.002  0.000  0.127  0.000  0.000  0.000  0.000  0.000  0.000  0.130
tot    0.010  0.021  0.255  0.070  0.000  0.000  0.000  0.001  0.000  0.358
 
band     4 # energy    3.37858077 # occ.  2.00000000
 
ion      s     py     pz     px    dxy    dyz    dz2    dxz  x2-y2    tot
    1  0.000  0.001  0.001  0.000  0.000  0.010  0.000  0.004  0.000  0.016
    2  0.005  0.238  0.000  0.081  0.000  0.000  0.000  0.000  0.000  0.324
    3  0.005  0.238  0.000  0.081  0.000  0.000  0.000  0.000  0.000  0.324
tot    0.010  0.477  0.001  0.161  0.000  0.010  0.000  0.004  0.000  0.664
 
band     5 # energy    4.25614564 # occ.  2.00000000
 
ion      s     py     pz     px    dxy    dyz    dz2    dxz  x2-y2    tot
    1  0.123  0.004  0.002  0.001  0.018  0.000  0.000  0.000  0.005  0.154
    2  0.000  0.000  0.100  0.001  0.000  0.000  0.000  0.000  0.000  0.102
    3  0.000  0.000  0.100  0.001  0.000  0.000  0.000  0.000  0.000  0.102
tot    0.124  0.005  0.203  0.003  0.018  0.000  0.000  0.000  0.005  0.359
 
band     6 # energy   11.30802285 # occ.  0.00000000
 
ion      s     py     pz     px    dxy    dyz    dz2    dxz  x2-y2    tot
    1  0.009  0.000  0.044  0.000  0.001  0.000  0.001  0.000  0.000  0.057
    2  0.167  0.011  0.000  0.011  0.000  0.000  0.000  0.000  0.000  0.190
    3  0.167  0.011  0.000  0.011  0.000  0.000  0.000  0.000  0.000  0.190
tot    0.343  0.023  0.045  0.022  0.001  0.000  0.001  0.000  0.000  0.437
 
band     7 # energy   13.41204053 # occ.  0.00000000
 
ion      s     py     pz     px    dxy    dyz    dz2    dxz  x2-y2    tot
    1  0.166  0.073  0.004  0.031  0.010  0.000  0.003  0.000  0.002  0.289
    2  0.002  0.000  0.048  0.001  0.000  0.000  0.000  0.000  0.000  0.051
    3  0.002  0.000  0.048  0.001  0.000  0.000  0.000  0.000  0.000  0.051
tot    0.170  0.074  0.100  0.032  0.010  0.000  0.003  0.000  0.002  0.390
 
band     8 # energy   15.53198928 # occ.  0.00000000
 
ion      s     py     pz     px    dxy    dyz    dz2    dxz  x2-y2    tot
    1  0.113  0.114  0.001  0.033  0.010  0.001  0.003  0.000  0.006  0.281
    2  0.000  0.001  0.064  0.000  0.000  0.000  0.000  0.000  0.000  0.065
    3  0.000  0.001  0.064  0.000  0.000  0.000  0.000  0.000  0.000  0.065
tot    0.113  0.115  0.130  0.034  0.010  0.001  0.003  0.000  0.006  0.412
 

 k-point   175 :   -0.45833333 0.04166667 0.44444444     weight = 0.00617284

band     1 # energy   -2.88796564 # occ.  2.00000000
 
ion      s     py     pz     px    dxy    dyz    dz2    dxz  x2-y2    tot
    1  0.001  0.000  0.014  0.001  0.000  0.002  0.000  0.005  0.000  0.024
    2  0.218  0.021  0.000  0.042  0.000  0.000  0.000  0.000  0.000  0.282
    3  0.218  0.021  0.000  0.042  0.000  0.000  0.000  0.000  0.000  0.282
tot    0.438  0.042  0.014  0.086  0.000  0.002  0.000  0.005  0.000  0.587
 
band     2 # energy   -0.85899177 # occ.  2.00000000
 
ion      s     py     pz     px    dxy    dyz    dz2    dxz  x2-y2    tot
    1  0.001  0.000  0.018  0.001  0.000  0.001  0.000  0.005  0.000  0.026
    2  0.141  0.030  0.000  0.110  0.000  0.000  0.000  0.000  0.000  0.281
    3  0.141  0.030  0.000  0.110  0.000  0.000  0.000  0.000  0.000  0.281
tot    0.284  0.059  0.019  0.221  0.000  0.001  0.000  0.005  0.000  0.589
 
band     3 # energy    1.46708917 # occ.  2.00000000
 
ion      s     py     pz     px    dxy    dyz    dz2    dxz  x2-y2    tot
    1  0.032  0.022  0.000  0.051  0.001  0.000  0.000  0.001  0.000  0.108
    2  0.002  0.000  0.122  0.000  0.000  0.000  0.000  0.000  0.000  0.125
    3  0.002  0.000  0.122  0.000  0.000  0.000  0.000  0.000  0.000  0.125
tot    0.037  0.022  0.244  0.052  0.001  0.000  0.000  0.001  0.000  0.358
 
band     4 # energy    3.43559417 # occ.  2.00000000
 
ion      s     py     pz     px    dxy    dyz    dz2    dxz  x2-y2    tot
    1  0.000  0.001  0.001  0.000  0.000  0.011  0.000  0.003  0.000  0.016
    2  0.005  0.241  0.000  0.078  0.000  0.000  0.000  0.000  0.000  0.323
    3  0.005  0.241  0.000  0.078  0.000  0.000  0.000  0.000  0.000  0.323
tot    0.010  0.482  0.001  0.156  0.000  0.011  0.000  0.003  0.000  0.663
 
band     5 # energy    4.73988092 # occ.  2.00000000
 
ion      s     py     pz     px    dxy    dyz    dz2    dxz  x2-y2    tot
    1  0.096  0.001  0.001  0.019  0.017  0.000  0.000  0.000  0.007  0.142
    2  0.000  0.000  0.107  0.001  0.000  0.000  0.000  0.000  0.000  0.109
    3  0.000  0.000  0.107  0.001  0.000  0.000  0.000  0.000  0.000  0.109
tot    0.097  0.002  0.215  0.021  0.017  0.000  0.000  0.000  0.007  0.360
 
band     6 # energy   11.34096082 # occ.  0.00000000
 
ion      s     py     pz     px    dxy    dyz    dz2    dxz  x2-y2    tot
    1  0.009  0.000  0.044  0.000  0.001  0.000  0.001  0.001  0.000  0.057
    2  0.164  0.007  0.000  0.019  0.000  0.000  0.000  0.000  0.000  0.190
    3  0.164  0.007  0.000  0.019  0.000  0.000  0.000  0.000  0.000  0.190
tot    0.337  0.014  0.044  0.038  0.001  0.000  0.001  0.001  0.000  0.437
 
band     7 # energy   13.48472488 # occ.  0.00000000
 
ion      s     py     pz     px    dxy    dyz    dz2    dxz  x2-y2    tot
    1  0.164  0.094  0.003  0.013  0.005  0.001  0.003  0.000  0.007  0.290
    2  0.002  0.000  0.047  0.000  0.000  0.000  0.000  0.000  0.000  0.050
    3  0.002  0.000  0.047  0.000  0.000  0.000  0.000  0.000  0.000  0.050
tot    0.167  0.094  0.098  0.014  0.005  0.001  0.003  0.000  0.007  0.390
 
band     8 # energy   15.59072494 # occ.  0.00000000
 
ion      s     py     pz     px    dxy    dyz    dz2    dxz  x2-y2    tot
    1  0.114  0.097  0.001  0.049  0.016  0.000  0.003  0.001  0.001  0.281
    2  0.000  0.000  0.066  0.001  0.000  0.000  0.000  0.000  0.000  0.067
    3  0.000  0.000  0.066  0.001  0.000  0.000  0.000  0.000  0.000  0.067
tot    0.114  0.098  0.133  0.050  0.016  0.000  0.003  0.001  0.001  0.415
 

 k-point   176 :   -0.37500000 0.04166667 0.44444444     weight = 0.00617284

band     1 # energy   -3.89974057 # occ.  2.00000000
 
ion      s     py     pz     px    dxy    dyz    dz2    dxz  x2-y2    tot
    1  0.002  0.000  0.019  0.001  0.000  0.001  0.000  0.003  0.000  0.027
    2  0.226  0.016  0.000  0.030  0.000  0.000  0.000  0.000  0.000  0.273
    3  0.226  0.016  0.000  0.030  0.000  0.000  0.000  0.000  0.000  0.273
tot    0.455  0.032  0.020  0.061  0.000  0.001  0.000  0.003  0.000  0.572
 
band     2 # energy    0.40716334 # occ.  2.00000000
 
ion      s     py     pz     px    dxy    dyz    dz2    dxz  x2-y2    tot
    1  0.069  0.015  0.003  0.031  0.001  0.000  0.001  0.000  0.000  0.120
    2  0.004  0.002  0.111  0.005  0.000  0.000  0.000  0.000  0.000  0.122
    3  0.004  0.002  0.111  0.005  0.000  0.000  0.000  0.000  0.000  0.122
tot    0.077  0.019  0.225  0.042  0.001  0.000  0.001  0.000  0.000  0.363
 
band     3 # energy    0.61987202 # occ.  2.00000000
 
ion      s     py     pz     px    dxy    dyz    dz2    dxz  x2-y2    tot
    1  0.006  0.000  0.010  0.000  0.000  0.001  0.000  0.007  0.000  0.025
    2  0.124  0.036  0.004  0.127  0.000  0.000  0.000  0.000  0.000  0.291
    3  0.124  0.036  0.004  0.127  0.000  0.000  0.000  0.000  0.000  0.291
tot    0.254  0.071  0.017  0.255  0.000  0.001  0.000  0.007  0.000  0.606
 
band     4 # energy    3.72722552 # occ.  2.00000000
 
ion      s     py     pz     px    dxy    dyz    dz2    dxz  x2-y2    tot
    1  0.000  0.001  0.001  0.000  0.000  0.011  0.000  0.002  0.000  0.015
    2  0.005  0.244  0.000  0.076  0.000  0.000  0.000  0.000  0.000  0.325
    3  0.005  0.244  0.000  0.076  0.000  0.000  0.000  0.000  0.000  0.325
tot    0.009  0.489  0.001  0.152  0.000  0.011  0.000  0.002  0.000  0.665
 
band     5 # energy    6.31318502 # occ. -0.00000000
 
ion      s     py     pz     px    dxy    dyz    dz2    dxz  x2-y2    tot
    1  0.052  0.003  0.001  0.034  0.020  0.000  0.000  0.000  0.010  0.121
    2  0.000  0.000  0.120  0.001  0.000  0.000  0.000  0.000  0.000  0.122
    3  0.000  0.000  0.120  0.001  0.000  0.000  0.000  0.000  0.000  0.122
tot    0.052  0.004  0.242  0.036  0.020  0.000  0.000  0.000  0.010  0.365
 
band     6 # energy   11.49951142 # occ.  0.00000000
 
ion      s     py     pz     px    dxy    dyz    dz2    dxz  x2-y2    tot
    1  0.007  0.001  0.042  0.001  0.001  0.001  0.001  0.004  0.000  0.057
    2  0.148  0.006  0.000  0.037  0.000  0.000  0.000  0.000  0.000  0.190
    3  0.148  0.006  0.000  0.037  0.000  0.000  0.000  0.000  0.000  0.190
tot    0.303  0.012  0.042  0.074  0.001  0.001  0.001  0.004  0.000  0.437
 
band     7 # energy   13.84707249 # occ.  0.00000000
 
ion      s     py     pz     px    dxy    dyz    dz2    dxz  x2-y2    tot
    1  0.154  0.115  0.002  0.003  0.001  0.001  0.002  0.000  0.013  0.291
    2  0.001  0.000  0.046  0.000  0.000  0.000  0.000  0.000  0.000  0.048
    3  0.001  0.000  0.046  0.000  0.000  0.000  0.000  0.000  0.000  0.048
tot    0.156  0.116  0.094  0.004  0.001  0.001  0.002  0.000  0.013  0.387
 
band     8 # energy   15.86722985 # occ.  0.00000000
 
ion      s     py     pz     px    dxy    dyz    dz2    dxz  x2-y2    tot
    1  0.119  0.079  0.000  0.057  0.017  0.000  0.001  0.001  0.001  0.276
    2  0.000  0.000  0.081  0.001  0.000  0.000  0.000  0.000  0.000  0.082
    3  0.000  0.000  0.081  0.001  0.000  0.000  0.000  0.000  0.000  0.082
tot    0.120  0.080  0.162  0.058  0.017  0.000  0.001  0.001  0.001  0.441
 

 k-point   177 :   -0.29166667 0.04166667 0.44444444     weight = 0.00617284

band     1 # energy   -4.72157304 # occ.  2.00000000
 
ion      s     py     pz     px    dxy    dyz    dz2    dxz  x2-y2    tot
    1  0.003  0.000  0.023  0.000  0.000  0.001  0.000  0.002  0.000  0.029
    2  0.238  0.010  0.000  0.018  0.000  0.000  0.000  0.000  0.000  0.266
    3  0.238  0.010  0.000  0.018  0.000  0.000  0.000  0.000  0.000  0.266
tot    0.479  0.021  0.024  0.036  0.000  0.001  0.000  0.002  0.000  0.562
 
band     2 # energy   -0.54479452 # occ.  2.00000000
 
ion      s     py     pz     px    dxy    dyz    dz2    dxz  x2-y2    tot
    1  0.100  0.010  0.002  0.017  0.000  0.000  0.001  0.000  0.000  0.131
    2  0.003  0.000  0.111  0.000  0.000  0.000  0.000  0.000  0.000  0.114
    3  0.003  0.000  0.111  0.000  0.000  0.000  0.000  0.000  0.000  0.114
tot    0.106  0.010  0.224  0.018  0.000  0.000  0.001  0.000  0.000  0.359
 
band     3 # energy    2.22028721 # occ.  2.00000000
 
ion      s     py     pz     px    dxy    dyz    dz2    dxz  x2-y2    tot
    1  0.001  0.000  0.006  0.001  0.000  0.001  0.000  0.008  0.000  0.017
    2  0.098  0.050  0.000  0.161  0.000  0.000  0.000  0.000  0.000  0.309
    3  0.098  0.050  0.000  0.161  0.000  0.000  0.000  0.000  0.000  0.309
tot    0.197  0.100  0.006  0.322  0.000  0.001  0.000  0.008  0.000  0.634
 
band     4 # energy    4.22945170 # occ.  2.00000000
 
ion      s     py     pz     px    dxy    dyz    dz2    dxz  x2-y2    tot
    1  0.000  0.001  0.001  0.000  0.000  0.010  0.000  0.001  0.000  0.014
    2  0.004  0.245  0.000  0.079  0.000  0.000  0.000  0.000  0.000  0.327
    3  0.004  0.245  0.000  0.079  0.000  0.000  0.000  0.000  0.000  0.327
tot    0.008  0.491  0.001  0.157  0.000  0.010  0.000  0.001  0.000  0.668
 
band     5 # energy    8.18169006 # occ.  0.00000000
 
ion      s     py     pz     px    dxy    dyz    dz2    dxz  x2-y2    tot
    1  0.023  0.003  0.000  0.035  0.026  0.000  0.000  0.001  0.015  0.102
    2  0.000  0.000  0.137  0.001  0.000  0.000  0.000  0.000  0.000  0.138
    3  0.000  0.000  0.137  0.001  0.000  0.000  0.000  0.000  0.000  0.138
tot    0.023  0.004  0.274  0.036  0.026  0.000  0.000  0.001  0.015  0.378
 
band     6 # energy   11.75371113 # occ.  0.00000000
 
ion      s     py     pz     px    dxy    dyz    dz2    dxz  x2-y2    tot
    1  0.004  0.001  0.036  0.002  0.000  0.002  0.001  0.010  0.000  0.057
    2  0.117  0.009  0.000  0.064  0.000  0.000  0.000  0.000  0.000  0.191
    3  0.117  0.009  0.000  0.064  0.000  0.000  0.000  0.000  0.000  0.191
tot    0.238  0.020  0.036  0.130  0.000  0.002  0.001  0.010  0.000  0.439
 
band     7 # energy   14.48317264 # occ.  0.00000000
 
ion      s     py     pz     px    dxy    dyz    dz2    dxz  x2-y2    tot
    1  0.139  0.127  0.001  0.000  0.001  0.001  0.001  0.000  0.020  0.291
    2  0.000  0.001  0.047  0.001  0.000  0.000  0.000  0.000  0.000  0.048
    3  0.000  0.001  0.047  0.001  0.000  0.000  0.000  0.000  0.000  0.048
tot    0.140  0.129  0.094  0.001  0.001  0.001  0.001  0.000  0.020  0.387
 
band     8 # energy   16.06058365 # occ.  0.00000000
 
ion      s     py     pz     px    dxy    dyz    dz2    dxz  x2-y2    tot
    1  0.082  0.062  0.001  0.008  0.005  0.004  0.017  0.000  0.004  0.181
    2  0.006  0.020  0.131  0.013  0.000  0.000  0.000  0.000  0.000  0.170
    3  0.006  0.020  0.131  0.013  0.000  0.000  0.000  0.000  0.000  0.170
tot    0.095  0.102  0.263  0.034  0.005  0.004  0.017  0.000  0.004  0.522
 

 k-point   178 :   -0.20833333 0.04166667 0.44444444     weight = 0.00617284

band     1 # energy   -5.33025684 # occ.  2.00000000
 
ion      s     py     pz     px    dxy    dyz    dz2    dxz  x2-y2    tot
    1  0.004  0.000  0.025  0.000  0.000  0.001  0.000  0.001  0.000  0.031
    2  0.248  0.006  0.000  0.008  0.000  0.000  0.000  0.000  0.000  0.262
    3  0.248  0.006  0.000  0.008  0.000  0.000  0.000  0.000  0.000  0.262
tot    0.500  0.012  0.026  0.016  0.000  0.001  0.000  0.001  0.000  0.555
 
band     2 # energy   -1.28136070 # occ.  2.00000000
 
ion      s     py     pz     px    dxy    dyz    dz2    dxz  x2-y2    tot
    1  0.118  0.006  0.002  0.008  0.000  0.000  0.001  0.000  0.000  0.135
    2  0.003  0.000  0.109  0.000  0.000  0.000  0.000  0.000  0.000  0.112
    3  0.003  0.000  0.109  0.000  0.000  0.000  0.000  0.000  0.000  0.112
tot    0.124  0.006  0.220  0.008  0.000  0.000  0.001  0.000  0.000  0.360
 
band     3 # energy    3.84038398 # occ.  2.00000000
 
ion      s     py     pz     px    dxy    dyz    dz2    dxz  x2-y2    tot
    1  0.000  0.000  0.002  0.000  0.000  0.001  0.000  0.007  0.000  0.011
    2  0.065  0.075  0.000  0.186  0.000  0.000  0.000  0.000  0.000  0.326
    3  0.065  0.075  0.000  0.186  0.000  0.000  0.000  0.000  0.000  0.326
tot    0.130  0.150  0.002  0.372  0.000  0.001  0.000  0.007  0.000  0.662
 
band     4 # energy    4.89907600 # occ.  2.00000000
 
ion      s     py     pz     px    dxy    dyz    dz2    dxz  x2-y2    tot
    1  0.000  0.000  0.001  0.000  0.000  0.009  0.000  0.000  0.000  0.011
    2  0.002  0.237  0.000  0.094  0.000  0.000  0.000  0.000  0.000  0.333
    3  0.002  0.237  0.000  0.094  0.000  0.000  0.000  0.000  0.000  0.333
tot    0.005  0.474  0.001  0.189  0.000  0.009  0.000  0.000  0.000  0.678
 
band     5 # energy   10.14894066 # occ.  0.00000000
 
ion      s     py     pz     px    dxy    dyz    dz2    dxz  x2-y2    tot
    1  0.006  0.001  0.000  0.024  0.027  0.000  0.000  0.001  0.020  0.079
    2  0.000  0.001  0.162  0.001  0.000  0.000  0.000  0.000  0.000  0.163
    3  0.000  0.001  0.162  0.001  0.000  0.000  0.000  0.000  0.000  0.163
tot    0.007  0.002  0.323  0.026  0.027  0.000  0.000  0.001  0.020  0.406
 
band     6 # energy   12.02734797 # occ.  0.00000000
 
ion      s     py     pz     px    dxy    dyz    dz2    dxz  x2-y2    tot
    1  0.002  0.001  0.027  0.002  0.000  0.007  0.001  0.018  0.000  0.058
    2  0.069  0.023  0.001  0.098  0.000  0.000  0.000  0.000  0.000  0.191
    3  0.069  0.023  0.001  0.098  0.000  0.000  0.000  0.000  0.000  0.191
tot    0.140  0.048  0.028  0.199  0.000  0.007  0.001  0.018  0.000  0.441
 
band     7 # energy   14.37092327 # occ.  0.00000000
 
ion      s     py     pz     px    dxy    dyz    dz2    dxz  x2-y2    tot
    1  0.000  0.002  0.001  0.001  0.000  0.030  0.000  0.013  0.000  0.047
    2  0.021  0.136  0.000  0.073  0.000  0.000  0.000  0.000  0.000  0.229
    3  0.021  0.136  0.000  0.073  0.000  0.000  0.000  0.000  0.000  0.229
tot    0.041  0.273  0.001  0.146  0.000  0.030  0.000  0.013  0.000  0.506
 
band     8 # energy   15.25172626 # occ.  0.00000000
 
ion      s     py     pz     px    dxy    dyz    dz2    dxz  x2-y2    tot
    1  0.152  0.064  0.001  0.000  0.009  0.001  0.009  0.000  0.016  0.253
    2  0.002  0.001  0.116  0.000  0.000  0.000  0.000  0.000  0.000  0.119
    3  0.002  0.001  0.116  0.000  0.000  0.000  0.000  0.000  0.000  0.119
tot    0.156  0.065  0.232  0.001  0.009  0.001  0.009  0.000  0.016  0.490
 

 k-point   179 :   -0.12500000 0.04166667 0.44444444     weight = 0.00617284

band     1 # energy   -5.71950772 # occ.  2.00000000
 
ion      s     py     pz     px    dxy    dyz    dz2    dxz  x2-y2    tot
    1  0.004  0.000  0.027  0.000  0.000  0.000  0.000  0.000  0.000  0.032
    2  0.254  0.003  0.001  0.002  0.000  0.000  0.000  0.000  0.000  0.260
    3  0.254  0.003  0.001  0.002  0.000  0.000  0.000  0.000  0.000  0.260
tot    0.513  0.005  0.028  0.004  0.000  0.000  0.000  0.000  0.000  0.551
 
band     2 # energy   -1.76018018 # occ.  2.00000000
 
ion      s     py     pz     px    dxy    dyz    dz2    dxz  x2-y2    tot
    1  0.129  0.003  0.002  0.002  0.000  0.000  0.001  0.000  0.000  0.137
    2  0.004  0.000  0.108  0.000  0.000  0.000  0.000  0.000  0.000  0.112
    3  0.004  0.000  0.108  0.000  0.000  0.000  0.000  0.000  0.000  0.112
tot    0.136  0.003  0.218  0.002  0.000  0.000  0.001  0.000  0.000  0.360
 
band     3 # energy    5.23594569 # occ.  2.06895379
 
ion      s     py     pz     px    dxy    dyz    dz2    dxz  x2-y2    tot
    1  0.000  0.000  0.000  0.000  0.000  0.000  0.000  0.004  0.000  0.005
    2  0.030  0.152  0.000  0.162  0.000  0.000  0.000  0.000  0.000  0.344
    3  0.030  0.152  0.000  0.162  0.000  0.000  0.000  0.000  0.000  0.344
tot    0.059  0.304  0.000  0.324  0.000  0.000  0.000  0.004  0.000  0.692
 
band     4 # energy    5.61324979 # occ. -0.00271976
 
ion      s     py     pz     px    dxy    dyz    dz2    dxz  x2-y2    tot
    1  0.000  0.000  0.000  0.000  0.000  0.005  0.000  0.000  0.000  0.006
    2  0.001  0.179  0.000  0.166  0.000  0.000  0.000  0.000  0.000  0.345
    3  0.001  0.179  0.000  0.166  0.000  0.000  0.000  0.000  0.000  0.345
tot    0.002  0.358  0.000  0.331  0.000  0.005  0.000  0.000  0.000  0.696
 
band     5 # energy   12.00302076 # occ.  0.00000000
 
ion      s     py     pz     px    dxy    dyz    dz2    dxz  x2-y2    tot
    1  0.000  0.000  0.001  0.006  0.017  0.001  0.000  0.002  0.022  0.049
    2  0.003  0.002  0.193  0.006  0.000  0.000  0.000  0.000  0.000  0.205
    3  0.003  0.002  0.193  0.006  0.000  0.000  0.000  0.000  0.000  0.205
tot    0.006  0.005  0.387  0.019  0.017  0.001  0.000  0.002  0.022  0.459
 
band     6 # energy   12.16241254 # occ.  0.00000000
 
ion      s     py     pz     px    dxy    dyz    dz2    dxz  x2-y2    tot
    1  0.001  0.001  0.013  0.003  0.000  0.020  0.001  0.018  0.001  0.058
    2  0.017  0.070  0.010  0.097  0.000  0.000  0.000  0.000  0.000  0.194
    3  0.017  0.070  0.010  0.097  0.000  0.000  0.000  0.000  0.000  0.194
tot    0.035  0.141  0.033  0.196  0.000  0.020  0.001  0.018  0.001  0.447
 
band     7 # energy   12.94806957 # occ.  0.00000000
 
ion      s     py     pz     px    dxy    dyz    dz2    dxz  x2-y2    tot
    1  0.000  0.001  0.000  0.002  0.000  0.025  0.000  0.025  0.000  0.053
    2  0.011  0.109  0.001  0.091  0.000  0.000  0.000  0.000  0.000  0.211
    3  0.011  0.109  0.001  0.091  0.000  0.000  0.000  0.000  0.000  0.211
tot    0.022  0.218  0.002  0.184  0.000  0.025  0.000  0.025  0.000  0.475
 
band     8 # energy   15.19284488 # occ.  0.00000000
 
ion      s     py     pz     px    dxy    dyz    dz2    dxz  x2-y2    tot
    1  0.100  0.000  0.006  0.000  0.000  0.000  0.062  0.000  0.000  0.170
    2  0.006  0.000  0.193  0.000  0.000  0.000  0.000  0.000  0.000  0.199
    3  0.006  0.000  0.193  0.000  0.000  0.000  0.000  0.000  0.000  0.199
tot    0.113  0.000  0.391  0.000  0.000  0.000  0.062  0.000  0.000  0.567
 

 k-point   180 :   -0.04166667 0.04166667 0.44444444     weight = 0.00308642

band     1 # energy   -5.88680249 # occ.  2.00000000
 
ion      s     py     pz     px    dxy    dyz    dz2    dxz  x2-y2    tot
    1  0.005  0.000  0.027  0.000  0.000  0.000  0.000  0.000  0.000  0.032
    2  0.257  0.001  0.001  0.000  0.000  0.000  0.000  0.000  0.000  0.259
    3  0.257  0.001  0.001  0.000  0.000  0.000  0.000  0.000  0.000  0.259
tot    0.519  0.001  0.028  0.000  0.000  0.000  0.000  0.000  0.000  0.549
 
band     2 # energy   -1.96739888 # occ.  2.00000000
 
ion      s     py     pz     px    dxy    dyz    dz2    dxz  x2-y2    tot
    1  0.133  0.001  0.002  0.000  0.000  0.000  0.001  0.000  0.000  0.138
    2  0.004  0.000  0.108  0.000  0.000  0.000  0.000  0.000  0.000  0.111
    3  0.004  0.000  0.108  0.000  0.000  0.000  0.000  0.000  0.000  0.111
tot    0.141  0.001  0.218  0.000  0.000  0.000  0.001  0.000  0.000  0.361
 
band     3 # energy    5.99663134 # occ. -0.00000000
 
ion      s     py     pz     px    dxy    dyz    dz2    dxz  x2-y2    tot
    1  0.000  0.000  0.000  0.000  0.000  0.001  0.000  0.000  0.000  0.001
    2  0.005  0.351  0.000  0.000  0.000  0.000  0.000  0.000  0.000  0.356
    3  0.005  0.351  0.000  0.000  0.000  0.000  0.000  0.000  0.000  0.356
tot    0.011  0.702  0.000  0.000  0.000  0.001  0.000  0.000  0.000  0.714
 
band     4 # energy    6.06729007 # occ. -0.00000000
 
ion      s     py     pz     px    dxy    dyz    dz2    dxz  x2-y2    tot
    1  0.000  0.000  0.000  0.000  0.000  0.000  0.000  0.001  0.000  0.001
    2  0.000  0.000  0.000  0.358  0.000  0.000  0.000  0.000  0.000  0.358
    3  0.000  0.000  0.000  0.358  0.000  0.000  0.000  0.000  0.000  0.358
tot    0.000  0.000  0.000  0.715  0.000  0.000  0.000  0.001  0.000  0.717
 
band     5 # energy   12.10360673 # occ.  0.00000000
 
ion      s     py     pz     px    dxy    dyz    dz2    dxz  x2-y2    tot
    1  0.000  0.003  0.002  0.000  0.000  0.053  0.000  0.000  0.000  0.058
    2  0.003  0.193  0.000  0.000  0.000  0.000  0.000  0.000  0.000  0.196
    3  0.003  0.193  0.000  0.000  0.000  0.000  0.000  0.000  0.000  0.196
tot    0.006  0.388  0.003  0.000  0.000  0.053  0.000  0.000  0.000  0.450
 
band     6 # energy   12.24175438 # occ.  0.00000000
 
ion      s     py     pz     px    dxy    dyz    dz2    dxz  x2-y2    tot
    1  0.000  0.000  0.000  0.003  0.000  0.000  0.000  0.055  0.000  0.057
    2  0.000  0.000  0.000  0.199  0.000  0.000  0.000  0.000  0.000  0.199
    3  0.000  0.000  0.000  0.199  0.000  0.000  0.000  0.000  0.000  0.199
tot    0.000  0.000  0.000  0.401  0.000  0.000  0.000  0.055  0.000  0.456
 
band     7 # energy   13.21368737 # occ.  0.00000000
 
ion      s     py     pz     px    dxy    dyz    dz2    dxz  x2-y2    tot
    1  0.000  0.000  0.000  0.000  0.000  0.000  0.000  0.000  0.012  0.012
    2  0.004  0.000  0.256  0.000  0.000  0.000  0.000  0.000  0.000  0.260
    3  0.004  0.000  0.256  0.000  0.000  0.000  0.000  0.000  0.000  0.260
tot    0.008  0.001  0.511  0.000  0.000  0.000  0.000  0.000  0.012  0.533
 
band     8 # energy   15.03134698 # occ.  0.00000000
 
ion      s     py     pz     px    dxy    dyz    dz2    dxz  x2-y2    tot
    1  0.088  0.000  0.006  0.000  0.000  0.000  0.071  0.000  0.000  0.165
    2  0.005  0.000  0.189  0.000  0.000  0.000  0.000  0.000  0.000  0.194
    3  0.005  0.000  0.189  0.000  0.000  0.000  0.000  0.000  0.000  0.194
tot    0.098  0.000  0.384  0.000  0.000  0.000  0.071  0.000  0.000  0.553
 

 k-point   181 :    0.12500000 0.12500000 0.44444444     weight = 0.00308642

band     1 # energy   -5.16401791 # occ.  2.00000000
 
ion      s     py     pz     px    dxy    dyz    dz2    dxz  x2-y2    tot
    1  0.004  0.000  0.025  0.000  0.000  0.000  0.000  0.002  0.000  0.030
    2  0.245  0.000  0.000  0.018  0.000  0.000  0.000  0.000  0.000  0.263
    3  0.245  0.000  0.000  0.018  0.000  0.000  0.000  0.000  0.000  0.263
tot    0.494  0.000  0.025  0.036  0.000  0.000  0.000  0.002  0.000  0.557
 
band     2 # energy   -1.07850805 # occ.  2.00000000
 
ion      s     py     pz     px    dxy    dyz    dz2    dxz  x2-y2    tot
    1  0.113  0.000  0.002  0.017  0.000  0.000  0.001  0.000  0.000  0.134
    2  0.003  0.000  0.109  0.000  0.000  0.000  0.000  0.000  0.000  0.113
    3  0.003  0.000  0.109  0.000  0.000  0.000  0.000  0.000  0.000  0.113
tot    0.120  0.000  0.221  0.018  0.000  0.000  0.001  0.000  0.000  0.359
 
band     3 # energy    3.60116726 # occ.  2.00000000
 
ion      s     py     pz     px    dxy    dyz    dz2    dxz  x2-y2    tot
    1  0.000  0.001  0.000  0.000  0.000  0.008  0.000  0.000  0.000  0.009
    2  0.078  0.033  0.000  0.220  0.000  0.000  0.000  0.000  0.000  0.331
    3  0.078  0.033  0.000  0.220  0.000  0.000  0.000  0.000  0.000  0.331
tot    0.156  0.067  0.000  0.440  0.000  0.008  0.000  0.000  0.000  0.671
 
band     4 # energy    4.31945152 # occ.  2.00000000
 
ion      s     py     pz     px    dxy    dyz    dz2    dxz  x2-y2    tot
    1  0.000  0.000  0.006  0.001  0.000  0.000  0.000  0.010  0.000  0.017
    2  0.008  0.261  0.000  0.046  0.000  0.000  0.000  0.000  0.000  0.315
    3  0.008  0.261  0.000  0.046  0.000  0.000  0.000  0.000  0.000  0.315
tot    0.016  0.521  0.006  0.094  0.000  0.000  0.000  0.010  0.000  0.648
 
band     5 # energy    9.63459888 # occ.  0.00000000
 
ion      s     py     pz     px    dxy    dyz    dz2    dxz  x2-y2    tot
    1  0.000  0.029  0.000  0.000  0.048  0.000  0.000  0.000  0.000  0.077
    2  0.000  0.000  0.159  0.001  0.000  0.000  0.000  0.000  0.000  0.160
    3  0.000  0.000  0.159  0.001  0.000  0.000  0.000  0.000  0.000  0.160
tot    0.000  0.030  0.317  0.002  0.048  0.000  0.000  0.000  0.000  0.398
 
band     6 # energy   12.63343309 # occ.  0.00000000
 
ion      s     py     pz     px    dxy    dyz    dz2    dxz  x2-y2    tot
    1  0.003  0.000  0.033  0.003  0.000  0.000  0.002  0.020  0.000  0.061
    2  0.032  0.095  0.000  0.066  0.000  0.000  0.000  0.000  0.000  0.193
    3  0.032  0.095  0.000  0.066  0.000  0.000  0.000  0.000  0.000  0.193
tot    0.067  0.189  0.034  0.136  0.000  0.000  0.002  0.020  0.000  0.447
 
band     7 # energy   14.05619793 # occ.  0.00000000
 
ion      s     py     pz     px    dxy    dyz    dz2    dxz  x2-y2    tot
    1  0.000  0.003  0.000  0.000  0.000  0.034  0.000  0.000  0.000  0.037
    2  0.100  0.142  0.000  0.001  0.000  0.000  0.000  0.000  0.000  0.243
    3  0.100  0.142  0.000  0.001  0.000  0.000  0.000  0.000  0.000  0.243
tot    0.199  0.287  0.001  0.002  0.000  0.034  0.000  0.000  0.000  0.523
 
band     8 # energy   14.25120409 # occ.  0.00000000
 
ion      s     py     pz     px    dxy    dyz    dz2    dxz  x2-y2    tot
    1  0.158  0.000  0.001  0.120  0.000  0.000  0.000  0.002  0.026  0.307
    2  0.000  0.000  0.035  0.001  0.000  0.000  0.000  0.000  0.000  0.036
    3  0.000  0.000  0.035  0.001  0.000  0.000  0.000  0.000  0.000  0.036
tot    0.158  0.000  0.071  0.122  0.000  0.000  0.000  0.002  0.026  0.380
 

 k-point   182 :    0.20833333 0.12500000 0.44444444     weight = 0.00617284

band     1 # energy   -4.55631899 # occ.  2.00000000
 
ion      s     py     pz     px    dxy    dyz    dz2    dxz  x2-y2    tot
    1  0.003  0.000  0.022  0.001  0.000  0.000  0.000  0.003  0.000  0.029
    2  0.235  0.001  0.000  0.031  0.000  0.000  0.000  0.000  0.000  0.268
    3  0.235  0.001  0.000  0.031  0.000  0.000  0.000  0.000  0.000  0.268
tot    0.474  0.001  0.023  0.063  0.000  0.000  0.000  0.003  0.000  0.564
 
band     2 # energy   -0.34694324 # occ.  2.00000000
 
ion      s     py     pz     px    dxy    dyz    dz2    dxz  x2-y2    tot
    1  0.096  0.001  0.002  0.030  0.000  0.000  0.001  0.000  0.001  0.130
    2  0.003  0.000  0.112  0.001  0.000  0.000  0.000  0.000  0.000  0.115
    3  0.003  0.000  0.112  0.001  0.000  0.000  0.000  0.000  0.000  0.115
tot    0.101  0.001  0.225  0.031  0.000  0.000  0.001  0.000  0.001  0.359
 
band     3 # energy    2.23874586 # occ.  2.00000000
 
ion      s     py     pz     px    dxy    dyz    dz2    dxz  x2-y2    tot
    1  0.000  0.001  0.003  0.000  0.000  0.007  0.000  0.002  0.000  0.014
    2  0.105  0.054  0.000  0.157  0.000  0.000  0.000  0.000  0.000  0.316
    3  0.105  0.054  0.000  0.157  0.000  0.000  0.000  0.000  0.000  0.316
tot    0.211  0.108  0.003  0.313  0.000  0.007  0.000  0.002  0.000  0.646
 
band     4 # energy    3.47752984 # occ.  2.00000000
 
ion      s     py     pz     px    dxy    dyz    dz2    dxz  x2-y2    tot
    1  0.001  0.000  0.008  0.000  0.000  0.003  0.000  0.009  0.000  0.020
    2  0.019  0.216  0.000  0.072  0.000  0.000  0.000  0.000  0.000  0.307
    3  0.019  0.216  0.000  0.072  0.000  0.000  0.000  0.000  0.000  0.307
tot    0.039  0.433  0.008  0.144  0.000  0.003  0.000  0.009  0.000  0.634
 
band     5 # energy    7.95219060 # occ. -0.00000000
 
ion      s     py     pz     px    dxy    dyz    dz2    dxz  x2-y2    tot
    1  0.007  0.039  0.000  0.004  0.040  0.001  0.000  0.000  0.001  0.091
    2  0.000  0.000  0.141  0.001  0.000  0.000  0.000  0.000  0.000  0.143
    3  0.000  0.000  0.141  0.001  0.000  0.000  0.000  0.000  0.000  0.143
tot    0.007  0.039  0.283  0.006  0.040  0.001  0.000  0.000  0.001  0.377
 
band     6 # energy   12.70335404 # occ.  0.00000000
 
ion      s     py     pz     px    dxy    dyz    dz2    dxz  x2-y2    tot
    1  0.057  0.000  0.025  0.030  0.001  0.003  0.003  0.004  0.001  0.124
    2  0.058  0.080  0.003  0.019  0.000  0.000  0.000  0.000  0.000  0.160
    3  0.058  0.080  0.003  0.019  0.000  0.000  0.000  0.000  0.000  0.160
tot    0.173  0.160  0.031  0.069  0.001  0.003  0.003  0.004  0.001  0.444
 
band     7 # energy   13.02284019 # occ.  0.00000000
 
ion      s     py     pz     px    dxy    dyz    dz2    dxz  x2-y2    tot
    1  0.137  0.006  0.016  0.075  0.001  0.001  0.000  0.005  0.008  0.250
    2  0.017  0.017  0.023  0.009  0.000  0.000  0.000  0.000  0.000  0.066
    3  0.017  0.017  0.023  0.009  0.000  0.000  0.000  0.000  0.000  0.066
tot    0.171  0.041  0.062  0.093  0.001  0.001  0.000  0.005  0.008  0.382
 
band     8 # energy   15.21855922 # occ.  0.00000000
 
ion      s     py     pz     px    dxy    dyz    dz2    dxz  x2-y2    tot
    1  0.000  0.001  0.006  0.000  0.000  0.020  0.001  0.004  0.000  0.032
    2  0.097  0.147  0.001  0.013  0.000  0.000  0.000  0.000  0.000  0.258
    3  0.097  0.147  0.001  0.013  0.000  0.000  0.000  0.000  0.000  0.258
tot    0.193  0.296  0.008  0.026  0.000  0.020  0.001  0.004  0.000  0.548
 

 k-point   183 :    0.29166667 0.12500000 0.44444444     weight = 0.00617284

band     1 # energy   -3.73741325 # occ.  2.00000000
 
ion      s     py     pz     px    dxy    dyz    dz2    dxz  x2-y2    tot
    1  0.002  0.000  0.019  0.001  0.000  0.000  0.000  0.004  0.000  0.027
    2  0.224  0.003  0.000  0.047  0.000  0.000  0.000  0.000  0.000  0.274
    3  0.224  0.003  0.000  0.047  0.000  0.000  0.000  0.000  0.000  0.274
tot    0.450  0.005  0.020  0.095  0.000  0.000  0.000  0.004  0.000  0.574
 
band     2 # energy    0.59665651 # occ.  2.00000000
 
ion      s     py     pz     px    dxy    dyz    dz2    dxz  x2-y2    tot
    1  0.062  0.003  0.003  0.044  0.000  0.000  0.000  0.000  0.001  0.115
    2  0.008  0.004  0.107  0.010  0.000  0.000  0.000  0.000  0.000  0.129
    3  0.008  0.004  0.107  0.010  0.000  0.000  0.000  0.000  0.000  0.129
tot    0.077  0.012  0.218  0.064  0.000  0.000  0.000  0.000  0.001  0.373
 
band     3 # energy    0.72728343 # occ.  2.00000000
 
ion      s     py     pz     px    dxy    dyz    dz2    dxz  x2-y2    tot
    1  0.009  0.000  0.007  0.002  0.000  0.005  0.000  0.004  0.000  0.027
    2  0.122  0.054  0.008  0.104  0.000  0.000  0.000  0.000  0.000  0.288
    3  0.122  0.054  0.008  0.104  0.000  0.000  0.000  0.000  0.000  0.288
tot    0.254  0.107  0.023  0.210  0.000  0.005  0.000  0.004  0.000  0.604
 
band     4 # energy    2.92971228 # occ.  2.00000000
 
ion      s     py     pz     px    dxy    dyz    dz2    dxz  x2-y2    tot
    1  0.001  0.000  0.008  0.000  0.000  0.006  0.000  0.006  0.000  0.021
    2  0.028  0.200  0.000  0.079  0.000  0.000  0.000  0.000  0.000  0.307
    3  0.028  0.200  0.000  0.079  0.000  0.000  0.000  0.000  0.000  0.307
tot    0.056  0.401  0.008  0.158  0.000  0.006  0.000  0.006  0.000  0.634
 
band     5 # energy    6.25291071 # occ. -0.00000000
 
ion      s     py     pz     px    dxy    dyz    dz2    dxz  x2-y2    tot
    1  0.030  0.039  0.000  0.008  0.029  0.001  0.000  0.000  0.002  0.108
    2  0.000  0.000  0.127  0.001  0.000  0.000  0.000  0.000  0.000  0.128
    3  0.000  0.000  0.127  0.001  0.000  0.000  0.000  0.000  0.000  0.128
tot    0.031  0.040  0.254  0.010  0.029  0.001  0.000  0.000  0.002  0.365
 
band     6 # energy   12.02491475 # occ.  0.00000000
 
ion      s     py     pz     px    dxy    dyz    dz2    dxz  x2-y2    tot
    1  0.209  0.017  0.000  0.066  0.006  0.001  0.003  0.000  0.001  0.301
    2  0.008  0.009  0.024  0.001  0.000  0.000  0.000  0.000  0.000  0.041
    3  0.008  0.009  0.024  0.001  0.000  0.000  0.000  0.000  0.000  0.041
tot    0.224  0.034  0.048  0.067  0.006  0.001  0.003  0.000  0.001  0.383
 
band     7 # energy   12.65901387 # occ.  0.00000000
 
ion      s     py     pz     px    dxy    dyz    dz2    dxz  x2-y2    tot
    1  0.007  0.004  0.044  0.004  0.000  0.003  0.000  0.003  0.001  0.065
    2  0.106  0.069  0.004  0.014  0.000  0.000  0.000  0.000  0.000  0.193
    3  0.106  0.069  0.004  0.014  0.000  0.000  0.000  0.000  0.000  0.193
tot    0.220  0.142  0.052  0.031  0.000  0.003  0.000  0.003  0.001  0.452
 
band     8 # energy   16.89303419 # occ.  0.00000000
 
ion      s     py     pz     px    dxy    dyz    dz2    dxz  x2-y2    tot
    1  0.006  0.001  0.006  0.018  0.001  0.006  0.007  0.007  0.000  0.051
    2  0.052  0.136  0.040  0.028  0.000  0.000  0.000  0.000  0.000  0.256
    3  0.052  0.136  0.040  0.028  0.000  0.000  0.000  0.000  0.000  0.256
tot    0.109  0.274  0.086  0.073  0.001  0.006  0.007  0.007  0.000  0.563
 

 k-point   184 :    0.37500000 0.12500000 0.44444444     weight = 0.00617284

band     1 # energy   -2.73088216 # occ.  2.00000000
 
ion      s     py     pz     px    dxy    dyz    dz2    dxz  x2-y2    tot
    1  0.001  0.000  0.013  0.001  0.000  0.001  0.000  0.007  0.000  0.023
    2  0.216  0.005  0.000  0.062  0.000  0.000  0.000  0.000  0.000  0.283
    3  0.216  0.005  0.000  0.062  0.000  0.000  0.000  0.000  0.000  0.283
tot    0.433  0.011  0.014  0.125  0.000  0.001  0.000  0.007  0.000  0.590
 
band     2 # energy   -0.72106554 # occ.  2.00000000
 
ion      s     py     pz     px    dxy    dyz    dz2    dxz  x2-y2    tot
    1  0.001  0.001  0.016  0.000  0.000  0.004  0.000  0.002  0.000  0.025
    2  0.142  0.052  0.000  0.089  0.000  0.000  0.000  0.000  0.000  0.284
    3  0.142  0.052  0.000  0.089  0.000  0.000  0.000  0.000  0.000  0.284
tot    0.286  0.105  0.017  0.179  0.000  0.004  0.000  0.002  0.000  0.593
 
band     3 # energy    1.65581322 # occ.  2.00000000
 
ion      s     py     pz     px    dxy    dyz    dz2    dxz  x2-y2    tot
    1  0.030  0.009  0.000  0.065  0.000  0.000  0.000  0.001  0.002  0.107
    2  0.002  0.000  0.122  0.001  0.000  0.000  0.000  0.000  0.000  0.125
    3  0.002  0.000  0.122  0.001  0.000  0.000  0.000  0.000  0.000  0.125
tot    0.034  0.009  0.245  0.066  0.000  0.000  0.000  0.001  0.002  0.358
 
band     4 # energy    2.62596917 # occ.  2.00000000
 
ion      s     py     pz     px    dxy    dyz    dz2    dxz  x2-y2    tot
    1  0.000  0.001  0.008  0.000  0.000  0.008  0.000  0.004  0.000  0.021
    2  0.031  0.200  0.000  0.074  0.000  0.000  0.000  0.000  0.000  0.306
    3  0.031  0.200  0.000  0.074  0.000  0.000  0.000  0.000  0.000  0.306
tot    0.063  0.401  0.008  0.149  0.000  0.008  0.000  0.004  0.000  0.633
 
band     5 # energy    4.75791972 # occ.  2.00000000
 
ion      s     py     pz     px    dxy    dyz    dz2    dxz  x2-y2    tot
    1  0.072  0.030  0.001  0.003  0.021  0.000  0.000  0.000  0.003  0.130
    2  0.001  0.000  0.113  0.001  0.000  0.000  0.000  0.000  0.000  0.115
    3  0.001  0.000  0.113  0.001  0.000  0.000  0.000  0.000  0.000  0.115
tot    0.073  0.031  0.227  0.005  0.021  0.000  0.000  0.000  0.003  0.360
 
band     6 # energy   11.55882149 # occ.  0.00000000
 
ion      s     py     pz     px    dxy    dyz    dz2    dxz  x2-y2    tot
    1  0.225  0.035  0.000  0.035  0.006  0.001  0.003  0.000  0.000  0.305
    2  0.004  0.004  0.028  0.001  0.000  0.000  0.000  0.000  0.000  0.037
    3  0.004  0.004  0.028  0.001  0.000  0.000  0.000  0.000  0.000  0.037
tot    0.233  0.044  0.056  0.036  0.006  0.001  0.003  0.000  0.000  0.380
 
band     7 # energy   12.51399821 # occ.  0.00000000
 
ion      s     py     pz     px    dxy    dyz    dz2    dxz  x2-y2    tot
    1  0.002  0.003  0.046  0.001  0.000  0.001  0.000  0.000  0.000  0.056
    2  0.128  0.055  0.003  0.015  0.000  0.000  0.000  0.000  0.000  0.201
    3  0.128  0.055  0.003  0.015  0.000  0.000  0.000  0.000  0.000  0.201
tot    0.258  0.113  0.051  0.032  0.000  0.001  0.000  0.000  0.000  0.457
 
band     8 # energy   17.60961437 # occ.  0.00000000
 
ion      s     py     pz     px    dxy    dyz    dz2    dxz  x2-y2    tot
    1  0.069  0.072  0.000  0.079  0.004  0.001  0.000  0.001  0.003  0.229
    2  0.001  0.002  0.141  0.004  0.000  0.000  0.000  0.000  0.000  0.148
    3  0.001  0.002  0.141  0.004  0.000  0.000  0.000  0.000  0.000  0.148
tot    0.070  0.076  0.283  0.087  0.004  0.001  0.000  0.001  0.003  0.525
 

 k-point   185 :    0.45833333 0.12500000 0.44444444     weight = 0.00617284

band     1 # energy   -2.21750350 # occ.  2.00000000
 
ion      s     py     pz     px    dxy    dyz    dz2    dxz  x2-y2    tot
    1  0.001  0.001  0.005  0.001  0.000  0.004  0.000  0.007  0.000  0.018
    2  0.230  0.030  0.000  0.034  0.000  0.000  0.000  0.000  0.000  0.294
    3  0.230  0.030  0.000  0.034  0.000  0.000  0.000  0.000  0.000  0.294
tot    0.460  0.060  0.006  0.069  0.000  0.004  0.000  0.007  0.000  0.606
 
band     2 # energy   -1.32399451 # occ.  2.00000000
 
ion      s     py     pz     px    dxy    dyz    dz2    dxz  x2-y2    tot
    1  0.002  0.000  0.024  0.000  0.000  0.000  0.000  0.003  0.000  0.030
    2  0.129  0.025  0.000  0.118  0.000  0.000  0.000  0.000  0.000  0.272
    3  0.129  0.025  0.000  0.118  0.000  0.000  0.000  0.000  0.000  0.272
tot    0.261  0.049  0.025  0.236  0.000  0.000  0.000  0.003  0.000  0.574
 
band     3 # energy    2.03972437 # occ.  2.00000000
 
ion      s     py     pz     px    dxy    dyz    dz2    dxz  x2-y2    tot
    1  0.005  0.028  0.000  0.061  0.001  0.000  0.000  0.001  0.001  0.097
    2  0.002  0.001  0.127  0.000  0.000  0.000  0.000  0.000  0.000  0.130
    3  0.002  0.001  0.127  0.000  0.000  0.000  0.000  0.000  0.000  0.130
tot    0.009  0.029  0.255  0.062  0.001  0.000  0.000  0.001  0.001  0.357
 
band     4 # energy    2.56454404 # occ.  2.00000000
 
ion      s     py     pz     px    dxy    dyz    dz2    dxz  x2-y2    tot
    1  0.000  0.001  0.008  0.000  0.000  0.009  0.000  0.003  0.000  0.021
    2  0.032  0.204  0.000  0.069  0.000  0.000  0.000  0.000  0.000  0.306
    3  0.032  0.204  0.000  0.069  0.000  0.000  0.000  0.000  0.000  0.306
tot    0.064  0.409  0.008  0.139  0.000  0.009  0.000  0.003  0.000  0.632
 
band     5 # energy    4.28301978 # occ.  2.00000000
 
ion      s     py     pz     px    dxy    dyz    dz2    dxz  x2-y2    tot
    1  0.097  0.007  0.001  0.013  0.015  0.000  0.000  0.000  0.007  0.141
    2  0.001  0.001  0.107  0.001  0.000  0.000  0.000  0.000  0.000  0.109
    3  0.001  0.001  0.107  0.001  0.000  0.000  0.000  0.000  0.000  0.109
tot    0.099  0.008  0.215  0.015  0.015  0.000  0.000  0.000  0.007  0.359
 
band     6 # energy   11.46599974 # occ.  0.00000000
 
ion      s     py     pz     px    dxy    dyz    dz2    dxz  x2-y2    tot
    1  0.227  0.056  0.000  0.012  0.004  0.001  0.003  0.000  0.002  0.305
    2  0.004  0.003  0.029  0.001  0.000  0.000  0.000  0.000  0.000  0.038
    3  0.004  0.003  0.029  0.001  0.000  0.000  0.000  0.000  0.000  0.038
tot    0.235  0.062  0.058  0.015  0.004  0.001  0.003  0.000  0.002  0.380
 
band     7 # energy   12.48338398 # occ.  0.00000000
 
ion      s     py     pz     px    dxy    dyz    dz2    dxz  x2-y2    tot
    1  0.002  0.004  0.047  0.001  0.000  0.000  0.000  0.000  0.000  0.055
    2  0.132  0.041  0.002  0.026  0.000  0.000  0.000  0.000  0.000  0.202
    3  0.132  0.041  0.002  0.026  0.000  0.000  0.000  0.000  0.000  0.202
tot    0.266  0.085  0.051  0.054  0.000  0.000  0.000  0.000  0.000  0.458
 
band     8 # energy   17.64953603 # occ.  0.00000000
 
ion      s     py     pz     px    dxy    dyz    dz2    dxz  x2-y2    tot
    1  0.075  0.141  0.000  0.034  0.010  0.000  0.001  0.000  0.002  0.264
    2  0.000  0.001  0.114  0.001  0.000  0.000  0.000  0.000  0.000  0.116
    3  0.000  0.001  0.113  0.001  0.000  0.000  0.000  0.000  0.000  0.116
tot    0.075  0.143  0.227  0.037  0.010  0.000  0.001  0.000  0.002  0.496
 

 k-point   186 :   -0.45833333 0.12500000 0.44444444     weight = 0.00617284

band     1 # energy   -3.25406926 # occ.  2.00000000
 
ion      s     py     pz     px    dxy    dyz    dz2    dxz  x2-y2    tot
    1  0.002  0.001  0.016  0.001  0.000  0.003  0.000  0.003  0.000  0.025
    2  0.218  0.030  0.000  0.029  0.000  0.000  0.000  0.000  0.000  0.278
    3  0.218  0.030  0.000  0.029  0.000  0.000  0.000  0.000  0.000  0.278
tot    0.438  0.061  0.017  0.059  0.000  0.003  0.000  0.003  0.000  0.581
 
band     2 # energy   -0.02265143 # occ.  2.00000000
 
ion      s     py     pz     px    dxy    dyz    dz2    dxz  x2-y2    tot
    1  0.001  0.000  0.012  0.001  0.000  0.000  0.000  0.007  0.000  0.022
    2  0.137  0.025  0.000  0.130  0.000  0.000  0.000  0.000  0.000  0.291
    3  0.137  0.025  0.000  0.130  0.000  0.000  0.000  0.000  0.000  0.291
tot    0.275  0.049  0.013  0.261  0.000  0.000  0.000  0.007  0.000  0.605
 
band     3 # energy    1.13710584 # occ.  2.00000000
 
ion      s     py     pz     px    dxy    dyz    dz2    dxz  x2-y2    tot
    1  0.053  0.028  0.001  0.031  0.002  0.000  0.000  0.000  0.000  0.116
    2  0.003  0.001  0.118  0.000  0.000  0.000  0.000  0.000  0.000  0.121
    3  0.003  0.001  0.118  0.000  0.000  0.000  0.000  0.000  0.000  0.121
tot    0.058  0.029  0.237  0.032  0.002  0.000  0.000  0.000  0.000  0.358
 
band     4 # energy    2.74668399 # occ.  2.00000000
 
ion      s     py     pz     px    dxy    dyz    dz2    dxz  x2-y2    tot
    1  0.000  0.001  0.008  0.000  0.000  0.011  0.000  0.001  0.000  0.021
    2  0.030  0.210  0.000  0.066  0.000  0.000  0.000  0.000  0.000  0.306
    3  0.030  0.210  0.000  0.066  0.000  0.000  0.000  0.000  0.000  0.306
tot    0.061  0.420  0.008  0.133  0.000  0.011  0.000  0.001  0.000  0.633
 
band     5 # energy    5.45738553 # occ. -0.02451854
 
ion      s     py     pz     px    dxy    dyz    dz2    dxz  x2-y2    tot
    1  0.048  0.001  0.001  0.042  0.014  0.000  0.000  0.001  0.012  0.118
    2  0.001  0.001  0.120  0.001  0.000  0.000  0.000  0.000  0.000  0.122
    3  0.001  0.001  0.120  0.001  0.000  0.000  0.000  0.000  0.000  0.122
tot    0.049  0.002  0.240  0.043  0.014  0.000  0.000  0.001  0.012  0.362
 
band     6 # energy   11.74508633 # occ.  0.00000000
 
ion      s     py     pz     px    dxy    dyz    dz2    dxz  x2-y2    tot
    1  0.219  0.075  0.000  0.001  0.001  0.001  0.003  0.000  0.005  0.305
    2  0.005  0.003  0.026  0.003  0.000  0.000  0.000  0.000  0.000  0.038
    3  0.005  0.003  0.026  0.003  0.000  0.000  0.000  0.000  0.000  0.038
tot    0.230  0.081  0.053  0.007  0.001  0.001  0.003  0.000  0.005  0.381
 
band     7 # energy   12.57338325 # occ.  0.00000000
 
ion      s     py     pz     px    dxy    dyz    dz2    dxz  x2-y2    tot
    1  0.004  0.005  0.045  0.001  0.000  0.000  0.000  0.003  0.000  0.059
    2  0.120  0.030  0.003  0.046  0.000  0.000  0.000  0.000  0.000  0.199
    3  0.120  0.030  0.003  0.046  0.000  0.000  0.000  0.000  0.000  0.199
tot    0.244  0.064  0.051  0.093  0.000  0.000  0.000  0.003  0.000  0.456
 
band     8 # energy   17.40955107 # occ.  0.00000000
 
ion      s     py     pz     px    dxy    dyz    dz2    dxz  x2-y2    tot
    1  0.045  0.097  0.000  0.002  0.001  0.003  0.009  0.002  0.000  0.159
    2  0.005  0.011  0.165  0.016  0.000  0.000  0.000  0.000  0.000  0.197
    3  0.005  0.011  0.165  0.016  0.000  0.000  0.000  0.000  0.000  0.197
tot    0.055  0.119  0.331  0.033  0.001  0.003  0.009  0.002  0.000  0.554
 

 k-point   187 :   -0.37500000 0.12500000 0.44444444     weight = 0.00617284

band     1 # energy   -4.17273820 # occ.  2.00000000
 
ion      s     py     pz     px    dxy    dyz    dz2    dxz  x2-y2    tot
    1  0.003  0.000  0.021  0.000  0.000  0.002  0.000  0.002  0.000  0.028
    2  0.230  0.023  0.000  0.017  0.000  0.000  0.000  0.000  0.000  0.270
    3  0.230  0.023  0.000  0.017  0.000  0.000  0.000  0.000  0.000  0.270
tot    0.462  0.047  0.021  0.035  0.000  0.002  0.000  0.002  0.000  0.569
 
band     2 # energy    0.10484615 # occ.  2.00000000
 
ion      s     py     pz     px    dxy    dyz    dz2    dxz  x2-y2    tot
    1  0.084  0.022  0.002  0.017  0.001  0.000  0.001  0.000  0.000  0.126
    2  0.002  0.000  0.113  0.000  0.000  0.000  0.000  0.000  0.000  0.116
    3  0.002  0.000  0.113  0.000  0.000  0.000  0.000  0.000  0.000  0.116
tot    0.088  0.023  0.228  0.018  0.001  0.000  0.001  0.000  0.000  0.358
 
band     3 # energy    1.47891787 # occ.  2.00000000
 
ion      s     py     pz     px    dxy    dyz    dz2    dxz  x2-y2    tot
    1  0.001  0.000  0.006  0.001  0.000  0.000  0.000  0.009  0.000  0.017
    2  0.117  0.042  0.000  0.147  0.000  0.000  0.000  0.000  0.000  0.307
    3  0.117  0.042  0.000  0.147  0.000  0.000  0.000  0.000  0.000  0.307
tot    0.235  0.085  0.006  0.296  0.000  0.000  0.000  0.009  0.000  0.631
 
band     4 # energy    3.17161389 # occ.  2.00000000
 
ion      s     py     pz     px    dxy    dyz    dz2    dxz  x2-y2    tot
    1  0.001  0.001  0.008  0.000  0.000  0.011  0.000  0.000  0.000  0.021
    2  0.024  0.207  0.000  0.075  0.000  0.000  0.000  0.000  0.000  0.307
    3  0.024  0.207  0.000  0.075  0.000  0.000  0.000  0.000  0.000  0.307
tot    0.049  0.415  0.008  0.151  0.000  0.011  0.000  0.000  0.000  0.634
 
band     5 # energy    7.09395979 # occ. -0.00000000
 
ion      s     py     pz     px    dxy    dyz    dz2    dxz  x2-y2    tot
    1  0.016  0.001  0.000  0.045  0.016  0.000  0.000  0.001  0.020  0.099
    2  0.000  0.001  0.134  0.001  0.000  0.000  0.000  0.000  0.000  0.135
    3  0.000  0.001  0.134  0.001  0.000  0.000  0.000  0.000  0.000  0.135
tot    0.017  0.002  0.268  0.047  0.016  0.000  0.000  0.001  0.020  0.370
 
band     6 # energy   12.38686453 # occ.  0.00000000
 
ion      s     py     pz     px    dxy    dyz    dz2    dxz  x2-y2    tot
    1  0.181  0.079  0.003  0.004  0.000  0.000  0.003  0.001  0.006  0.276
    2  0.018  0.007  0.019  0.016  0.000  0.000  0.000  0.000  0.000  0.059
    3  0.018  0.007  0.019  0.016  0.000  0.000  0.000  0.000  0.000  0.059
tot    0.216  0.093  0.040  0.036  0.000  0.000  0.003  0.001  0.006  0.394
 
band     7 # energy   12.77296302 # occ.  0.00000000
 
ion      s     py     pz     px    dxy    dyz    dz2    dxz  x2-y2    tot
    1  0.026  0.017  0.040  0.000  0.001  0.002  0.000  0.007  0.001  0.094
    2  0.080  0.021  0.008  0.063  0.000  0.000  0.000  0.000  0.000  0.172
    3  0.080  0.021  0.008  0.063  0.000  0.000  0.000  0.000  0.000  0.172
tot    0.186  0.059  0.056  0.126  0.001  0.002  0.000  0.007  0.001  0.437
 
band     8 # energy   16.04489496 # occ.  0.00000000
 
ion      s     py     pz     px    dxy    dyz    dz2    dxz  x2-y2    tot
    1  0.000  0.003  0.009  0.000  0.000  0.014  0.001  0.004  0.001  0.033
    2  0.081  0.057  0.005  0.121  0.000  0.000  0.000  0.000  0.000  0.263
    3  0.081  0.057  0.005  0.121  0.000  0.000  0.000  0.000  0.000  0.263
tot    0.161  0.117  0.018  0.242  0.000  0.014  0.001  0.004  0.001  0.559
 

 k-point   188 :   -0.29166667 0.12500000 0.44444444     weight = 0.00617284

band     1 # energy   -4.88742883 # occ.  2.00000000
 
ion      s     py     pz     px    dxy    dyz    dz2    dxz  x2-y2    tot
    1  0.003  0.000  0.023  0.000  0.000  0.002  0.000  0.001  0.000  0.030
    2  0.240  0.016  0.000  0.008  0.000  0.000  0.000  0.000  0.000  0.265
    3  0.240  0.016  0.000  0.008  0.000  0.000  0.000  0.000  0.000  0.265
tot    0.484  0.033  0.024  0.016  0.000  0.002  0.000  0.001  0.000  0.560
 
band     2 # energy   -0.74312906 # occ.  2.00000000
 
ion      s     py     pz     px    dxy    dyz    dz2    dxz  x2-y2    tot
    1  0.105  0.016  0.002  0.008  0.000  0.000  0.001  0.000  0.000  0.132
    2  0.003  0.000  0.110  0.000  0.000  0.000  0.000  0.000  0.000  0.114
    3  0.003  0.000  0.110  0.000  0.000  0.000  0.000  0.000  0.000  0.114
tot    0.111  0.016  0.223  0.008  0.000  0.000  0.001  0.000  0.000  0.359
 
band     3 # energy    2.96233765 # occ.  2.00000000
 
ion      s     py     pz     px    dxy    dyz    dz2    dxz  x2-y2    tot
    1  0.000  0.000  0.001  0.001  0.000  0.000  0.000  0.008  0.000  0.011
    2  0.093  0.105  0.000  0.127  0.000  0.000  0.000  0.000  0.000  0.325
    3  0.093  0.105  0.000  0.127  0.000  0.000  0.000  0.000  0.000  0.325
tot    0.186  0.210  0.001  0.255  0.000  0.000  0.000  0.008  0.000  0.661
 
band     4 # energy    3.85644616 # occ.  2.00000000
 
ion      s     py     pz     px    dxy    dyz    dz2    dxz  x2-y2    tot
    1  0.000  0.001  0.007  0.000  0.000  0.010  0.000  0.001  0.000  0.020
    2  0.013  0.160  0.000  0.135  0.000  0.000  0.000  0.000  0.000  0.309
    3  0.013  0.160  0.000  0.135  0.000  0.000  0.000  0.000  0.000  0.309
tot    0.026  0.321  0.007  0.271  0.000  0.010  0.000  0.001  0.000  0.637
 
band     5 # energy    8.80613447 # occ.  0.00000000
 
ion      s     py     pz     px    dxy    dyz    dz2    dxz  x2-y2    tot
    1  0.002  0.004  0.000  0.032  0.015  0.000  0.000  0.000  0.030  0.083
    2  0.000  0.001  0.150  0.001  0.000  0.000  0.000  0.000  0.000  0.151
    3  0.000  0.001  0.150  0.001  0.000  0.000  0.000  0.000  0.000  0.151
tot    0.002  0.006  0.300  0.034  0.015  0.000  0.000  0.000  0.030  0.386
 
band     6 # energy   12.76382624 # occ.  0.00000000
 
ion      s     py     pz     px    dxy    dyz    dz2    dxz  x2-y2    tot
    1  0.008  0.004  0.036  0.002  0.000  0.006  0.002  0.008  0.000  0.067
    2  0.048  0.042  0.000  0.103  0.000  0.000  0.000  0.000  0.000  0.192
    3  0.048  0.042  0.000  0.103  0.000  0.000  0.000  0.000  0.000  0.192
tot    0.103  0.088  0.036  0.208  0.000  0.006  0.002  0.008  0.000  0.451
 
band     7 # energy   13.56654006 # occ.  0.00000000
 
ion      s     py     pz     px    dxy    dyz    dz2    dxz  x2-y2    tot
    1  0.169  0.097  0.003  0.017  0.010  0.002  0.001  0.001  0.007  0.307
    2  0.001  0.001  0.027  0.002  0.000  0.000  0.000  0.000  0.000  0.031
    3  0.001  0.001  0.027  0.002  0.000  0.000  0.000  0.000  0.000  0.031
tot    0.170  0.100  0.058  0.021  0.010  0.002  0.001  0.001  0.007  0.370
 
band     8 # energy   14.52355524 # occ.  0.00000000
 
ion      s     py     pz     px    dxy    dyz    dz2    dxz  x2-y2    tot
    1  0.000  0.001  0.002  0.001  0.000  0.014  0.000  0.015  0.000  0.033
    2  0.108  0.056  0.001  0.088  0.000  0.000  0.000  0.000  0.000  0.252
    3  0.108  0.056  0.001  0.088  0.000  0.000  0.000  0.000  0.000  0.252
tot    0.216  0.112  0.003  0.177  0.000  0.014  0.000  0.015  0.000  0.537
 

 k-point   189 :   -0.20833333 0.12500000 0.44444444     weight = 0.00617284

band     1 # energy   -5.38582032 # occ.  2.00000000
 
ion      s     py     pz     px    dxy    dyz    dz2    dxz  x2-y2    tot
    1  0.004  0.000  0.025  0.000  0.000  0.001  0.000  0.000  0.000  0.031
    2  0.249  0.011  0.000  0.002  0.000  0.000  0.000  0.000  0.000  0.262
    3  0.249  0.011  0.000  0.002  0.000  0.000  0.000  0.000  0.000  0.262
tot    0.501  0.021  0.026  0.004  0.000  0.001  0.000  0.000  0.000  0.554
 
band     2 # energy   -1.34930898 # occ.  2.00000000
 
ion      s     py     pz     px    dxy    dyz    dz2    dxz  x2-y2    tot
    1  0.120  0.010  0.002  0.002  0.000  0.000  0.001  0.000  0.000  0.135
    2  0.003  0.000  0.109  0.000  0.000  0.000  0.000  0.000  0.000  0.112
    3  0.003  0.000  0.109  0.000  0.000  0.000  0.000  0.000  0.000  0.112
tot    0.126  0.010  0.220  0.002  0.000  0.000  0.001  0.000  0.000  0.360
 
band     3 # energy    4.13440622 # occ.  2.00000000
 
ion      s     py     pz     px    dxy    dyz    dz2    dxz  x2-y2    tot
    1  0.000  0.000  0.001  0.000  0.000  0.004  0.000  0.003  0.000  0.009
    2  0.061  0.238  0.000  0.033  0.000  0.000  0.000  0.000  0.000  0.333
    3  0.061  0.238  0.000  0.033  0.000  0.000  0.000  0.000  0.000  0.333
tot    0.123  0.477  0.001  0.067  0.000  0.004  0.000  0.003  0.000  0.674
 
band     4 # energy    4.82415900 # occ.  2.00000000
 
ion      s     py     pz     px    dxy    dyz    dz2    dxz  x2-y2    tot
    1  0.000  0.000  0.003  0.000  0.000  0.004  0.000  0.005  0.000  0.013
    2  0.005  0.043  0.000  0.279  0.000  0.000  0.000  0.000  0.000  0.327
    3  0.005  0.043  0.000  0.279  0.000  0.000  0.000  0.000  0.000  0.327
tot    0.010  0.086  0.003  0.558  0.000  0.004  0.000  0.005  0.000  0.667
 
band     5 # energy   10.41426424 # occ.  0.00000000
 
ion      s     py     pz     px    dxy    dyz    dz2    dxz  x2-y2    tot
    1  0.001  0.011  0.000  0.011  0.007  0.000  0.000  0.000  0.041  0.072
    2  0.000  0.001  0.168  0.000  0.000  0.000  0.000  0.000  0.000  0.170
    3  0.000  0.001  0.168  0.000  0.000  0.000  0.000  0.000  0.000  0.170
tot    0.001  0.013  0.337  0.012  0.007  0.000  0.000  0.000  0.041  0.412
 
band     6 # energy   12.35983974 # occ.  0.00000000
 
ion      s     py     pz     px    dxy    dyz    dz2    dxz  x2-y2    tot
    1  0.001  0.002  0.027  0.000  0.000  0.024  0.001  0.002  0.000  0.059
    2  0.037  0.109  0.000  0.048  0.000  0.000  0.000  0.000  0.000  0.193
    3  0.037  0.109  0.000  0.048  0.000  0.000  0.000  0.000  0.000  0.193
tot    0.074  0.220  0.028  0.095  0.000  0.024  0.001  0.002  0.000  0.445
 
band     7 # energy   13.80516300 # occ.  0.00000000
 
ion      s     py     pz     px    dxy    dyz    dz2    dxz  x2-y2    tot
    1  0.000  0.000  0.001  0.003  0.000  0.003  0.000  0.037  0.000  0.044
    2  0.060  0.015  0.000  0.155  0.000  0.000  0.000  0.000  0.000  0.230
    3  0.060  0.015  0.000  0.155  0.000  0.000  0.000  0.000  0.000  0.230
tot    0.120  0.031  0.001  0.312  0.000  0.003  0.000  0.037  0.000  0.505
 
band     8 # energy   14.97988655 # occ.  0.00000000
 
ion      s     py     pz     px    dxy    dyz    dz2    dxz  x2-y2    tot
    1  0.154  0.055  0.000  0.034  0.028  0.001  0.003  0.001  0.005  0.281
    2  0.001  0.001  0.077  0.000  0.000  0.000  0.000  0.000  0.000  0.079
    3  0.001  0.001  0.077  0.000  0.000  0.000  0.000  0.000  0.000  0.079
tot    0.156  0.056  0.154  0.034  0.028  0.001  0.003  0.001  0.005  0.439
 

 k-point   190 :   -0.12500000 0.12500000 0.44444444     weight = 0.00308642

band     1 # energy   -5.66386204 # occ.  2.00000000
 
ion      s     py     pz     px    dxy    dyz    dz2    dxz  x2-y2    tot
    1  0.004  0.000  0.026  0.000  0.000  0.001  0.000  0.000  0.000  0.031
    2  0.253  0.006  0.001  0.000  0.000  0.000  0.000  0.000  0.000  0.260
    3  0.253  0.006  0.001  0.000  0.000  0.000  0.000  0.000  0.000  0.260
tot    0.511  0.012  0.027  0.000  0.000  0.001  0.000  0.000  0.000  0.551
 
band     2 # energy   -1.69155844 # occ.  2.00000000
 
ion      s     py     pz     px    dxy    dyz    dz2    dxz  x2-y2    tot
    1  0.127  0.006  0.002  0.000  0.000  0.000  0.001  0.000  0.000  0.137
    2  0.004  0.000  0.108  0.000  0.000  0.000  0.000  0.000  0.000  0.112
    3  0.004  0.000  0.108  0.000  0.000  0.000  0.000  0.000  0.000  0.112
tot    0.134  0.006  0.218  0.000  0.000  0.000  0.001  0.000  0.000  0.360
 
band     3 # energy    4.97327768 # occ.  2.00000039
 
ion      s     py     pz     px    dxy    dyz    dz2    dxz  x2-y2    tot
    1  0.000  0.000  0.001  0.000  0.000  0.005  0.000  0.000  0.000  0.007
    2  0.036  0.302  0.000  0.000  0.000  0.000  0.000  0.000  0.000  0.339
    3  0.036  0.302  0.000  0.000  0.000  0.000  0.000  0.000  0.000  0.339
tot    0.073  0.605  0.001  0.000  0.000  0.005  0.000  0.000  0.000  0.684
 
band     4 # energy    5.53361315 # occ. -0.03998572
 
ion      s     py     pz     px    dxy    dyz    dz2    dxz  x2-y2    tot
    1  0.000  0.000  0.000  0.000  0.000  0.000  0.000  0.006  0.000  0.006
    2  0.000  0.000  0.000  0.345  0.000  0.000  0.000  0.000  0.000  0.345
    3  0.000  0.000  0.000  0.345  0.000  0.000  0.000  0.000  0.000  0.345
tot    0.000  0.000  0.000  0.690  0.000  0.000  0.000  0.006  0.000  0.696
 
band     5 # energy   11.66960708 # occ.  0.00000000
 
ion      s     py     pz     px    dxy    dyz    dz2    dxz  x2-y2    tot
    1  0.002  0.010  0.001  0.000  0.000  0.002  0.000  0.000  0.043  0.057
    2  0.002  0.004  0.188  0.000  0.000  0.000  0.000  0.000  0.000  0.194
    3  0.002  0.004  0.188  0.000  0.000  0.000  0.000  0.000  0.000  0.194
tot    0.006  0.019  0.376  0.000  0.000  0.002  0.000  0.000  0.043  0.445
 
band     6 # energy   12.06535073 # occ.  0.00000000
 
ion      s     py     pz     px    dxy    dyz    dz2    dxz  x2-y2    tot
    1  0.001  0.004  0.016  0.000  0.000  0.036  0.001  0.000  0.001  0.058
    2  0.034  0.152  0.006  0.000  0.000  0.000  0.000  0.000  0.000  0.192
    3  0.034  0.152  0.006  0.000  0.000  0.000  0.000  0.000  0.000  0.192
tot    0.069  0.309  0.028  0.000  0.000  0.036  0.001  0.000  0.001  0.443
 
band     7 # energy   13.27211983 # occ.  0.00000000
 
ion      s     py     pz     px    dxy    dyz    dz2    dxz  x2-y2    tot
    1  0.000  0.000  0.000  0.003  0.000  0.000  0.000  0.050  0.000  0.053
    2  0.000  0.000  0.000  0.214  0.000  0.000  0.000  0.000  0.000  0.214
    3  0.000  0.000  0.000  0.214  0.000  0.000  0.000  0.000  0.000  0.214
tot    0.000  0.000  0.000  0.431  0.000  0.000  0.000  0.050  0.000  0.481
 
band     8 # energy   15.24816695 # occ.  0.00000000
 
ion      s     py     pz     px    dxy    dyz    dz2    dxz  x2-y2    tot
    1  0.101  0.001  0.006  0.000  0.000  0.000  0.060  0.000  0.000  0.169
    2  0.007  0.000  0.194  0.000  0.000  0.000  0.000  0.000  0.000  0.201
    3  0.007  0.000  0.194  0.000  0.000  0.000  0.000  0.000  0.000  0.201
tot    0.115  0.001  0.395  0.000  0.000  0.000  0.060  0.000  0.000  0.571
 

 k-point   191 :    0.20833333 0.20833333 0.44444444     weight = 0.00308642

band     1 # energy   -3.84624868 # occ.  2.00000000
 
ion      s     py     pz     px    dxy    dyz    dz2    dxz  x2-y2    tot
    1  0.002  0.000  0.019  0.001  0.000  0.000  0.000  0.004  0.000  0.027
    2  0.225  0.000  0.000  0.048  0.000  0.000  0.000  0.000  0.000  0.273
    3  0.225  0.000  0.000  0.048  0.000  0.000  0.000  0.000  0.000  0.273
tot    0.452  0.000  0.020  0.096  0.000  0.000  0.000  0.004  0.000  0.573
 
band     2 # energy    0.48654568 # occ.  2.00000000
 
ion      s     py     pz     px    dxy    dyz    dz2    dxz  x2-y2    tot
    1  0.074  0.000  0.001  0.045  0.000  0.000  0.001  0.000  0.002  0.123
    2  0.002  0.000  0.114  0.001  0.000  0.000  0.000  0.000  0.000  0.117
    3  0.002  0.000  0.114  0.001  0.000  0.000  0.000  0.000  0.000  0.117
tot    0.078  0.000  0.230  0.047  0.000  0.000  0.001  0.000  0.002  0.358
 
band     3 # energy    1.38610510 # occ.  2.00000000
 
ion      s     py     pz     px    dxy    dyz    dz2    dxz  x2-y2    tot
    1  0.000  0.001  0.000  0.000  0.000  0.010  0.000  0.000  0.000  0.012
    2  0.141  0.042  0.000  0.136  0.000  0.000  0.000  0.000  0.000  0.319
    3  0.141  0.042  0.000  0.136  0.000  0.000  0.000  0.000  0.000  0.319
tot    0.281  0.086  0.000  0.272  0.000  0.010  0.000  0.000  0.000  0.650
 
band     4 # energy    2.27975626 # occ.  2.00000000
 
ion      s     py     pz     px    dxy    dyz    dz2    dxz  x2-y2    tot
    1  0.002  0.000  0.018  0.000  0.000  0.000  0.000  0.010  0.000  0.030
    2  0.023  0.204  0.000  0.055  0.000  0.000  0.000  0.000  0.000  0.282
    3  0.023  0.204  0.000  0.055  0.000  0.000  0.000  0.000  0.000  0.282
tot    0.048  0.408  0.018  0.110  0.000  0.000  0.000  0.010  0.000  0.593
 
band     5 # energy    6.64712333 # occ. -0.00000000
 
ion      s     py     pz     px    dxy    dyz    dz2    dxz  x2-y2    tot
    1  0.000  0.055  0.000  0.000  0.034  0.001  0.000  0.000  0.000  0.090
    2  0.000  0.000  0.137  0.001  0.000  0.000  0.000  0.000  0.000  0.139
    3  0.000  0.000  0.137  0.001  0.000  0.000  0.000  0.000  0.000  0.139
tot    0.001  0.056  0.274  0.002  0.034  0.001  0.000  0.000  0.000  0.367
 
band     6 # energy   11.41335764 # occ.  0.00000000
 
ion      s     py     pz     px    dxy    dyz    dz2    dxz  x2-y2    tot
    1  0.249  0.000  0.001  0.078  0.000  0.000  0.002  0.001  0.002  0.333
    2  0.000  0.002  0.015  0.000  0.000  0.000  0.000  0.000  0.000  0.017
    3  0.000  0.002  0.015  0.000  0.000  0.000  0.000  0.000  0.000  0.017
tot    0.249  0.003  0.032  0.078  0.000  0.000  0.002  0.001  0.002  0.367
 
band     7 # energy   13.98084391 # occ.  0.00000000
 
ion      s     py     pz     px    dxy    dyz    dz2    dxz  x2-y2    tot
    1  0.000  0.000  0.057  0.000  0.000  0.000  0.002  0.006  0.001  0.065
    2  0.039  0.140  0.001  0.015  0.000  0.000  0.000  0.000  0.000  0.196
    3  0.039  0.140  0.001  0.015  0.000  0.000  0.000  0.000  0.000  0.196
tot    0.078  0.281  0.060  0.031  0.000  0.000  0.002  0.006  0.001  0.457
 
band     8 # energy   15.29255890 # occ.  0.00000000
 
ion      s     py     pz     px    dxy    dyz    dz2    dxz  x2-y2    tot
    1  0.000  0.001  0.000  0.000  0.001  0.015  0.000  0.000  0.000  0.017
    2  0.139  0.115  0.001  0.025  0.000  0.000  0.000  0.000  0.000  0.280
    3  0.139  0.115  0.001  0.025  0.000  0.000  0.000  0.000  0.000  0.280
tot    0.278  0.231  0.002  0.050  0.001  0.015  0.000  0.000  0.000  0.576
 

 k-point   192 :    0.29166667 0.20833333 0.44444444     weight = 0.00617284

band     1 # energy   -2.93592148 # occ.  2.00000000
 
ion      s     py     pz     px    dxy    dyz    dz2    dxz  x2-y2    tot
    1  0.002  0.000  0.015  0.001  0.000  0.000  0.000  0.006  0.000  0.024
    2  0.213  0.001  0.000  0.065  0.000  0.000  0.000  0.000  0.000  0.280
    3  0.213  0.001  0.000  0.065  0.000  0.000  0.000  0.000  0.000  0.280
tot    0.428  0.003  0.016  0.132  0.000  0.000  0.000  0.006  0.000  0.585
 
band     2 # energy    0.17921204 # occ.  2.00000000
 
ion      s     py     pz     px    dxy    dyz    dz2    dxz  x2-y2    tot
    1  0.000  0.001  0.007  0.000  0.000  0.008  0.000  0.001  0.000  0.018
    2  0.151  0.057  0.000  0.094  0.000  0.000  0.000  0.000  0.000  0.302
    3  0.151  0.057  0.000  0.094  0.000  0.000  0.000  0.000  0.000  0.302
tot    0.302  0.116  0.007  0.188  0.000  0.008  0.000  0.001  0.000  0.622
 
band     3 # energy    1.49098309 # occ.  2.00000000
 
ion      s     py     pz     px    dxy    dyz    dz2    dxz  x2-y2    tot
    1  0.037  0.001  0.004  0.059  0.000  0.000  0.000  0.000  0.003  0.105
    2  0.003  0.014  0.108  0.010  0.000  0.000  0.000  0.000  0.000  0.135
    3  0.003  0.014  0.108  0.010  0.000  0.000  0.000  0.000  0.000  0.135
tot    0.043  0.028  0.221  0.079  0.000  0.000  0.000  0.000  0.003  0.375
 
band     4 # energy    1.63730226 # occ.  2.00000000
 
ion      s     py     pz     px    dxy    dyz    dz2    dxz  x2-y2    tot
    1  0.009  0.001  0.015  0.003  0.000  0.003  0.000  0.006  0.000  0.037
    2  0.041  0.163  0.011  0.055  0.000  0.000  0.000  0.000  0.000  0.270
    3  0.041  0.163  0.011  0.055  0.000  0.000  0.000  0.000  0.000  0.270
tot    0.091  0.327  0.036  0.113  0.000  0.003  0.000  0.006  0.000  0.576
 
band     5 # energy    5.30115417 # occ.  1.88812950
 
ion      s     py     pz     px    dxy    dyz    dz2    dxz  x2-y2    tot
    1  0.012  0.060  0.000  0.001  0.025  0.001  0.000  0.000  0.000  0.098
    2  0.001  0.000  0.129  0.001  0.000  0.000  0.000  0.000  0.000  0.131
    3  0.001  0.000  0.129  0.001  0.000  0.000  0.000  0.000  0.000  0.131
tot    0.013  0.061  0.259  0.003  0.025  0.001  0.000  0.000  0.000  0.361
 
band     6 # energy   10.44096914 # occ.  0.00000000
 
ion      s     py     pz     px    dxy    dyz    dz2    dxz  x2-y2    tot
    1  0.284  0.006  0.002  0.042  0.001  0.000  0.002  0.000  0.000  0.337
    2  0.000  0.001  0.013  0.000  0.000  0.000  0.000  0.000  0.000  0.015
    3  0.000  0.001  0.013  0.000  0.000  0.000  0.000  0.000  0.000  0.015
tot    0.284  0.008  0.029  0.043  0.001  0.000  0.002  0.000  0.000  0.367
 
band     7 # energy   14.26292827 # occ.  0.00000000
 
ion      s     py     pz     px    dxy    dyz    dz2    dxz  x2-y2    tot
    1  0.000  0.000  0.050  0.000  0.000  0.002  0.001  0.001  0.001  0.055
    2  0.079  0.119  0.001  0.016  0.000  0.000  0.000  0.000  0.000  0.215
    3  0.079  0.119  0.001  0.016  0.000  0.000  0.000  0.000  0.000  0.215
tot    0.159  0.238  0.052  0.031  0.000  0.002  0.001  0.001  0.001  0.485
 
band     8 # energy   16.63085846 # occ.  0.00000000
 
ion      s     py     pz     px    dxy    dyz    dz2    dxz  x2-y2    tot
    1  0.000  0.000  0.017  0.001  0.001  0.005  0.001  0.002  0.000  0.027
    2  0.081  0.144  0.004  0.044  0.000  0.000  0.000  0.000  0.000  0.273
    3  0.081  0.144  0.004  0.044  0.000  0.000  0.000  0.000  0.000  0.273
tot    0.163  0.288  0.026  0.088  0.001  0.005  0.001  0.002  0.000  0.574
 

 k-point   193 :    0.37500000 0.20833333 0.44444444     weight = 0.00617284

band     1 # energy   -1.91344159 # occ.  2.00000000
 
ion      s     py     pz     px    dxy    dyz    dz2    dxz  x2-y2    tot
    1  0.000  0.000  0.005  0.002  0.000  0.001  0.000  0.010  0.000  0.018
    2  0.222  0.009  0.000  0.065  0.000  0.000  0.000  0.000  0.000  0.296
    3  0.222  0.009  0.000  0.065  0.000  0.000  0.000  0.000  0.000  0.296
tot    0.445  0.018  0.005  0.131  0.000  0.001  0.000  0.010  0.000  0.610
 
band     2 # energy   -1.04930709 # occ.  2.00000000
 
ion      s     py     pz     px    dxy    dyz    dz2    dxz  x2-y2    tot
    1  0.002  0.001  0.019  0.000  0.000  0.005  0.000  0.000  0.000  0.027
    2  0.139  0.054  0.000  0.087  0.000  0.000  0.000  0.000  0.000  0.279
    3  0.139  0.054  0.000  0.087  0.000  0.000  0.000  0.000  0.000  0.279
tot    0.279  0.108  0.020  0.173  0.000  0.005  0.000  0.000  0.000  0.586
 
band     3 # energy    1.40193515 # occ.  2.00000000
 
ion      s     py     pz     px    dxy    dyz    dz2    dxz  x2-y2    tot
    1  0.001  0.001  0.017  0.000  0.000  0.006  0.000  0.003  0.000  0.028
    2  0.052  0.169  0.000  0.064  0.000  0.000  0.000  0.000  0.000  0.285
    3  0.052  0.169  0.000  0.064  0.000  0.000  0.000  0.000  0.000  0.285
tot    0.105  0.338  0.018  0.129  0.000  0.006  0.000  0.003  0.000  0.598
 
band     4 # energy    2.42586203 # occ.  2.00000000
 
ion      s     py     pz     px    dxy    dyz    dz2    dxz  x2-y2    tot
    1  0.005  0.013  0.000  0.073  0.000  0.000  0.000  0.001  0.004  0.097
    2  0.002  0.000  0.127  0.000  0.000  0.000  0.000  0.000  0.000  0.130
    3  0.002  0.000  0.127  0.000  0.000  0.000  0.000  0.000  0.000  0.130
tot    0.009  0.014  0.255  0.074  0.000  0.000  0.000  0.001  0.004  0.357
 
band     5 # energy    4.22346646 # occ.  2.00000000
 
ion      s     py     pz     px    dxy    dyz    dz2    dxz  x2-y2    tot
    1  0.047  0.045  0.001  0.003  0.017  0.001  0.000  0.000  0.003  0.116
    2  0.001  0.001  0.119  0.001  0.000  0.000  0.000  0.000  0.000  0.121
    3  0.001  0.001  0.119  0.001  0.000  0.000  0.000  0.000  0.000  0.121
tot    0.049  0.046  0.238  0.005  0.017  0.001  0.000  0.000  0.003  0.359
 
band     6 # energy   10.03311853 # occ.  0.00000000
 
ion      s     py     pz     px    dxy    dyz    dz2    dxz  x2-y2    tot
    1  0.297  0.021  0.002  0.013  0.002  0.000  0.001  0.000  0.000  0.337
    2  0.000  0.001  0.014  0.000  0.000  0.000  0.000  0.000  0.000  0.015
    3  0.000  0.001  0.014  0.000  0.000  0.000  0.000  0.000  0.000  0.015
tot    0.297  0.023  0.030  0.014  0.002  0.000  0.001  0.000  0.000  0.368
 
band     7 # energy   14.22267050 # occ.  0.00000000
 
ion      s     py     pz     px    dxy    dyz    dz2    dxz  x2-y2    tot
    1  0.000  0.000  0.047  0.000  0.001  0.001  0.001  0.000  0.000  0.050
    2  0.096  0.094  0.001  0.031  0.000  0.000  0.000  0.000  0.000  0.222
    3  0.096  0.094  0.001  0.031  0.000  0.000  0.000  0.000  0.000  0.222
tot    0.193  0.188  0.048  0.062  0.001  0.001  0.001  0.000  0.000  0.494
 
band     8 # energy   18.09869876 # occ.  0.00000000
 
ion      s     py     pz     px    dxy    dyz    dz2    dxz  x2-y2    tot
    1  0.000  0.010  0.004  0.043  0.001  0.000  0.001  0.005  0.003  0.067
    2  0.013  0.092  0.098  0.052  0.000  0.000  0.000  0.000  0.000  0.255
    3  0.013  0.092  0.098  0.052  0.000  0.000  0.000  0.000  0.000  0.255
tot    0.026  0.194  0.199  0.147  0.001  0.000  0.001  0.005  0.003  0.576
 

 k-point   194 :    0.45833333 0.20833333 0.44444444     weight = 0.00617284

band     1 # energy   -2.41931916 # occ.  2.00000000
 
ion      s     py     pz     px    dxy    dyz    dz2    dxz  x2-y2    tot
    1  0.001  0.001  0.012  0.001  0.000  0.005  0.000  0.003  0.000  0.022
    2  0.211  0.047  0.000  0.028  0.000  0.000  0.000  0.000  0.000  0.286
    3  0.211  0.047  0.000  0.028  0.000  0.000  0.000  0.000  0.000  0.286
tot    0.423  0.095  0.012  0.056  0.000  0.005  0.000  0.003  0.000  0.594
 
band     2 # energy   -0.47092684 # occ.  2.00000000
 
ion      s     py     pz     px    dxy    dyz    dz2    dxz  x2-y2    tot
    1  0.001  0.000  0.012  0.001  0.000  0.000  0.000  0.008  0.000  0.022
    2  0.151  0.018  0.000  0.123  0.000  0.000  0.000  0.000  0.000  0.292
    3  0.151  0.018  0.000  0.123  0.000  0.000  0.000  0.000  0.000  0.292
tot    0.304  0.036  0.012  0.246  0.000  0.000  0.000  0.008  0.000  0.606
 
band     3 # energy    1.47135159 # occ.  2.00000000
 
ion      s     py     pz     px    dxy    dyz    dz2    dxz  x2-y2    tot
    1  0.000  0.001  0.018  0.000  0.000  0.008  0.000  0.001  0.000  0.028
    2  0.048  0.168  0.001  0.067  0.000  0.000  0.000  0.000  0.000  0.283
    3  0.048  0.168  0.001  0.067  0.000  0.000  0.000  0.000  0.000  0.283
tot    0.097  0.337  0.019  0.133  0.000  0.008  0.000  0.001  0.000  0.595
 
band     4 # energy    2.02674965 # occ.  2.00000000
 
ion      s     py     pz     px    dxy    dyz    dz2    dxz  x2-y2    tot
    1  0.027  0.039  0.000  0.034  0.003  0.001  0.000  0.000  0.001  0.106
    2  0.003  0.000  0.122  0.001  0.000  0.000  0.000  0.000  0.000  0.127
    3  0.003  0.000  0.122  0.001  0.000  0.000  0.000  0.000  0.000  0.127
tot    0.032  0.040  0.245  0.036  0.003  0.001  0.000  0.000  0.001  0.359
 
band     5 # energy    4.67748608 # occ.  2.00000000
 
ion      s     py     pz     px    dxy    dyz    dz2    dxz  x2-y2    tot
    1  0.027  0.012  0.000  0.045  0.010  0.000  0.000  0.001  0.012  0.107
    2  0.001  0.001  0.124  0.001  0.000  0.000  0.000  0.000  0.000  0.126
    3  0.001  0.001  0.124  0.001  0.000  0.000  0.000  0.000  0.000  0.126
tot    0.029  0.014  0.248  0.046  0.010  0.000  0.000  0.001  0.012  0.359
 
band     6 # energy   10.16812767 # occ.  0.00000000
 
ion      s     py     pz     px    dxy    dyz    dz2    dxz  x2-y2    tot
    1  0.293  0.039  0.002  0.000  0.001  0.000  0.001  0.000  0.001  0.337
    2  0.000  0.001  0.014  0.001  0.000  0.000  0.000  0.000  0.000  0.015
    3  0.000  0.001  0.014  0.001  0.000  0.000  0.000  0.000  0.000  0.015
tot    0.293  0.040  0.029  0.002  0.001  0.000  0.001  0.000  0.001  0.368
 
band     7 # energy   14.24079297 # occ.  0.00000000
 
ion      s     py     pz     px    dxy    dyz    dz2    dxz  x2-y2    tot
    1  0.000  0.000  0.047  0.000  0.001  0.000  0.001  0.002  0.000  0.052
    2  0.091  0.073  0.001  0.055  0.000  0.000  0.000  0.000  0.000  0.220
    3  0.091  0.073  0.001  0.055  0.000  0.000  0.000  0.000  0.000  0.220
tot    0.183  0.147  0.049  0.109  0.001  0.000  0.001  0.002  0.000  0.491
 
band     8 # energy   17.48965920 # occ.  0.00000000
 
ion      s     py     pz     px    dxy    dyz    dz2    dxz  x2-y2    tot
    1  0.000  0.004  0.020  0.005  0.000  0.005  0.001  0.000  0.002  0.036
    2  0.051  0.039  0.019  0.162  0.000  0.000  0.000  0.000  0.000  0.271
    3  0.051  0.039  0.019  0.162  0.000  0.000  0.000  0.000  0.000  0.271
tot    0.101  0.081  0.059  0.329  0.000  0.005  0.001  0.000  0.002  0.578
 

 k-point   195 :   -0.45833333 0.20833333 0.44444444     weight = 0.00617284

band     1 # energy   -3.41465639 # occ.  2.00000000
 
ion      s     py     pz     px    dxy    dyz    dz2    dxz  x2-y2    tot
    1  0.002  0.001  0.017  0.000  0.000  0.004  0.000  0.002  0.000  0.026
    2  0.219  0.040  0.000  0.017  0.000  0.000  0.000  0.000  0.000  0.276
    3  0.219  0.040  0.000  0.017  0.000  0.000  0.000  0.000  0.000  0.276
tot    0.439  0.081  0.018  0.034  0.000  0.004  0.000  0.002  0.000  0.578
 
band     2 # energy    0.82005168 # occ.  2.00000000
 
ion      s     py     pz     px    dxy    dyz    dz2    dxz  x2-y2    tot
    1  0.000  0.000  0.002  0.002  0.000  0.001  0.000  0.009  0.000  0.015
    2  0.147  0.056  0.001  0.106  0.000  0.000  0.000  0.000  0.000  0.310
    3  0.147  0.056  0.001  0.106  0.000  0.000  0.000  0.000  0.000  0.310
tot    0.293  0.113  0.005  0.214  0.000  0.001  0.000  0.009  0.000  0.636
 
band     3 # energy    0.97885141 # occ.  2.00000000
 
ion      s     py     pz     px    dxy    dyz    dz2    dxz  x2-y2    tot
    1  0.060  0.038  0.001  0.015  0.002  0.000  0.000  0.001  0.000  0.118
    2  0.004  0.003  0.115  0.000  0.000  0.000  0.000  0.000  0.000  0.122
    3  0.004  0.003  0.115  0.000  0.000  0.000  0.000  0.000  0.000  0.122
tot    0.068  0.043  0.231  0.016  0.002  0.000  0.000  0.001  0.000  0.361
 
band     4 # energy    1.87877538 # occ.  2.00000000
 
ion      s     py     pz     px    dxy    dyz    dz2    dxz  x2-y2    tot
    1  0.002  0.000  0.019  0.000  0.000  0.009  0.000  0.000  0.000  0.030
    2  0.031  0.139  0.000  0.109  0.000  0.000  0.000  0.000  0.000  0.280
    3  0.031  0.139  0.000  0.109  0.000  0.000  0.000  0.000  0.000  0.280
tot    0.065  0.278  0.019  0.218  0.000  0.009  0.000  0.000  0.000  0.590
 
band     5 # energy    5.97171728 # occ. -0.00000000
 
ion      s     py     pz     px    dxy    dyz    dz2    dxz  x2-y2    tot
    1  0.003  0.011  0.000  0.049  0.009  0.000  0.000  0.001  0.020  0.093
    2  0.001  0.001  0.134  0.001  0.000  0.000  0.000  0.000  0.000  0.136
    3  0.001  0.001  0.134  0.001  0.000  0.000  0.000  0.000  0.000  0.136
tot    0.004  0.012  0.267  0.050  0.009  0.000  0.000  0.001  0.020  0.364
 
band     6 # energy   10.85561971 # occ.  0.00000000
 
ion      s     py     pz     px    dxy    dyz    dz2    dxz  x2-y2    tot
    1  0.270  0.054  0.002  0.008  0.000  0.000  0.002  0.000  0.001  0.336
    2  0.000  0.001  0.014  0.001  0.000  0.000  0.000  0.000  0.000  0.015
    3  0.000  0.001  0.014  0.001  0.000  0.000  0.000  0.000  0.000  0.015
tot    0.270  0.055  0.029  0.010  0.000  0.000  0.002  0.000  0.001  0.367
 
band     7 # energy   14.23230804 # occ.  0.00000000
 
ion      s     py     pz     px    dxy    dyz    dz2    dxz  x2-y2    tot
    1  0.000  0.000  0.055  0.000  0.001  0.001  0.001  0.003  0.000  0.061
    2  0.057  0.053  0.001  0.093  0.000  0.000  0.000  0.000  0.000  0.205
    3  0.057  0.053  0.001  0.093  0.000  0.000  0.000  0.000  0.000  0.205
tot    0.115  0.107  0.057  0.186  0.001  0.001  0.001  0.003  0.000  0.471
 
band     8 # energy   15.82141345 # occ.  0.00000000
 
ion      s     py     pz     px    dxy    dyz    dz2    dxz  x2-y2    tot
    1  0.000  0.001  0.007  0.000  0.000  0.006  0.000  0.005  0.001  0.020
    2  0.114  0.043  0.002  0.118  0.000  0.000  0.000  0.000  0.000  0.278
    3  0.114  0.043  0.002  0.118  0.000  0.000  0.000  0.000  0.000  0.278
tot    0.229  0.087  0.010  0.237  0.000  0.006  0.000  0.005  0.001  0.575
 

 k-point   196 :   -0.37500000 0.20833333 0.44444444     weight = 0.00617284

band     1 # energy   -4.22730727 # occ.  2.00000000
 
ion      s     py     pz     px    dxy    dyz    dz2    dxz  x2-y2    tot
    1  0.003  0.001  0.021  0.000  0.000  0.003  0.000  0.001  0.000  0.028
    2  0.230  0.032  0.000  0.008  0.000  0.000  0.000  0.000  0.000  0.270
    3  0.230  0.032  0.000  0.008  0.000  0.000  0.000  0.000  0.000  0.270
tot    0.464  0.064  0.022  0.016  0.000  0.003  0.000  0.001  0.000  0.568
 
band     2 # energy    0.04278105 # occ.  2.00000000
 
ion      s     py     pz     px    dxy    dyz    dz2    dxz  x2-y2    tot
    1  0.086  0.030  0.002  0.007  0.001  0.000  0.001  0.000  0.000  0.127
    2  0.002  0.001  0.113  0.000  0.000  0.000  0.000  0.000  0.000  0.116
    3  0.002  0.001  0.113  0.000  0.000  0.000  0.000  0.000  0.000  0.116
tot    0.091  0.031  0.227  0.008  0.001  0.000  0.001  0.000  0.000  0.358
 
band     3 # energy    1.84023754 # occ.  2.00000000
 
ion      s     py     pz     px    dxy    dyz    dz2    dxz  x2-y2    tot
    1  0.000  0.000  0.001  0.000  0.000  0.005  0.000  0.005  0.000  0.013
    2  0.122  0.167  0.000  0.029  0.000  0.000  0.000  0.000  0.000  0.318
    3  0.122  0.167  0.000  0.029  0.000  0.000  0.000  0.000  0.000  0.318
tot    0.245  0.335  0.002  0.058  0.000  0.005  0.000  0.005  0.000  0.649
 
band     4 # energy    2.84468284 # occ.  2.00000000
 
ion      s     py     pz     px    dxy    dyz    dz2    dxz  x2-y2    tot
    1  0.001  0.000  0.013  0.000  0.000  0.005  0.000  0.006  0.000  0.025
    2  0.022  0.045  0.000  0.225  0.000  0.000  0.000  0.000  0.000  0.293
    3  0.022  0.045  0.000  0.225  0.000  0.000  0.000  0.000  0.000  0.293
tot    0.046  0.091  0.013  0.451  0.000  0.005  0.000  0.006  0.000  0.611
 
band     5 # energy    7.30960928 # occ. -0.00000000
 
ion      s     py     pz     px    dxy    dyz    dz2    dxz  x2-y2    tot
    1  0.002  0.018  0.000  0.031  0.007  0.000  0.000  0.000  0.030  0.089
    2  0.000  0.001  0.139  0.000  0.000  0.000  0.000  0.000  0.000  0.141
    3  0.000  0.001  0.139  0.000  0.000  0.000  0.000  0.000  0.000  0.141
tot    0.003  0.020  0.279  0.032  0.007  0.000  0.000  0.000  0.030  0.372
 
band     6 # energy   12.10724376 # occ.  0.00000000
 
ion      s     py     pz     px    dxy    dyz    dz2    dxz  x2-y2    tot
    1  0.223  0.060  0.000  0.034  0.005  0.000  0.002  0.000  0.000  0.326
    2  0.001  0.001  0.018  0.003  0.000  0.000  0.000  0.000  0.000  0.022
    3  0.001  0.001  0.018  0.003  0.000  0.000  0.000  0.000  0.000  0.022
tot    0.224  0.062  0.037  0.040  0.005  0.000  0.002  0.000  0.000  0.370
 
band     7 # energy   13.42551927 # occ.  0.00000000
 
ion      s     py     pz     px    dxy    dyz    dz2    dxz  x2-y2    tot
    1  0.000  0.000  0.048  0.000  0.001  0.009  0.001  0.000  0.000  0.060
    2  0.054  0.051  0.002  0.092  0.000  0.000  0.000  0.000  0.000  0.198
    3  0.054  0.051  0.002  0.092  0.000  0.000  0.000  0.000  0.000  0.198
tot    0.108  0.101  0.052  0.184  0.001  0.009  0.001  0.000  0.000  0.457
 
band     8 # energy   15.16418046 # occ.  0.00000000
 
ion      s     py     pz     px    dxy    dyz    dz2    dxz  x2-y2    tot
    1  0.000  0.000  0.004  0.001  0.000  0.001  0.000  0.017  0.000  0.025
    2  0.124  0.042  0.001  0.101  0.000  0.000  0.000  0.000  0.000  0.268
    3  0.124  0.042  0.001  0.101  0.000  0.000  0.000  0.000  0.000  0.268
tot    0.247  0.085  0.006  0.204  0.000  0.001  0.000  0.017  0.000  0.561
 

 k-point   197 :   -0.29166667 0.20833333 0.44444444     weight = 0.00617284

band     1 # energy   -4.83213268 # occ.  2.00000000
 
ion      s     py     pz     px    dxy    dyz    dz2    dxz  x2-y2    tot
    1  0.003  0.001  0.023  0.000  0.000  0.002  0.000  0.000  0.000  0.030
    2  0.240  0.024  0.000  0.002  0.000  0.000  0.000  0.000  0.000  0.265
    3  0.240  0.024  0.000  0.002  0.000  0.000  0.000  0.000  0.000  0.265
tot    0.483  0.048  0.024  0.004  0.000  0.002  0.000  0.000  0.000  0.561
 
band     2 # energy   -0.67664302 # occ.  2.00000000
 
ion      s     py     pz     px    dxy    dyz    dz2    dxz  x2-y2    tot
    1  0.104  0.023  0.002  0.002  0.000  0.000  0.001  0.000  0.000  0.132
    2  0.003  0.000  0.111  0.000  0.000  0.000  0.000  0.000  0.000  0.114
    3  0.003  0.000  0.111  0.000  0.000  0.000  0.000  0.000  0.000  0.114
tot    0.109  0.023  0.223  0.002  0.000  0.000  0.001  0.000  0.000  0.359
 
band     3 # energy    2.63404206 # occ.  2.00000000
 
ion      s     py     pz     px    dxy    dyz    dz2    dxz  x2-y2    tot
    1  0.000  0.001  0.004  0.000  0.000  0.008  0.000  0.001  0.000  0.014
    2  0.093  0.218  0.000  0.005  0.000  0.000  0.000  0.000  0.000  0.316
    3  0.093  0.218  0.000  0.005  0.000  0.000  0.000  0.000  0.000  0.316
tot    0.185  0.437  0.004  0.010  0.000  0.008  0.000  0.001  0.000  0.646
 
band     4 # energy    4.07492678 # occ.  2.00000000
 
ion      s     py     pz     px    dxy    dyz    dz2    dxz  x2-y2    tot
    1  0.000  0.000  0.004  0.001  0.000  0.002  0.000  0.010  0.000  0.016
    2  0.011  0.010  0.000  0.299  0.000  0.000  0.000  0.000  0.000  0.320
    3  0.011  0.010  0.000  0.299  0.000  0.000  0.000  0.000  0.000  0.320
tot    0.023  0.020  0.004  0.599  0.000  0.002  0.000  0.010  0.000  0.656
 
band     5 # energy    8.57226590 # occ.  0.00000000
 
ion      s     py     pz     px    dxy    dyz    dz2    dxz  x2-y2    tot
    1  0.011  0.027  0.000  0.010  0.003  0.000  0.000  0.000  0.040  0.092
    2  0.000  0.001  0.144  0.000  0.000  0.000  0.000  0.000  0.000  0.145
    3  0.000  0.001  0.144  0.000  0.000  0.000  0.000  0.000  0.000  0.145
tot    0.011  0.030  0.288  0.010  0.003  0.000  0.000  0.000  0.040  0.383
 
band     6 # energy   12.22906085 # occ.  0.00000000
 
ion      s     py     pz     px    dxy    dyz    dz2    dxz  x2-y2    tot
    1  0.005  0.003  0.035  0.000  0.000  0.014  0.002  0.000  0.000  0.058
    2  0.089  0.072  0.000  0.034  0.000  0.000  0.000  0.000  0.000  0.195
    3  0.089  0.072  0.000  0.034  0.000  0.000  0.000  0.000  0.000  0.195
tot    0.182  0.147  0.035  0.069  0.000  0.014  0.002  0.000  0.000  0.448
 
band     7 # energy   13.89602105 # occ.  0.00000000
 
ion      s     py     pz     px    dxy    dyz    dz2    dxz  x2-y2    tot
    1  0.159  0.051  0.002  0.070  0.019  0.001  0.001  0.000  0.000  0.303
    2  0.000  0.001  0.035  0.000  0.000  0.000  0.000  0.000  0.000  0.037
    3  0.000  0.001  0.035  0.000  0.000  0.000  0.000  0.000  0.000  0.037
tot    0.160  0.053  0.072  0.070  0.019  0.001  0.001  0.000  0.000  0.377
 
band     8 # energy   15.29263608 # occ.  0.00000000
 
ion      s     py     pz     px    dxy    dyz    dz2    dxz  x2-y2    tot
    1  0.000  0.000  0.004  0.002  0.000  0.000  0.001  0.031  0.000  0.039
    2  0.064  0.020  0.002  0.164  0.000  0.000  0.000  0.000  0.000  0.249
    3  0.064  0.020  0.002  0.164  0.000  0.000  0.000  0.000  0.000  0.249
tot    0.128  0.040  0.008  0.329  0.000  0.000  0.001  0.031  0.000  0.537
 

 k-point   198 :   -0.20833333 0.20833333 0.44444444     weight = 0.00308642

band     1 # energy   -5.21933252 # occ.  2.00000000
 
ion      s     py     pz     px    dxy    dyz    dz2    dxz  x2-y2    tot
    1  0.004  0.000  0.025  0.000  0.000  0.002  0.000  0.000  0.000  0.030
    2  0.246  0.016  0.000  0.000  0.000  0.000  0.000  0.000  0.000  0.263
    3  0.246  0.016  0.000  0.000  0.000  0.000  0.000  0.000  0.000  0.263
tot    0.496  0.033  0.026  0.000  0.000  0.002  0.000  0.000  0.000  0.556
 
band     2 # energy   -1.14590299 # occ.  2.00000000
 
ion      s     py     pz     px    dxy    dyz    dz2    dxz  x2-y2    tot
    1  0.115  0.016  0.002  0.000  0.000  0.000  0.001  0.000  0.000  0.134
    2  0.003  0.000  0.109  0.000  0.000  0.000  0.000  0.000  0.000  0.113
    3  0.003  0.000  0.109  0.000  0.000  0.000  0.000  0.000  0.000  0.113
tot    0.121  0.016  0.221  0.000  0.000  0.000  0.001  0.000  0.000  0.360
 
band     3 # energy    3.45056841 # occ.  2.00000000
 
ion      s     py     pz     px    dxy    dyz    dz2    dxz  x2-y2    tot
    1  0.000  0.001  0.004  0.000  0.000  0.008  0.000  0.000  0.000  0.013
    2  0.073  0.247  0.000  0.000  0.000  0.000  0.000  0.000  0.000  0.320
    3  0.073  0.247  0.000  0.000  0.000  0.000  0.000  0.000  0.000  0.320
tot    0.146  0.495  0.004  0.000  0.000  0.008  0.000  0.000  0.000  0.653
 
band     4 # energy    4.83211433 # occ.  2.00000000
 
ion      s     py     pz     px    dxy    dyz    dz2    dxz  x2-y2    tot
    1  0.000  0.000  0.000  0.001  0.000  0.000  0.000  0.010  0.000  0.011
    2  0.000  0.000  0.000  0.335  0.000  0.000  0.000  0.000  0.000  0.335
    3  0.000  0.000  0.000  0.335  0.000  0.000  0.000  0.000  0.000  0.335
tot    0.000  0.000  0.000  0.671  0.000  0.000  0.000  0.010  0.000  0.681
 
band     5 # energy    9.70370136 # occ.  0.00000000
 
ion      s     py     pz     px    dxy    dyz    dz2    dxz  x2-y2    tot
    1  0.012  0.028  0.000  0.000  0.000  0.001  0.000  0.000  0.046  0.087
    2  0.000  0.001  0.154  0.000  0.000  0.000  0.000  0.000  0.000  0.155
    3  0.000  0.001  0.154  0.000  0.000  0.000  0.000  0.000  0.000  0.155
tot    0.012  0.031  0.307  0.000  0.000  0.001  0.000  0.000  0.046  0.397
 
band     6 # energy   11.82645944 # occ.  0.00000000
 
ion      s     py     pz     px    dxy    dyz    dz2    dxz  x2-y2    tot
    1  0.002  0.003  0.030  0.000  0.000  0.021  0.001  0.000  0.000  0.057
    2  0.089  0.100  0.000  0.000  0.000  0.000  0.000  0.000  0.000  0.189
    3  0.089  0.100  0.000  0.000  0.000  0.000  0.000  0.000  0.000  0.189
tot    0.180  0.203  0.030  0.000  0.000  0.021  0.001  0.000  0.000  0.436
 
band     7 # energy   14.95275246 # occ.  0.00000000
 
ion      s     py     pz     px    dxy    dyz    dz2    dxz  x2-y2    tot
    1  0.000  0.000  0.000  0.004  0.000  0.000  0.000  0.045  0.000  0.049
    2  0.000  0.000  0.000  0.230  0.000  0.000  0.000  0.000  0.000  0.230
    3  0.000  0.000  0.000  0.230  0.000  0.000  0.000  0.000  0.000  0.230
tot    0.000  0.000  0.000  0.464  0.000  0.000  0.000  0.045  0.000  0.509
 
band     8 # energy   15.54731947 # occ.  0.00000000
 
ion      s     py     pz     px    dxy    dyz    dz2    dxz  x2-y2    tot
    1  0.168  0.001  0.003  0.000  0.000  0.002  0.028  0.000  0.000  0.202
    2  0.005  0.001  0.201  0.000  0.000  0.000  0.000  0.000  0.000  0.207
    3  0.005  0.001  0.201  0.000  0.000  0.000  0.000  0.000  0.000  0.207
tot    0.178  0.003  0.405  0.000  0.000  0.002  0.028  0.000  0.000  0.616
 

 k-point   199 :    0.29166667 0.29166667 0.44444444     weight = 0.00308642

band     1 # energy   -1.96447291 # occ.  2.00000000
 
ion      s     py     pz     px    dxy    dyz    dz2    dxz  x2-y2    tot
    1  0.001  0.000  0.009  0.002  0.000  0.000  0.000  0.009  0.000  0.020
    2  0.207  0.005  0.000  0.079  0.000  0.000  0.000  0.000  0.000  0.291
    3  0.207  0.005  0.000  0.079  0.000  0.000  0.000  0.000  0.000  0.291
tot    0.415  0.009  0.009  0.160  0.000  0.000  0.000  0.009  0.000  0.602
 
band     2 # energy   -0.37830648 # occ.  2.00000000
 
ion      s     py     pz     px    dxy    dyz    dz2    dxz  x2-y2    tot
    1  0.000  0.002  0.000  0.000  0.000  0.012  0.000  0.000  0.000  0.013
    2  0.192  0.046  0.000  0.072  0.000  0.000  0.000  0.000  0.000  0.311
    3  0.192  0.046  0.000  0.072  0.000  0.000  0.000  0.000  0.000  0.311
tot    0.385  0.093  0.000  0.144  0.000  0.012  0.000  0.000  0.000  0.635
 
band     3 # energy    0.56163088 # occ.  2.00000000
 
ion      s     py     pz     px    dxy    dyz    dz2    dxz  x2-y2    tot
    1  0.002  0.000  0.033  0.001  0.000  0.000  0.000  0.004  0.000  0.040
    2  0.022  0.171  0.000  0.062  0.000  0.000  0.000  0.000  0.000  0.256
    3  0.022  0.171  0.000  0.062  0.000  0.000  0.000  0.000  0.000  0.256
tot    0.046  0.342  0.034  0.126  0.000  0.000  0.000  0.004  0.000  0.551
 
band     4 # energy    2.52492616 # occ.  2.00000000
 
ion      s     py     pz     px    dxy    dyz    dz2    dxz  x2-y2    tot
    1  0.017  0.000  0.000  0.077  0.000  0.000  0.000  0.001  0.007  0.102
    2  0.002  0.001  0.125  0.000  0.000  0.000  0.000  0.000  0.000  0.128
    3  0.002  0.001  0.125  0.000  0.000  0.000  0.000  0.000  0.000  0.128
tot    0.021  0.001  0.250  0.078  0.000  0.000  0.000  0.001  0.007  0.357
 
band     5 # energy    4.32477846 # occ.  2.00000000
 
ion      s     py     pz     px    dxy    dyz    dz2    dxz  x2-y2    tot
    1  0.000  0.074  0.000  0.000  0.018  0.001  0.000  0.000  0.000  0.093
    2  0.001  0.000  0.130  0.001  0.000  0.000  0.000  0.000  0.000  0.132
    3  0.001  0.000  0.130  0.001  0.000  0.000  0.000  0.000  0.000  0.132
tot    0.002  0.075  0.260  0.001  0.018  0.001  0.000  0.000  0.000  0.358
 
band     6 # energy    9.45312414 # occ.  0.00000000
 
ion      s     py     pz     px    dxy    dyz    dz2    dxz  x2-y2    tot
    1  0.338  0.000  0.003  0.014  0.000  0.000  0.001  0.000  0.000  0.355
    2  0.000  0.001  0.004  0.000  0.000  0.000  0.000  0.000  0.000  0.005
    3  0.000  0.001  0.004  0.000  0.000  0.000  0.000  0.000  0.000  0.005
tot    0.338  0.002  0.011  0.015  0.000  0.000  0.001  0.000  0.000  0.366
 
band     7 # energy   16.02567884 # occ.  0.00000000
 
ion      s     py     pz     px    dxy    dyz    dz2    dxz  x2-y2    tot
    1  0.001  0.000  0.081  0.000  0.000  0.000  0.001  0.000  0.001  0.084
    2  0.032  0.163  0.002  0.000  0.000  0.000  0.000  0.000  0.000  0.197
    3  0.032  0.163  0.002  0.000  0.000  0.000  0.000  0.000  0.000  0.197
tot    0.064  0.327  0.085  0.001  0.000  0.000  0.001  0.000  0.001  0.479
 
band     8 # energy   16.63033686 # occ.  0.00000000
 
ion      s     py     pz     px    dxy    dyz    dz2    dxz  x2-y2    tot
    1  0.000  0.000  0.000  0.000  0.002  0.002  0.000  0.000  0.000  0.005
    2  0.100  0.111  0.004  0.085  0.000  0.000  0.000  0.000  0.000  0.299
    3  0.100  0.111  0.004  0.085  0.000  0.000  0.000  0.000  0.000  0.299
tot    0.200  0.223  0.007  0.169  0.002  0.002  0.000  0.000  0.000  0.604
 

 k-point   200 :    0.37500000 0.29166667 0.44444444     weight = 0.00617284

band     1 # energy   -1.46899270 # occ.  2.00000000
 
ion      s     py     pz     px    dxy    dyz    dz2    dxz  x2-y2    tot
    1  0.000  0.001  0.003  0.001  0.000  0.007  0.000  0.004  0.000  0.016
    2  0.213  0.058  0.000  0.029  0.000  0.000  0.000  0.000  0.000  0.300
    3  0.213  0.058  0.000  0.029  0.000  0.000  0.000  0.000  0.000  0.300
tot    0.426  0.116  0.004  0.059  0.000  0.007  0.000  0.004  0.000  0.617
 
band     2 # energy   -0.79337373 # occ.  2.00000000
 
ion      s     py     pz     px    dxy    dyz    dz2    dxz  x2-y2    tot
    1  0.000  0.000  0.004  0.001  0.000  0.003  0.000  0.007  0.000  0.017
    2  0.189  0.027  0.000  0.086  0.000  0.000  0.000  0.000  0.000  0.302
    3  0.189  0.027  0.000  0.086  0.000  0.000  0.000  0.000  0.000  0.302
tot    0.377  0.055  0.005  0.174  0.000  0.003  0.000  0.007  0.000  0.621
 
band     3 # energy    0.34618018 # occ.  2.00000000
 
ion      s     py     pz     px    dxy    dyz    dz2    dxz  x2-y2    tot
    1  0.002  0.000  0.035  0.000  0.000  0.003  0.000  0.000  0.000  0.041
    2  0.023  0.132  0.000  0.099  0.000  0.000  0.000  0.000  0.000  0.253
    3  0.023  0.132  0.000  0.099  0.000  0.000  0.000  0.000  0.000  0.253
tot    0.048  0.264  0.035  0.198  0.000  0.003  0.000  0.000  0.000  0.547
 
band     4 # energy    2.98265817 # occ.  2.00000000
 
ion      s     py     pz     px    dxy    dyz    dz2    dxz  x2-y2    tot
    1  0.004  0.044  0.000  0.038  0.005  0.001  0.000  0.000  0.004  0.096
    2  0.002  0.000  0.128  0.000  0.000  0.000  0.000  0.000  0.000  0.131
    3  0.002  0.000  0.128  0.000  0.000  0.000  0.000  0.000  0.000  0.131
tot    0.007  0.045  0.256  0.039  0.005  0.001  0.000  0.000  0.004  0.357
 
band     5 # energy    3.88315325 # occ.  2.00000000
 
ion      s     py     pz     px    dxy    dyz    dz2    dxz  x2-y2    tot
    1  0.004  0.033  0.000  0.043  0.007  0.000  0.000  0.001  0.008  0.096
    2  0.001  0.001  0.129  0.001  0.000  0.000  0.000  0.000  0.000  0.131
    3  0.001  0.001  0.129  0.001  0.000  0.000  0.000  0.000  0.000  0.131
tot    0.006  0.034  0.257  0.044  0.007  0.000  0.000  0.001  0.008  0.358
 
band     6 # energy    9.24735674 # occ.  0.00000000
 
ion      s     py     pz     px    dxy    dyz    dz2    dxz  x2-y2    tot
    1  0.350  0.005  0.003  0.000  0.000  0.000  0.001  0.000  0.000  0.359
    2  0.000  0.001  0.002  0.001  0.000  0.000  0.000  0.000  0.000  0.003
    3  0.000  0.001  0.002  0.001  0.000  0.000  0.000  0.000  0.000  0.003
tot    0.350  0.007  0.007  0.001  0.000  0.000  0.001  0.000  0.000  0.366
 
band     7 # energy   16.24927859 # occ.  0.00000000
 
ion      s     py     pz     px    dxy    dyz    dz2    dxz  x2-y2    tot
    1  0.001  0.000  0.062  0.000  0.001  0.000  0.001  0.000  0.000  0.065
    2  0.054  0.111  0.002  0.058  0.000  0.000  0.000  0.000  0.000  0.224
    3  0.054  0.111  0.002  0.058  0.000  0.000  0.000  0.000  0.000  0.224
tot    0.109  0.221  0.066  0.116  0.001  0.000  0.001  0.000  0.000  0.514
 
band     8 # energy   17.34498338 # occ.  0.00000000
 
ion      s     py     pz     px    dxy    dyz    dz2    dxz  x2-y2    tot
    1  0.000  0.000  0.027  0.002  0.000  0.001  0.000  0.000  0.002  0.033
    2  0.057  0.034  0.010  0.172  0.000  0.000  0.000  0.000  0.000  0.273
    3  0.057  0.034  0.010  0.172  0.000  0.000  0.000  0.000  0.000  0.273
tot    0.114  0.069  0.046  0.347  0.000  0.001  0.000  0.000  0.002  0.579
 

 k-point   201 :    0.45833333 0.29166667 0.44444444     weight = 0.00617284

band     1 # energy   -2.46716981 # occ.  2.00000000
 
ion      s     py     pz     px    dxy    dyz    dz2    dxz  x2-y2    tot
    1  0.001  0.001  0.012  0.000  0.000  0.006  0.000  0.002  0.000  0.023
    2  0.209  0.058  0.000  0.017  0.000  0.000  0.000  0.000  0.000  0.285
    3  0.209  0.058  0.000  0.017  0.000  0.000  0.000  0.000  0.000  0.285
tot    0.419  0.118  0.013  0.035  0.000  0.006  0.000  0.002  0.000  0.592
 
band     2 # energy   -0.06694780 # occ.  2.00000000
 
ion      s     py     pz     px    dxy    dyz    dz2    dxz  x2-y2    tot
    1  0.000  0.001  0.003  0.001  0.000  0.005  0.000  0.006  0.000  0.015
    2  0.172  0.113  0.000  0.022  0.000  0.000  0.000  0.000  0.000  0.307
    3  0.172  0.113  0.000  0.022  0.000  0.000  0.000  0.000  0.000  0.307
tot    0.344  0.227  0.003  0.046  0.000  0.005  0.000  0.006  0.000  0.630
 
band     3 # energy    1.01642324 # occ.  2.00000000
 
ion      s     py     pz     px    dxy    dyz    dz2    dxz  x2-y2    tot
    1  0.001  0.001  0.026  0.001  0.000  0.002  0.000  0.004  0.000  0.035
    2  0.034  0.045  0.000  0.188  0.000  0.000  0.000  0.000  0.000  0.267
    3  0.034  0.045  0.000  0.188  0.000  0.000  0.000  0.000  0.000  0.267
tot    0.069  0.090  0.027  0.377  0.000  0.002  0.000  0.004  0.000  0.570
 
band     4 # energy    2.01007252 # occ.  2.00000000
 
ion      s     py     pz     px    dxy    dyz    dz2    dxz  x2-y2    tot
    1  0.032  0.057  0.000  0.013  0.004  0.001  0.000  0.000  0.001  0.108
    2  0.002  0.000  0.122  0.001  0.000  0.000  0.000  0.000  0.000  0.125
    3  0.002  0.000  0.122  0.001  0.000  0.000  0.000  0.000  0.000  0.125
tot    0.037  0.058  0.243  0.014  0.004  0.001  0.000  0.000  0.001  0.358
 
band     5 # energy    4.81644677 # occ.  2.00000000
 
ion      s     py     pz     px    dxy    dyz    dz2    dxz  x2-y2    tot
    1  0.003  0.018  0.000  0.050  0.004  0.000  0.000  0.001  0.018  0.094
    2  0.001  0.001  0.130  0.001  0.000  0.000  0.000  0.000  0.000  0.132
    3  0.001  0.001  0.130  0.001  0.000  0.000  0.000  0.000  0.000  0.132
tot    0.005  0.020  0.261  0.051  0.004  0.000  0.000  0.001  0.018  0.359
 
band     6 # energy    9.85666402 # occ.  0.00000000
 
ion      s     py     pz     px    dxy    dyz    dz2    dxz  x2-y2    tot
    1  0.315  0.015  0.002  0.014  0.000  0.000  0.001  0.000  0.000  0.348
    2  0.000  0.000  0.008  0.001  0.000  0.000  0.000  0.000  0.000  0.009
    3  0.000  0.000  0.008  0.001  0.000  0.000  0.000  0.000  0.000  0.009
tot    0.315  0.016  0.018  0.016  0.000  0.000  0.001  0.000  0.000  0.366
 
band     7 # energy   15.19451035 # occ.  0.00000000
 
ion      s     py     pz     px    dxy    dyz    dz2    dxz  x2-y2    tot
    1  0.000  0.000  0.060  0.000  0.000  0.001  0.001  0.000  0.001  0.064
    2  0.058  0.016  0.001  0.138  0.000  0.000  0.000  0.000  0.000  0.213
    3  0.058  0.016  0.001  0.138  0.000  0.000  0.000  0.000  0.000  0.213
tot    0.116  0.033  0.062  0.276  0.000  0.001  0.001  0.000  0.001  0.490
 
band     8 # energy   16.54421548 # occ.  0.00000000
 
ion      s     py     pz     px    dxy    dyz    dz2    dxz  x2-y2    tot
    1  0.000  0.000  0.014  0.000  0.001  0.000  0.000  0.004  0.001  0.021
    2  0.090  0.109  0.003  0.079  0.000  0.000  0.000  0.000  0.000  0.280
    3  0.090  0.109  0.003  0.079  0.000  0.000  0.000  0.000  0.000  0.280
tot    0.180  0.217  0.020  0.157  0.001  0.000  0.000  0.004  0.001  0.582
 

 k-point   202 :   -0.45833333 0.29166667 0.44444444     weight = 0.00617284

band     1 # energy   -3.36091555 # occ.  2.00000000
 
ion      s     py     pz     px    dxy    dyz    dz2    dxz  x2-y2    tot
    1  0.002  0.001  0.017  0.000  0.000  0.005  0.000  0.001  0.000  0.026
    2  0.218  0.050  0.000  0.008  0.000  0.000  0.000  0.000  0.000  0.277
    3  0.218  0.050  0.000  0.008  0.000  0.000  0.000  0.000  0.000  0.277
tot    0.439  0.101  0.018  0.016  0.000  0.005  0.000  0.001  0.000  0.579
 
band     2 # energy    0.43088993 # occ.  2.00000000
 
ion      s     py     pz     px    dxy    dyz    dz2    dxz  x2-y2    tot
    1  0.000  0.001  0.009  0.000  0.000  0.007  0.000  0.002  0.000  0.019
    2  0.137  0.156  0.000  0.006  0.000  0.000  0.000  0.000  0.000  0.299
    3  0.137  0.156  0.000  0.006  0.000  0.000  0.000  0.000  0.000  0.299
tot    0.274  0.313  0.010  0.013  0.000  0.007  0.000  0.002  0.000  0.617
 
band     3 # energy    1.03357700 # occ.  2.00000000
 
ion      s     py     pz     px    dxy    dyz    dz2    dxz  x2-y2    tot
    1  0.058  0.049  0.001  0.007  0.001  0.001  0.000  0.000  0.001  0.118
    2  0.003  0.001  0.117  0.000  0.000  0.000  0.000  0.000  0.000  0.121
    3  0.003  0.001  0.117  0.000  0.000  0.000  0.000  0.000  0.000  0.121
tot    0.064  0.050  0.234  0.007  0.001  0.001  0.000  0.000  0.001  0.359
 
band     4 # energy    2.28211450 # occ.  2.00000000
 
ion      s     py     pz     px    dxy    dyz    dz2    dxz  x2-y2    tot
    1  0.001  0.000  0.012  0.001  0.000  0.001  0.000  0.009  0.000  0.025
    2  0.038  0.013  0.000  0.244  0.000  0.000  0.000  0.000  0.000  0.295
    3  0.038  0.013  0.000  0.244  0.000  0.000  0.000  0.000  0.000  0.295
tot    0.077  0.025  0.013  0.488  0.000  0.001  0.000  0.009  0.000  0.614
 
band     5 # energy    5.77710611 # occ. -0.00000011
 
ion      s     py     pz     px    dxy    dyz    dz2    dxz  x2-y2    tot
    1  0.022  0.026  0.000  0.027  0.003  0.000  0.000  0.000  0.025  0.104
    2  0.001  0.001  0.128  0.000  0.000  0.000  0.000  0.000  0.000  0.130
    3  0.001  0.001  0.128  0.000  0.000  0.000  0.000  0.000  0.000  0.130
tot    0.023  0.028  0.256  0.028  0.003  0.000  0.000  0.000  0.025  0.363
 
band     6 # energy   11.18095007 # occ.  0.00000000
 
ion      s     py     pz     px    dxy    dyz    dz2    dxz  x2-y2    tot
    1  0.251  0.023  0.001  0.046  0.002  0.000  0.002  0.000  0.001  0.326
    2  0.000  0.000  0.020  0.002  0.000  0.000  0.000  0.000  0.000  0.022
    3  0.000  0.000  0.020  0.002  0.000  0.000  0.000  0.000  0.000  0.022
tot    0.251  0.023  0.041  0.050  0.002  0.000  0.002  0.000  0.001  0.370
 
band     7 # energy   13.39190184 # occ.  0.00000000
 
ion      s     py     pz     px    dxy    dyz    dz2    dxz  x2-y2    tot
    1  0.000  0.000  0.046  0.001  0.000  0.004  0.001  0.001  0.001  0.052
    2  0.097  0.025  0.001  0.088  0.000  0.000  0.000  0.000  0.000  0.211
    3  0.097  0.025  0.001  0.088  0.000  0.000  0.000  0.000  0.000  0.211
tot    0.195  0.050  0.048  0.176  0.000  0.004  0.001  0.001  0.001  0.474
 
band     8 # energy   16.76271835 # occ.  0.00000000
 
ion      s     py     pz     px    dxy    dyz    dz2    dxz  x2-y2    tot
    1  0.000  0.002  0.015  0.001  0.001  0.000  0.001  0.010  0.000  0.031
    2  0.073  0.087  0.008  0.102  0.000  0.000  0.000  0.000  0.000  0.270
    3  0.073  0.087  0.008  0.102  0.000  0.000  0.000  0.000  0.000  0.270
tot    0.145  0.176  0.032  0.205  0.001  0.000  0.001  0.010  0.000  0.571
 

 k-point   203 :   -0.37500000 0.29166667 0.44444444     weight = 0.00617284

band     1 # energy   -4.06343121 # occ.  2.00000000
 
ion      s     py     pz     px    dxy    dyz    dz2    dxz  x2-y2    tot
    1  0.003  0.001  0.020  0.000  0.000  0.004  0.000  0.000  0.000  0.028
    2  0.228  0.041  0.000  0.002  0.000  0.000  0.000  0.000  0.000  0.271
    3  0.228  0.041  0.000  0.002  0.000  0.000  0.000  0.000  0.000  0.271
tot    0.459  0.082  0.021  0.004  0.000  0.004  0.000  0.000  0.000  0.570
 
band     2 # energy    0.22864337 # occ.  2.00000000
 
ion      s     py     pz     px    dxy    dyz    dz2    dxz  x2-y2    tot
    1  0.079  0.040  0.002  0.002  0.000  0.000  0.001  0.000  0.001  0.125
    2  0.002  0.001  0.114  0.000  0.000  0.000  0.000  0.000  0.000  0.117
    3  0.002  0.001  0.114  0.000  0.000  0.000  0.000  0.000  0.000  0.117
tot    0.084  0.042  0.229  0.002  0.000  0.000  0.001  0.000  0.001  0.358
 
band     3 # energy    1.04392946 # occ.  2.00000000
 
ion      s     py     pz     px    dxy    dyz    dz2    dxz  x2-y2    tot
    1  0.001  0.000  0.009  0.000  0.000  0.008  0.000  0.001  0.000  0.020
    2  0.120  0.177  0.000  0.002  0.000  0.000  0.000  0.000  0.000  0.300
    3  0.120  0.177  0.000  0.002  0.000  0.000  0.000  0.000  0.000  0.300
tot    0.242  0.355  0.009  0.004  0.000  0.008  0.000  0.001  0.000  0.619
 
band     4 # energy    3.50797474 # occ.  2.00000000
 
ion      s     py     pz     px    dxy    dyz    dz2    dxz  x2-y2    tot
    1  0.000  0.000  0.004  0.001  0.000  0.001  0.000  0.012  0.000  0.017
    2  0.015  0.004  0.000  0.298  0.000  0.000  0.000  0.000  0.000  0.317
    3  0.015  0.004  0.000  0.298  0.000  0.000  0.000  0.000  0.000  0.317
tot    0.030  0.008  0.004  0.597  0.000  0.001  0.000  0.012  0.000  0.652
 
band     5 # energy    6.73520447 # occ. -0.00000000
 
ion      s     py     pz     px    dxy    dyz    dz2    dxz  x2-y2    tot
    1  0.035  0.034  0.001  0.008  0.001  0.000  0.000  0.000  0.032  0.111
    2  0.000  0.001  0.126  0.000  0.000  0.000  0.000  0.000  0.000  0.128
    3  0.000  0.001  0.126  0.000  0.000  0.000  0.000  0.000  0.000  0.128
tot    0.036  0.037  0.254  0.008  0.001  0.000  0.000  0.000  0.032  0.367
 
band     6 # energy   11.98116122 # occ.  0.00000000
 
ion      s     py     pz     px    dxy    dyz    dz2    dxz  x2-y2    tot
    1  0.012  0.003  0.038  0.001  0.000  0.006  0.002  0.001  0.001  0.062
    2  0.124  0.037  0.000  0.032  0.000  0.000  0.000  0.000  0.000  0.194
    3  0.124  0.037  0.000  0.032  0.000  0.000  0.000  0.000  0.000  0.194
tot    0.261  0.077  0.038  0.065  0.000  0.006  0.002  0.001  0.001  0.449
 
band     7 # energy   13.08275376 # occ.  0.00000000
 
ion      s     py     pz     px    dxy    dyz    dz2    dxz  x2-y2    tot
    1  0.172  0.023  0.005  0.082  0.008  0.001  0.002  0.000  0.003  0.295
    2  0.003  0.002  0.036  0.000  0.000  0.000  0.000  0.000  0.000  0.041
    3  0.003  0.002  0.036  0.000  0.000  0.000  0.000  0.000  0.000  0.041
tot    0.178  0.027  0.076  0.082  0.008  0.001  0.002  0.000  0.003  0.377
 
band     8 # energy   16.69549731 # occ.  0.00000000
 
ion      s     py     pz     px    dxy    dyz    dz2    dxz  x2-y2    tot
    1  0.076  0.013  0.001  0.075  0.003  0.002  0.014  0.000  0.002  0.186
    2  0.005  0.005  0.157  0.009  0.000  0.000  0.000  0.000  0.000  0.177
    3  0.005  0.005  0.157  0.009  0.000  0.000  0.000  0.000  0.000  0.177
tot    0.085  0.023  0.316  0.093  0.003  0.002  0.014  0.000  0.002  0.539
 

 k-point   204 :   -0.29166667 0.29166667 0.44444444     weight = 0.00308642

band     1 # energy   -4.55639606 # occ.  2.00000000
 
ion      s     py     pz     px    dxy    dyz    dz2    dxz  x2-y2    tot
    1  0.003  0.001  0.022  0.000  0.000  0.003  0.000  0.000  0.000  0.029
    2  0.235  0.032  0.000  0.000  0.000  0.000  0.000  0.000  0.000  0.267
    3  0.235  0.032  0.000  0.000  0.000  0.000  0.000  0.000  0.000  0.267
tot    0.474  0.064  0.023  0.000  0.000  0.003  0.000  0.000  0.000  0.564
 
band     2 # energy   -0.34853722 # occ.  2.00000000
 
ion      s     py     pz     px    dxy    dyz    dz2    dxz  x2-y2    tot
    1  0.095  0.031  0.002  0.000  0.000  0.000  0.001  0.000  0.001  0.129
    2  0.003  0.001  0.112  0.000  0.000  0.000  0.000  0.000  0.000  0.115
    3  0.003  0.001  0.112  0.000  0.000  0.000  0.000  0.000  0.000  0.115
tot    0.100  0.032  0.225  0.000  0.000  0.000  0.001  0.000  0.001  0.359
 
band     3 # energy    1.80218418 # occ.  2.00000000
 
ion      s     py     pz     px    dxy    dyz    dz2    dxz  x2-y2    tot
    1  0.001  0.001  0.008  0.000  0.000  0.009  0.000  0.000  0.000  0.018
    2  0.105  0.199  0.000  0.000  0.000  0.000  0.000  0.000  0.000  0.304
    3  0.105  0.199  0.000  0.000  0.000  0.000  0.000  0.000  0.000  0.304
tot    0.211  0.399  0.008  0.000  0.000  0.009  0.000  0.000  0.000  0.627
 
band     4 # energy    4.20226823 # occ.  2.00000000
 
ion      s     py     pz     px    dxy    dyz    dz2    dxz  x2-y2    tot
    1  0.000  0.000  0.000  0.001  0.000  0.000  0.000  0.012  0.000  0.013
    2  0.000  0.000  0.000  0.330  0.000  0.000  0.000  0.000  0.000  0.330
    3  0.000  0.000  0.000  0.330  0.000  0.000  0.000  0.000  0.000  0.330
tot    0.000  0.000  0.000  0.660  0.000  0.000  0.000  0.012  0.000  0.672
 
band     5 # energy    7.71592796 # occ. -0.00000000
 
ion      s     py     pz     px    dxy    dyz    dz2    dxz  x2-y2    tot
    1  0.032  0.038  0.001  0.000  0.000  0.001  0.000  0.000  0.038  0.108
    2  0.000  0.001  0.131  0.000  0.000  0.000  0.000  0.000  0.000  0.133
    3  0.000  0.001  0.131  0.000  0.000  0.000  0.000  0.000  0.000  0.133
tot    0.032  0.041  0.263  0.000  0.000  0.001  0.000  0.000  0.038  0.374
 
band     6 # energy   11.53180393 # occ.  0.00000000
 
ion      s     py     pz     px    dxy    dyz    dz2    dxz  x2-y2    tot
    1  0.004  0.002  0.038  0.000  0.000  0.010  0.001  0.000  0.001  0.057
    2  0.132  0.056  0.000  0.000  0.000  0.000  0.000  0.000  0.000  0.188
    3  0.132  0.056  0.000  0.000  0.000  0.000  0.000  0.000  0.000  0.188
tot    0.269  0.114  0.038  0.000  0.000  0.010  0.001  0.000  0.001  0.434
 
band     7 # energy   15.18014709 # occ.  0.00000000
 
ion      s     py     pz     px    dxy    dyz    dz2    dxz  x2-y2    tot
    1  0.000  0.000  0.000  0.221  0.034  0.000  0.000  0.001  0.000  0.257
    2  0.000  0.000  0.000  0.001  0.000  0.000  0.000  0.000  0.000  0.001
    3  0.000  0.000  0.000  0.001  0.000  0.000  0.000  0.000  0.000  0.001
tot    0.000  0.000  0.000  0.223  0.034  0.000  0.000  0.001  0.000  0.259
 
band     8 # energy   15.28137950 # occ.  0.00000000
 
ion      s     py     pz     px    dxy    dyz    dz2    dxz  x2-y2    tot
    1  0.262  0.030  0.001  0.000  0.000  0.002  0.000  0.000  0.008  0.303
    2  0.000  0.001  0.139  0.000  0.000  0.000  0.000  0.000  0.000  0.141
    3  0.000  0.001  0.139  0.000  0.000  0.000  0.000  0.000  0.000  0.141
tot    0.263  0.033  0.278  0.000  0.000  0.002  0.000  0.000  0.008  0.584
 

 k-point   205 :    0.37500000 0.37500000 0.44444444     weight = 0.00308642

band     1 # energy   -1.57923576 # occ.  2.00000000
 
ion      s     py     pz     px    dxy    dyz    dz2    dxz  x2-y2    tot
    1  0.000  0.002  0.000  0.000  0.000  0.012  0.000  0.000  0.000  0.014
    2  0.229  0.047  0.000  0.027  0.000  0.000  0.000  0.000  0.000  0.304
    3  0.229  0.047  0.000  0.027  0.000  0.000  0.000  0.000  0.000  0.304
tot    0.458  0.097  0.001  0.053  0.000  0.012  0.000  0.000  0.000  0.622
 
band     2 # energy   -1.02477674 # occ.  2.00000000
 
ion      s     py     pz     px    dxy    dyz    dz2    dxz  x2-y2    tot
    1  0.001  0.000  0.018  0.001  0.000  0.000  0.000  0.006  0.000  0.026
    2  0.143  0.139  0.000  0.000  0.000  0.000  0.000  0.000  0.000  0.282
    3  0.143  0.139  0.000  0.000  0.000  0.000  0.000  0.000  0.000  0.282
tot    0.287  0.277  0.018  0.001  0.000  0.000  0.000  0.006  0.000  0.589
 
band     3 # energy    0.80824614 # occ.  2.00000000
 
ion      s     py     pz     px    dxy    dyz    dz2    dxz  x2-y2    tot
    1  0.001  0.000  0.024  0.001  0.000  0.000  0.000  0.006  0.000  0.033
    2  0.049  0.022  0.000  0.201  0.000  0.000  0.000  0.000  0.000  0.272
    3  0.049  0.022  0.000  0.201  0.000  0.000  0.000  0.000  0.000  0.272
tot    0.099  0.045  0.024  0.402  0.000  0.000  0.000  0.006  0.000  0.577
 
band     4 # energy    2.76125863 # occ.  2.00000000
 
ion      s     py     pz     px    dxy    dyz    dz2    dxz  x2-y2    tot
    1  0.000  0.087  0.000  0.000  0.007  0.001  0.000  0.000  0.000  0.095
    2  0.002  0.001  0.128  0.000  0.000  0.000  0.000  0.000  0.000  0.131
    3  0.002  0.001  0.128  0.000  0.000  0.000  0.000  0.000  0.000  0.131
tot    0.004  0.088  0.257  0.001  0.007  0.001  0.000  0.000  0.000  0.357
 
band     5 # energy    4.02046919 # occ.  2.00000000
 
ion      s     py     pz     px    dxy    dyz    dz2    dxz  x2-y2    tot
    1  0.025  0.000  0.000  0.062  0.000  0.000  0.000  0.001  0.017  0.106
    2  0.001  0.001  0.124  0.001  0.000  0.000  0.000  0.000  0.000  0.126
    3  0.001  0.001  0.124  0.001  0.000  0.000  0.000  0.000  0.000  0.126
tot    0.027  0.001  0.248  0.063  0.000  0.000  0.000  0.001  0.017  0.358
 
band     6 # energy    9.52118346 # occ.  0.00000000
 
ion      s     py     pz     px    dxy    dyz    dz2    dxz  x2-y2    tot
    1  0.330  0.000  0.003  0.016  0.000  0.000  0.001  0.000  0.001  0.351
    2  0.000  0.000  0.007  0.001  0.000  0.000  0.000  0.000  0.000  0.008
    3  0.000  0.000  0.007  0.001  0.000  0.000  0.000  0.000  0.000  0.008
tot    0.330  0.001  0.016  0.018  0.000  0.000  0.001  0.000  0.001  0.366
 
band     7 # energy   15.22340957 # occ.  0.00000000
 
ion      s     py     pz     px    dxy    dyz    dz2    dxz  x2-y2    tot
    1  0.000  0.000  0.050  0.000  0.000  0.000  0.001  0.001  0.001  0.053
    2  0.078  0.009  0.001  0.140  0.000  0.000  0.000  0.000  0.000  0.227
    3  0.078  0.009  0.001  0.140  0.000  0.000  0.000  0.000  0.000  0.227
tot    0.156  0.017  0.052  0.280  0.000  0.000  0.001  0.001  0.001  0.508
 
band     8 # energy   18.00960655 # occ.  0.00000000
 
ion      s     py     pz     px    dxy    dyz    dz2    dxz  x2-y2    tot
    1  0.000  0.030  0.000  0.000  0.004  0.003  0.000  0.000  0.000  0.037
    2  0.025  0.092  0.061  0.100  0.000  0.000  0.000  0.000  0.000  0.278
    3  0.025  0.092  0.061  0.100  0.000  0.000  0.000  0.000  0.000  0.278
tot    0.051  0.214  0.121  0.201  0.004  0.003  0.000  0.000  0.000  0.594
 

 k-point   206 :    0.45833333 0.37500000 0.44444444     weight = 0.00617284

band     1 # energy   -2.32884163 # occ.  2.00000000
 
ion      s     py     pz     px    dxy    dyz    dz2    dxz  x2-y2    tot
    1  0.001  0.001  0.010  0.000  0.000  0.008  0.000  0.001  0.000  0.021
    2  0.216  0.063  0.000  0.009  0.000  0.000  0.000  0.000  0.000  0.288
    3  0.216  0.063  0.000  0.009  0.000  0.000  0.000  0.000  0.000  0.288
tot    0.433  0.128  0.010  0.018  0.000  0.008  0.000  0.001  0.000  0.598
 
band     2 # energy   -0.92367741 # occ.  2.00000000
 
ion      s     py     pz     px    dxy    dyz    dz2    dxz  x2-y2    tot
    1  0.001  0.001  0.018  0.000  0.000  0.004  0.000  0.002  0.000  0.026
    2  0.142  0.136  0.000  0.004  0.000  0.000  0.000  0.000  0.000  0.282
    3  0.142  0.136  0.000  0.004  0.000  0.000  0.000  0.000  0.000  0.282
tot    0.286  0.272  0.018  0.007  0.000  0.004  0.000  0.002  0.000  0.590
 
band     3 # energy    2.01018212 # occ.  2.00000000
 
ion      s     py     pz     px    dxy    dyz    dz2    dxz  x2-y2    tot
    1  0.002  0.022  0.010  0.003  0.001  0.000  0.000  0.007  0.001  0.046
    2  0.030  0.006  0.036  0.174  0.000  0.000  0.000  0.000  0.000  0.246
    3  0.030  0.006  0.036  0.174  0.000  0.000  0.000  0.000  0.000  0.246
tot    0.063  0.034  0.081  0.351  0.001  0.000  0.000  0.007  0.001  0.539
 
band     4 # energy    2.05785270 # occ.  2.00000000
 
ion      s     py     pz     px    dxy    dyz    dz2    dxz  x2-y2    tot
    1  0.014  0.056  0.002  0.001  0.002  0.001  0.000  0.003  0.000  0.080
    2  0.016  0.002  0.089  0.070  0.000  0.000  0.000  0.000  0.000  0.177
    3  0.016  0.002  0.089  0.070  0.000  0.000  0.000  0.000  0.000  0.177
tot    0.046  0.060  0.181  0.140  0.002  0.001  0.000  0.003  0.000  0.434
 
band     5 # energy    4.46900706 # occ.  2.00000000
 
ion      s     py     pz     px    dxy    dyz    dz2    dxz  x2-y2    tot
    1  0.063  0.010  0.001  0.028  0.001  0.000  0.000  0.000  0.021  0.125
    2  0.001  0.001  0.115  0.000  0.000  0.000  0.000  0.000  0.000  0.117
    3  0.001  0.001  0.115  0.000  0.000  0.000  0.000  0.000  0.000  0.117
tot    0.065  0.012  0.231  0.029  0.001  0.000  0.000  0.000  0.021  0.359
 
band     6 # energy   10.73228141 # occ.  0.00000000
 
ion      s     py     pz     px    dxy    dyz    dz2    dxz  x2-y2    tot
    1  0.261  0.003  0.001  0.052  0.000  0.000  0.002  0.001  0.004  0.323
    2  0.000  0.000  0.022  0.002  0.000  0.000  0.000  0.000  0.000  0.024
    3  0.000  0.000  0.022  0.002  0.000  0.000  0.000  0.000  0.000  0.024
tot    0.262  0.003  0.045  0.055  0.000  0.000  0.002  0.001  0.004  0.371
 
band     7 # energy   13.29993722 # occ.  0.00000000
 
ion      s     py     pz     px    dxy    dyz    dz2    dxz  x2-y2    tot
    1  0.000  0.000  0.046  0.001  0.000  0.000  0.001  0.001  0.001  0.050
    2  0.114  0.013  0.001  0.086  0.000  0.000  0.000  0.000  0.000  0.214
    3  0.114  0.013  0.001  0.086  0.000  0.000  0.000  0.000  0.000  0.214
tot    0.229  0.025  0.047  0.174  0.000  0.000  0.001  0.001  0.001  0.478
 
band     8 # energy   18.03819242 # occ.  0.00000000
 
ion      s     py     pz     px    dxy    dyz    dz2    dxz  x2-y2    tot
    1  0.007  0.073  0.000  0.015  0.002  0.007  0.003  0.001  0.000  0.108
    2  0.004  0.038  0.153  0.032  0.000  0.000  0.000  0.000  0.000  0.228
    3  0.004  0.038  0.153  0.032  0.000  0.000  0.000  0.000  0.000  0.228
tot    0.016  0.149  0.306  0.079  0.002  0.007  0.003  0.001  0.000  0.563
 

 k-point   207 :   -0.45833333 0.37500000 0.44444444     weight = 0.00617284

band     1 # energy   -3.09554694 # occ.  2.00000000
 
ion      s     py     pz     px    dxy    dyz    dz2    dxz  x2-y2    tot
    1  0.002  0.001  0.015  0.000  0.000  0.006  0.000  0.000  0.000  0.025
    2  0.218  0.059  0.000  0.002  0.000  0.000  0.000  0.000  0.000  0.279
    3  0.218  0.059  0.000  0.002  0.000  0.000  0.000  0.000  0.000  0.279
tot    0.437  0.120  0.016  0.004  0.000  0.006  0.000  0.000  0.000  0.583
 
band     2 # energy   -0.46035927 # occ.  2.00000000
 
ion      s     py     pz     px    dxy    dyz    dz2    dxz  x2-y2    tot
    1  0.001  0.001  0.015  0.000  0.000  0.006  0.000  0.000  0.000  0.024
    2  0.140  0.145  0.000  0.001  0.000  0.000  0.000  0.000  0.000  0.286
    3  0.140  0.145  0.000  0.001  0.000  0.000  0.000  0.000  0.000  0.286
tot    0.280  0.291  0.016  0.003  0.000  0.006  0.000  0.000  0.000  0.596
 
band     3 # energy    1.28524497 # occ.  2.00000000
 
ion      s     py     pz     px    dxy    dyz    dz2    dxz  x2-y2    tot
    1  0.044  0.064  0.001  0.001  0.000  0.001  0.000  0.000  0.001  0.113
    2  0.002  0.001  0.120  0.000  0.000  0.000  0.000  0.000  0.000  0.123
    3  0.002  0.001  0.120  0.000  0.000  0.000  0.000  0.000  0.000  0.123
tot    0.049  0.065  0.240  0.001  0.000  0.001  0.000  0.000  0.001  0.358
 
band     4 # energy    3.15724455 # occ.  2.00000000
 
ion      s     py     pz     px    dxy    dyz    dz2    dxz  x2-y2    tot
    1  0.000  0.000  0.004  0.001  0.000  0.000  0.000  0.013  0.000  0.018
    2  0.017  0.002  0.000  0.297  0.000  0.000  0.000  0.000  0.000  0.316
    3  0.017  0.002  0.000  0.297  0.000  0.000  0.000  0.000  0.000  0.316
tot    0.034  0.004  0.004  0.594  0.000  0.000  0.000  0.013  0.000  0.650
 
band     5 # energy    5.09148733 # occ.  2.00069161
 
ion      s     py     pz     px    dxy    dyz    dz2    dxz  x2-y2    tot
    1  0.074  0.024  0.001  0.007  0.000  0.000  0.000  0.000  0.025  0.132
    2  0.000  0.001  0.113  0.000  0.000  0.000  0.000  0.000  0.000  0.115
    3  0.000  0.001  0.113  0.000  0.000  0.000  0.000  0.000  0.000  0.115
tot    0.075  0.026  0.226  0.007  0.000  0.000  0.000  0.000  0.025  0.361
 
band     6 # energy   11.78650985 # occ.  0.00000000
 
ion      s     py     pz     px    dxy    dyz    dz2    dxz  x2-y2    tot
    1  0.024  0.001  0.038  0.003  0.000  0.001  0.002  0.001  0.002  0.071
    2  0.139  0.017  0.001  0.031  0.000  0.000  0.000  0.000  0.000  0.188
    3  0.139  0.017  0.001  0.031  0.000  0.000  0.000  0.000  0.000  0.188
tot    0.302  0.036  0.040  0.065  0.000  0.001  0.002  0.001  0.002  0.448
 
band     7 # energy   12.60799858 # occ.  0.00000000
 
ion      s     py     pz     px    dxy    dyz    dz2    dxz  x2-y2    tot
    1  0.172  0.006  0.008  0.085  0.002  0.000  0.002  0.000  0.006  0.282
    2  0.009  0.002  0.037  0.000  0.000  0.000  0.000  0.000  0.000  0.049
    3  0.009  0.002  0.037  0.000  0.000  0.000  0.000  0.000  0.000  0.049
tot    0.191  0.010  0.083  0.086  0.002  0.000  0.002  0.000  0.006  0.380
 
band     8 # energy   16.69952678 # occ.  0.00000000
 
ion      s     py     pz     px    dxy    dyz    dz2    dxz  x2-y2    tot
    1  0.097  0.000  0.000  0.155  0.003  0.000  0.001  0.001  0.013  0.271
    2  0.000  0.001  0.093  0.001  0.000  0.000  0.000  0.000  0.000  0.094
    3  0.000  0.001  0.093  0.001  0.000  0.000  0.000  0.000  0.000  0.094
tot    0.098  0.002  0.186  0.157  0.003  0.000  0.001  0.001  0.013  0.459
 

 k-point   208 :   -0.37500000 0.37500000 0.44444444     weight = 0.00308642

band     1 # energy   -3.68313417 # occ.  2.00000000
 
ion      s     py     pz     px    dxy    dyz    dz2    dxz  x2-y2    tot
    1  0.002  0.001  0.018  0.000  0.000  0.005  0.000  0.000  0.000  0.027
    2  0.223  0.050  0.000  0.000  0.000  0.000  0.000  0.000  0.000  0.274
    3  0.223  0.050  0.000  0.000  0.000  0.000  0.000  0.000  0.000  0.274
tot    0.449  0.102  0.019  0.000  0.000  0.005  0.000  0.000  0.000  0.575
 
band     2 # energy    0.20988571 # occ.  2.00000000
 
ion      s     py     pz     px    dxy    dyz    dz2    dxz  x2-y2    tot
    1  0.000  0.002  0.013  0.000  0.000  0.007  0.000  0.000  0.000  0.023
    2  0.129  0.159  0.001  0.000  0.000  0.000  0.000  0.000  0.000  0.289
    3  0.129  0.159  0.001  0.000  0.000  0.000  0.000  0.000  0.000  0.289
tot    0.258  0.321  0.016  0.000  0.000  0.007  0.000  0.000  0.000  0.602
 
band     3 # energy    0.65785838 # occ.  2.00000000
 
ion      s     py     pz     px    dxy    dyz    dz2    dxz  x2-y2    tot
    1  0.067  0.050  0.001  0.000  0.000  0.001  0.000  0.000  0.001  0.120
    2  0.004  0.001  0.115  0.000  0.000  0.000  0.000  0.000  0.000  0.121
    3  0.004  0.001  0.115  0.000  0.000  0.000  0.000  0.000  0.000  0.121
tot    0.076  0.052  0.230  0.000  0.000  0.001  0.000  0.000  0.001  0.361
 
band     4 # energy    3.75181410 # occ.  2.00000000
 
ion      s     py     pz     px    dxy    dyz    dz2    dxz  x2-y2    tot
    1  0.000  0.000  0.000  0.001  0.000  0.000  0.000  0.014  0.000  0.015
    2  0.000  0.000  0.000  0.327  0.000  0.000  0.000  0.000  0.000  0.327
    3  0.000  0.000  0.000  0.327  0.000  0.000  0.000  0.000  0.000  0.327
tot    0.000  0.000  0.000  0.655  0.000  0.000  0.000  0.014  0.000  0.669
 
band     5 # energy    5.88068296 # occ. -0.00000000
 
ion      s     py     pz     px    dxy    dyz    dz2    dxz  x2-y2    tot
    1  0.064  0.034  0.001  0.000  0.000  0.000  0.000  0.000  0.028  0.127
    2  0.000  0.001  0.116  0.000  0.000  0.000  0.000  0.000  0.000  0.118
    3  0.000  0.001  0.116  0.000  0.000  0.000  0.000  0.000  0.000  0.118
tot    0.064  0.036  0.233  0.000  0.000  0.000  0.000  0.000  0.028  0.363
 
band     6 # energy   11.29462365 # occ.  0.00000000
 
ion      s     py     pz     px    dxy    dyz    dz2    dxz  x2-y2    tot
    1  0.006  0.001  0.043  0.000  0.000  0.004  0.001  0.000  0.001  0.056
    2  0.159  0.028  0.000  0.000  0.000  0.000  0.000  0.000  0.000  0.188
    3  0.159  0.028  0.000  0.000  0.000  0.000  0.000  0.000  0.000  0.188
tot    0.325  0.058  0.043  0.000  0.000  0.004  0.001  0.000  0.001  0.432
 
band     7 # energy   14.73483314 # occ.  0.00000000
 
ion      s     py     pz     px    dxy    dyz    dz2    dxz  x2-y2    tot
    1  0.000  0.000  0.000  0.241  0.012  0.000  0.000  0.001  0.000  0.254
    2  0.000  0.000  0.000  0.001  0.000  0.000  0.000  0.000  0.000  0.001
    3  0.000  0.000  0.000  0.001  0.000  0.000  0.000  0.000  0.000  0.001
tot    0.000  0.000  0.000  0.242  0.012  0.000  0.000  0.001  0.000  0.256
 
band     8 # energy   14.74193131 # occ.  0.00000000
 
ion      s     py     pz     px    dxy    dyz    dz2    dxz  x2-y2    tot
    1  0.273  0.016  0.003  0.000  0.000  0.001  0.005  0.000  0.021  0.318
    2  0.001  0.001  0.115  0.000  0.000  0.000  0.000  0.000  0.000  0.117
    3  0.001  0.001  0.115  0.000  0.000  0.000  0.000  0.000  0.000  0.117
tot    0.274  0.018  0.233  0.000  0.000  0.001  0.005  0.000  0.021  0.551
 

 k-point   209 :    0.45833333 0.45833333 0.44444444     weight = 0.00308642

band     1 # energy   -2.18396585 # occ.  2.00000000
 
ion      s     py     pz     px    dxy    dyz    dz2    dxz  x2-y2    tot
    1  0.000  0.002  0.000  0.000  0.000  0.013  0.000  0.000  0.000  0.015
    2  0.249  0.048  0.000  0.003  0.000  0.000  0.000  0.000  0.000  0.300
    3  0.249  0.048  0.000  0.003  0.000  0.000  0.000  0.000  0.000  0.300
tot    0.498  0.098  0.001  0.006  0.000  0.013  0.000  0.000  0.000  0.615
 
band     2 # energy   -1.55561382 # occ.  2.00000000
 
ion      s     py     pz     px    dxy    dyz    dz2    dxz  x2-y2    tot
    1  0.003  0.000  0.031  0.000  0.000  0.000  0.000  0.000  0.000  0.035
    2  0.112  0.151  0.000  0.000  0.000  0.000  0.000  0.000  0.000  0.263
    3  0.112  0.151  0.000  0.000  0.000  0.000  0.000  0.000  0.000  0.263
tot    0.227  0.302  0.031  0.001  0.000  0.000  0.000  0.000  0.000  0.562
 
band     3 # energy    1.97841563 # occ.  2.00000000
 
ion      s     py     pz     px    dxy    dyz    dz2    dxz  x2-y2    tot
    1  0.000  0.093  0.000  0.000  0.001  0.001  0.000  0.000  0.000  0.095
    2  0.002  0.001  0.128  0.000  0.000  0.000  0.000  0.000  0.000  0.131
    3  0.002  0.001  0.128  0.000  0.000  0.000  0.000  0.000  0.000  0.131
tot    0.004  0.094  0.257  0.000  0.001  0.001  0.000  0.000  0.000  0.358
 
band     4 # energy    3.03616602 # occ.  2.00000000
 
ion      s     py     pz     px    dxy    dyz    dz2    dxz  x2-y2    tot
    1  0.000  0.000  0.004  0.001  0.000  0.000  0.000  0.013  0.000  0.018
    2  0.017  0.002  0.000  0.296  0.000  0.000  0.000  0.000  0.000  0.315
    3  0.017  0.002  0.000  0.296  0.000  0.000  0.000  0.000  0.000  0.315
tot    0.035  0.004  0.004  0.592  0.000  0.000  0.000  0.013  0.000  0.648
 
band     5 # energy    4.19858418 # occ.  2.00000000
 
ion      s     py     pz     px    dxy    dyz    dz2    dxz  x2-y2    tot
    1  0.119  0.000  0.002  0.007  0.000  0.000  0.000  0.000  0.023  0.152
    2  0.001  0.001  0.101  0.001  0.000  0.000  0.000  0.000  0.000  0.104
    3  0.001  0.001  0.101  0.001  0.000  0.000  0.000  0.000  0.000  0.104
tot    0.120  0.002  0.205  0.009  0.000  0.000  0.000  0.000  0.023  0.359
 
band     6 # energy   11.71358815 # occ.  0.00000000
 
ion      s     py     pz     px    dxy    dyz    dz2    dxz  x2-y2    tot
    1  0.030  0.000  0.037  0.004  0.000  0.000  0.002  0.001  0.003  0.077
    2  0.142  0.011  0.002  0.030  0.000  0.000  0.000  0.000  0.000  0.185
    3  0.142  0.011  0.002  0.030  0.000  0.000  0.000  0.000  0.000  0.185
tot    0.314  0.022  0.041  0.065  0.000  0.000  0.002  0.001  0.003  0.447
 
band     7 # energy   12.45448004 # occ.  0.00000000
 
ion      s     py     pz     px    dxy    dyz    dz2    dxz  x2-y2    tot
    1  0.170  0.000  0.010  0.085  0.000  0.000  0.002  0.000  0.007  0.274
    2  0.013  0.002  0.038  0.001  0.000  0.000  0.000  0.000  0.000  0.054
    3  0.013  0.002  0.038  0.001  0.000  0.000  0.000  0.000  0.000  0.054
tot    0.196  0.004  0.085  0.087  0.000  0.000  0.002  0.000  0.007  0.381
 
band     8 # energy   16.61380126 # occ.  0.00000000
 
ion      s     py     pz     px    dxy    dyz    dz2    dxz  x2-y2    tot
    1  0.095  0.000  0.001  0.162  0.000  0.000  0.003  0.001  0.016  0.277
    2  0.000  0.001  0.082  0.001  0.000  0.000  0.000  0.000  0.000  0.083
    3  0.000  0.001  0.082  0.001  0.000  0.000  0.000  0.000  0.000  0.083
tot    0.095  0.001  0.164  0.163  0.000  0.000  0.003  0.001  0.016  0.444
 

 k-point   210 :   -0.45833333 0.45833333 0.44444444     weight = 0.00308642

band     1 # energy   -2.63863080 # occ.  2.00000000
 
ion      s     py     pz     px    dxy    dyz    dz2    dxz  x2-y2    tot
    1  0.001  0.002  0.011  0.000  0.000  0.008  0.000  0.000  0.000  0.022
    2  0.222  0.063  0.000  0.000  0.000  0.000  0.000  0.000  0.000  0.286
    3  0.222  0.063  0.000  0.000  0.000  0.000  0.000  0.000  0.000  0.286
tot    0.445  0.129  0.011  0.000  0.000  0.008  0.000  0.000  0.000  0.593
 
band     2 # energy   -1.20488405 # occ.  2.00000000
 
ion      s     py     pz     px    dxy    dyz    dz2    dxz  x2-y2    tot
    1  0.002  0.001  0.021  0.000  0.000  0.004  0.000  0.000  0.000  0.028
    2  0.139  0.137  0.000  0.000  0.000  0.000  0.000  0.000  0.000  0.276
    3  0.139  0.137  0.000  0.000  0.000  0.000  0.000  0.000  0.000  0.276
tot    0.280  0.275  0.022  0.000  0.000  0.004  0.000  0.000  0.000  0.581
 
band     3 # energy    1.66347739 # occ.  2.00000000
 
ion      s     py     pz     px    dxy    dyz    dz2    dxz  x2-y2    tot
    1  0.018  0.083  0.000  0.000  0.000  0.001  0.000  0.000  0.001  0.103
    2  0.002  0.001  0.125  0.000  0.000  0.000  0.000  0.000  0.000  0.128
    3  0.002  0.001  0.125  0.000  0.000  0.000  0.000  0.000  0.000  0.128
tot    0.023  0.084  0.250  0.000  0.000  0.001  0.000  0.000  0.001  0.358
 
band     4 # energy    3.51994038 # occ.  2.00000000
 
ion      s     py     pz     px    dxy    dyz    dz2    dxz  x2-y2    tot
    1  0.000  0.000  0.000  0.001  0.000  0.000  0.000  0.014  0.000  0.015
    2  0.000  0.000  0.000  0.327  0.000  0.000  0.000  0.000  0.000  0.327
    3  0.000  0.000  0.000  0.327  0.000  0.000  0.000  0.000  0.000  0.327
tot    0.000  0.000  0.000  0.654  0.000  0.000  0.000  0.014  0.000  0.669
 
band     5 # energy    4.44757287 # occ.  2.00000000
 
ion      s     py     pz     px    dxy    dyz    dz2    dxz  x2-y2    tot
    1  0.114  0.011  0.002  0.000  0.000  0.000  0.000  0.000  0.024  0.150
    2  0.000  0.001  0.103  0.000  0.000  0.000  0.000  0.000  0.000  0.104
    3  0.000  0.001  0.103  0.000  0.000  0.000  0.000  0.000  0.000  0.104
tot    0.115  0.013  0.207  0.000  0.000  0.000  0.000  0.000  0.024  0.359
 
band     6 # energy   11.16645207 # occ.  0.00000000
 
ion      s     py     pz     px    dxy    dyz    dz2    dxz  x2-y2    tot
    1  0.008  0.000  0.045  0.000  0.000  0.000  0.001  0.000  0.001  0.056
    2  0.172  0.015  0.000  0.000  0.000  0.000  0.000  0.000  0.000  0.188
    3  0.172  0.015  0.000  0.000  0.000  0.000  0.000  0.000  0.000  0.188
tot    0.352  0.031  0.045  0.000  0.000  0.000  0.001  0.000  0.001  0.432
 
band     7 # energy   14.44069745 # occ.  0.00000000
 
ion      s     py     pz     px    dxy    dyz    dz2    dxz  x2-y2    tot
    1  0.278  0.002  0.005  0.000  0.000  0.000  0.006  0.000  0.027  0.318
    2  0.001  0.001  0.110  0.000  0.000  0.000  0.000  0.000  0.000  0.112
    3  0.001  0.001  0.110  0.000  0.000  0.000  0.000  0.000  0.000  0.112
tot    0.280  0.004  0.224  0.000  0.000  0.000  0.006  0.000  0.027  0.542
 
band     8 # energy   14.51033739 # occ.  0.00000000
 
ion      s     py     pz     px    dxy    dyz    dz2    dxz  x2-y2    tot
    1  0.000  0.000  0.000  0.250  0.001  0.000  0.000  0.002  0.000  0.253
    2  0.000  0.000  0.000  0.001  0.000  0.000  0.000  0.000  0.000  0.001
    3  0.000  0.000  0.000  0.001  0.000  0.000  0.000  0.000  0.000  0.001
tot    0.000  0.000  0.000  0.251  0.001  0.000  0.000  0.002  0.000  0.254
 
