Li                                      
   1.0000000000000000     
    30.9491396406756145   -0.0325947809591534    3.6836291740518301
     0.0000000000000785   34.0616861411017879    1.5304179655805623
     0.0000000000003135    0.0000000000005719   32.8578037006687680
   Li
   128
Direct
     0.2873692189374365    0.5363970649915495   -0.2405745546828321
     0.2896274208547296    0.2022531907707563   -0.1861695962394816
     0.1957422855005479    0.2700455949157436    0.2433473408235570
     0.1027019751049113    0.1279162812651289    0.6226557357413237
     0.0478859150793940    0.0039449305940480    0.3185010114797355
     0.1295031420945714    0.2330620709951474    0.4173204520103980
     0.3073933342380056    0.0200942247671150    0.8538709777749326
     0.1006296814991634   -0.1610906669567768    1.3416069768668726
    -0.2094666496646218    0.0883435346310129    0.1600155244748376
     0.0415237062718141    0.5059930069444099   -0.1125975308652238
    -0.1060369961578862    0.3858532996619117    0.2564951393622836
     0.1622219164483980    0.4503770427489578    0.1337179098632218
     0.2301777857041753    0.1695483460309700    0.5174642700747382
     0.1416440268664751   -0.2373015558684447    0.5987068513937970
     0.4156704244250385    0.3834382319090391    1.0483274117637587
     0.0561710024068865    0.6392324101053283    0.9905321778699931
    -0.2219257564834454    0.2318953732315903    0.4106044555242335
     0.1945627945621196    0.4611955222764796    0.0092614407456134
    -0.1100161752667369    0.5177782011707226    0.3790439707058441
    -0.0247375979516509    0.2984932305706648    0.0805098770696022
     0.0501173128802467    0.1331702883414203    0.3090406177726782
     0.1500248792974398    0.6307239284634639    0.1790313335293861
     0.2452646321260328    0.2612805006108204    0.5976597358974499
    -0.0035825864433502    0.7644051988028008    0.5109893977356795
     0.2775491100895094    1.1514375392003557   -0.1087023730863118
     0.0397849843396028    0.6454405496088945    0.1894861226184324
    -0.0215246666563779    0.6657150609032939   -0.0694479330054406
    -0.1064554124254375    0.9978095795075972    0.7064581683920569
     0.2378361651831060    0.9674499549969330    0.8537476241529550
     0.1012610180823974    0.6654391021262135    0.6787572226292904
     0.4425882838710398    0.8922786991561850    0.6491633096808095
     0.6655308964613876    1.0860418512424059    0.7094613562676579
     0.5685954596510407    0.1847330091681370   -0.2122529522536873
     0.5518560773412767   -0.0741059454665429    0.1251814999730861
     0.8202577382199159   -0.2925938482178982    0.1498563940327232
     0.7773057563293285    0.1774081016346401    0.1980997104942971
     0.7320600888069720   -0.1054033012035601    0.4938516999801371
     0.5396443357916176   -0.2008904255898238    0.5886791453195553
     0.3672110830384002   -0.0297336916439219    1.1673168339792948
     0.6890717294089742    0.2664499123571830    1.1438436403128407
     0.1901299043598687    0.1989733302389259    0.1703381569668710
     0.8461974581804727    0.5560838599403946    0.2648397490543436
     0.2361121859568519    0.2832704930357706    0.4105563780231541
     0.5242628010310232    0.3117702259674184    0.4249841972208515
     0.3643078172929093    0.2222779126480529    0.4337682646204513
     0.5721153097673253    0.3200030079246177    0.7803381734477235
     0.5262143098782853    0.1367608625738981    1.2400369782830112
     0.3845260792000161    0.5673324785878781    0.9230906748027710
     0.1717831995146807    0.5597474749447238   -0.2848035600000070
     0.7852814690449409    0.7981532803427298    0.0387591657467337
     0.5860510900348193    0.3063814982739692    0.1659817081658835
     0.0575819517409493    0.3340827335388855   -0.2566602111229013
    -0.0092932892223747   -0.0100495030680328    0.1956619160189448
     0.5788809819349066    0.5696950644813348    0.8885691153136946
     0.0608437128275706    0.5986169373100019    0.8920581945007938
     0.3493062914246945    0.9567372472964656    0.7749947531091586
    -0.1357500931092916    0.9860262306588814    0.1474728512858908
     0.4624866450203665    0.6787193910364000    0.2680119283851606
     0.2608146883574193    0.7371201426653047    0.4166170349420639
     0.3444145647465480    0.8550802230385394    0.4731499380535679
     0.1414833115595362    0.6176964375540922    0.4003611408611249
     0.2058418068488400    1.1450796836417092    0.7341698492144394
     0.5062257069134988    0.7472109653378286    0.5233041809565313
     0.1883587119654452    0.8417969555166857    0.9521990967978704
     0.7101934647751235    0.0108596125104085    0.3030020445565575
     0.2377025823445084   -0.0219411384292607    0.1764715405466863
     0.2897653355767086    0.0399244908169885    0.4160207411164197
     0.4001422174994646    0.1990716022726768    0.5156991729603435
     0.3576450219765757    0.1010856562588719    0.6977807486551689
     0.8037916020167577    0.3323091574242068    0.8588632668399092
     0.4722923423637330   -0.1794674453471946    0.7024863586924051
     0.7312029173921397    0.1529374427663719    0.9108961258170658
     0.6243544790307761    0.2263412722952554   -0.1228871647014997
     0.5016759729413093    0.4959465587670647    0.1506932485466202
     0.6225885577836628    0.5415079840223737    0.2921304302249367
     0.8617802592903921    0.6701820338715615    0.2329936139209983
     0.4490817382746157    0.3012669006549742    0.7126150349163239
     0.5667470303829060    0.6607696301433591    0.6360073533604180
     0.3064273339933324    0.7000446793823210    1.1374724608623958
     0.8157210236360370    0.5909536672325495    0.7836266192634603
     0.4584801526741508    0.5329509116217848   -0.2430548311670544
     0.6617910756841514    0.6827380889408692    0.1710645443171478
     0.5527232838839693    0.0949378367882251    0.5307829311489597
     0.7947201249194491    0.7085345808634778    0.4320004320053609
     0.4195749303045366    0.3709601379282195    0.2607311811367798
     0.5855962899961834    0.6861077645398457    0.8241451734722197
     0.3916943186659638    0.6534174479289400    0.7374122633472818
     0.6049092487876235    0.5543103883088624    1.1086345944446534
     0.4259582060773915    0.6686394290524913   -0.1475125087144163
     0.6049285187458213    0.8608797247840941   -0.1222559927808677
     0.5144061910441587    0.7723491833599503    0.1515070289473283
     0.7566674486771235    1.0589632435250518    0.5577111404217840
     0.6124555822530662    0.6820709197454107    0.7139719289264447
     0.7964380239035533    0.8394593160694916    0.9205596439697871
     0.5481102910837490    1.0565799383041894    0.6824506396145267
     0.1142315444881351    0.6847982649354085    0.8490464361542885
     0.7202503830031745    0.0094576620802264   -0.1348762981122428
     0.7681747443594743    0.1975561219615376   -0.2475944542259220
     0.6497557931404553   -0.1254685054343067    0.0534382643863456
     1.0394291851611719    0.4292717161550284    0.6533838404515258
     0.6907683312004880    0.4469928650528062    0.2789187461605995
     0.5990468802047526   -0.2924715151614985    0.4328688276482139
     0.7659030784496050   -0.2248956174089165    0.5671617633109813
     0.9516336062818551   -0.1867351092809336    1.0003925544332672
     1.3349158472800751    0.4646600866391070    0.3264093666222112
     1.4973384620245722    0.2692527506059777    0.1216199144337014
     0.6673057645731818    0.0110092832457886    0.5333928290036261
     0.7272598831436416    0.2908338589030466    0.5761427534592914
     0.3930997830289419    0.7330750726781298    0.5191671799442850
     0.9591222307629783    0.7390684320904192    0.1579150113975973
     0.9126684499663981    0.4355242265166307    0.9302268082987427
     0.9217381566744368    0.2375979361848650    0.7630448665591975
     0.4092859492413847    0.4964108015621179   -0.0185524101919268
     0.8741228192221455    0.6223793668426860   -0.1469930619881537
     0.7044348750787999    0.6023196195566205   -0.1534871943840346
     0.7662886351800751    0.4526621283889877    0.2106191470942874
     0.9661658335564369    0.1733410211147590    0.5060575678823886
     1.0675024513035818    0.3192299794653014    0.9241996279907448
     0.7184316886417874    0.5567322982847016    0.7251535347403646
     0.7443962877200724    0.6335014511143958    1.2394711810667167
     0.7754372056082509    0.6275056973475969   -0.3385307785252578
     0.8871850789620492    1.1374720472520616    0.2185516114397026
     0.7668463998587729    0.9005291641641622   -0.1626436929080605
     0.9478439077342471    0.9338624583267062    0.5736473239543221
     1.0290599640452780    0.5619628583787063    0.4630571128856788
     0.3244555395494595    0.6458717669376380    0.8815453924057159
     0.8906586192823553    0.7401351486787949    0.9535140380803671
     1.0666344829963317    0.9455760698587702    0.9650040076420938
Lattice velocities and vectors
           1
  0.25427641E-02  0.14572592E-02 -0.83612275E-03
  0.23404642E-03  0.38139331E-02 -0.35344458E-02
 -0.32388456E-02  0.62133320E-02  0.29689916E-02
  0.30954951E+02 -0.30371624E-01  0.36758431E+01
  0.79401746E-13  0.34068733E+02  0.15362311E+01
  0.32060518E-12  0.56953801E-12  0.32863739E+02

 -0.45639947E-02  0.26896614E-02 -0.25385972E-01
 -0.44816187E-02  0.95879778E-02 -0.38007678E-02
 -0.15279202E-02  0.48489660E-02 -0.12064015E-01
  0.48607383E-02 -0.18247205E-01 -0.34720198E-04
  0.79031117E-02 -0.68581783E-02  0.64097357E-02
 -0.90624818E-02  0.10954602E-02  0.50723003E-02
  0.91038461E-02 -0.16129288E-01 -0.10401537E-01
 -0.11521220E-01  0.86249164E-02  0.11744767E-01
 -0.51911988E-02  0.51251643E-02 -0.10777723E-01
 -0.41495131E-02  0.46379341E-02  0.11888685E-01
 -0.20293103E-01 -0.79047025E-02 -0.38274611E-02
  0.43216281E-02 -0.46999445E-02 -0.14287615E-01
  0.13430463E-02 -0.27465081E-02 -0.60235881E-02
 -0.97118441E-04  0.87280883E-04  0.67682919E-02
 -0.59904788E-02 -0.23774676E-02  0.66939170E-02
 -0.89298125E-02  0.15965642E-01 -0.58148788E-02
  0.27982484E-02 -0.12029672E-03  0.54069080E-02
 -0.13484530E-02 -0.42690244E-02  0.26534035E-02
 -0.17539221E-01  0.12451508E-01  0.48539536E-02
 -0.26613603E-02 -0.53957426E-02  0.10673089E-01
  0.11113251E-01  0.20923952E-02  0.51378937E-02
  0.54270259E-02  0.10488206E-01 -0.46296599E-02
  0.10635721E-01  0.55642847E-02  0.68897434E-02
  0.19156909E-02 -0.34332337E-02  0.11953550E-01
  0.24615104E-02  0.57798190E-02  0.54949378E-02
 -0.14606710E-02 -0.38924826E-02  0.25935757E-01
  0.14673074E-02  0.37171317E-02  0.25249393E-02
 -0.23638067E-01  0.17836676E-01 -0.68256398E-02
 -0.50876105E-02 -0.12850472E-02  0.27094268E-03
 -0.37199180E-02 -0.19285071E-01 -0.82566979E-02
  0.42056416E-02 -0.19275404E-01  0.74593412E-02
  0.42965565E-02 -0.10070978E-02 -0.11869599E-01
 -0.13004358E-01  0.54395140E-02 -0.75793239E-02
  0.76603135E-02 -0.25774811E-02  0.98622054E-02
  0.16908559E-01 -0.43869135E-03 -0.23534996E-02
  0.49573935E-02 -0.32104431E-02 -0.11025977E-01
  0.40469147E-02 -0.49751779E-02  0.43314073E-03
  0.13096029E-01 -0.83023567E-02 -0.18275742E-02
  0.11048752E-01 -0.54245559E-02 -0.85896671E-02
  0.77558580E-02 -0.18592180E-02  0.15070003E-01
  0.10629859E-01 -0.89930571E-02  0.27571797E-01
  0.18145070E-01 -0.34426905E-02 -0.92525710E-02
  0.62638017E-02 -0.62191722E-02 -0.89537670E-03
  0.26611443E-02  0.87037695E-02  0.10643789E-02
 -0.96079453E-02  0.21140591E-01 -0.13365204E-01
 -0.19845793E-02 -0.15117636E-02  0.52488775E-02
  0.10415099E-01 -0.15670693E-02  0.16330460E-01
  0.24894901E-02  0.34118052E-02 -0.51103789E-02
  0.10117742E-01  0.21400538E-01 -0.39787586E-02
  0.31827013E-02  0.26063897E-02 -0.12539050E-01
 -0.85907077E-02  0.12353326E-01  0.37335584E-02
 -0.19635042E-02  0.40197625E-02  0.44688853E-02
  0.16654972E-01  0.10234075E-01  0.47870625E-02
 -0.42849383E-02  0.19405934E-02  0.65878408E-02
  0.12736490E-01 -0.89959080E-02 -0.62540341E-02
  0.50881159E-02 -0.97060610E-02 -0.97978329E-02
 -0.40419297E-02  0.67279340E-02 -0.20658599E-02
  0.76142280E-02  0.53774759E-02 -0.44728733E-02
 -0.62286369E-02  0.14955477E-01 -0.93929268E-03
  0.24992933E-02  0.15952951E-01 -0.60991851E-02
  0.11744445E-01 -0.89380918E-02 -0.22453203E-02
 -0.32945546E-02  0.85584611E-02 -0.82204631E-02
  0.70080054E-02  0.93333798E-02 -0.28248742E-01
  0.29768917E-02 -0.18258917E-01 -0.10365403E-02
 -0.25047694E-02 -0.20808656E-02 -0.78929186E-02
  0.50607920E-03 -0.13102098E-01  0.70998712E-02
 -0.11013455E-01  0.41173770E-02  0.87010282E-02
 -0.19299484E-02  0.97542557E-02  0.52319532E-02
  0.10167650E-02  0.10752324E-01 -0.12901169E-01
  0.14484380E-01 -0.57901007E-02  0.85319804E-02
  0.75701720E-02  0.75285325E-02 -0.22021191E-02
  0.44198213E-02 -0.74673862E-02 -0.62365892E-02
  0.14900299E-01  0.55557198E-02  0.48905667E-02
 -0.49603172E-02 -0.86805937E-02  0.50575090E-02
 -0.16509469E-01 -0.67491957E-02  0.25805011E-02
  0.10554195E-01  0.68137939E-02  0.49941937E-02
 -0.11753012E-01 -0.94274783E-02 -0.98126088E-02
 -0.14959732E-01 -0.81047056E-02 -0.52002794E-02
  0.12488405E-01  0.37520372E-02  0.13085838E-01
 -0.14214907E-01 -0.46060193E-02  0.11389570E-01
 -0.92025957E-02 -0.98579236E-02  0.30648667E-02
  0.11496338E-01  0.53360663E-03 -0.11093338E-01
 -0.16037511E-02  0.49619784E-02 -0.11941618E-01
 -0.23692109E-02 -0.94936623E-02  0.28650900E-02
  0.45890006E-03 -0.69811867E-02  0.85594738E-02
  0.64058951E-03  0.16005158E-01  0.11206246E-01
 -0.14944047E-02  0.58108947E-02  0.50236793E-02
 -0.55007917E-02  0.31672330E-02  0.33219349E-02
  0.54223691E-03  0.16820389E-03  0.47915985E-02
 -0.49479862E-03 -0.31041843E-02 -0.10939040E-01
  0.10238876E-01  0.17686963E-01 -0.56132732E-02
 -0.16770612E-01  0.76785908E-02  0.48575469E-03
  0.17044494E-02  0.34695577E-02  0.14352412E-03
  0.66209852E-03  0.59855070E-02 -0.11377552E-01
 -0.20710302E-02 -0.61420221E-02 -0.28499338E-02
  0.84469469E-03 -0.19470314E-02  0.13119485E-01
  0.14417513E-01  0.91812582E-02 -0.89334337E-02
 -0.41314552E-02  0.69342065E-02  0.39805158E-02
 -0.87429209E-02  0.97388645E-02  0.65529557E-02
 -0.41980121E-02  0.34119900E-02 -0.31518040E-02
 -0.13081594E-01 -0.41567650E-02  0.13811080E-01
  0.80923261E-02 -0.62570020E-02 -0.76636916E-02
 -0.73613037E-03 -0.21811613E-02  0.17778380E-02
  0.34951108E-03 -0.16462086E-01 -0.91341538E-03
  0.11587415E-01  0.16909382E-01  0.38617526E-02
  0.17471942E-01 -0.10360043E-01  0.29988820E-02
 -0.82311824E-02  0.43715655E-02  0.26818362E-01
  0.99670082E-03 -0.79695861E-02  0.13192198E-01
 -0.25457254E-02  0.87055433E-02  0.65852558E-02
 -0.81627551E-02 -0.43652602E-02  0.45510616E-02
 -0.94270029E-02  0.17492155E-01  0.21584947E-02
  0.47547911E-02 -0.34821318E-02 -0.17636949E-02
  0.21962995E-02  0.27581358E-02 -0.94400950E-03
  0.54587539E-02  0.60996667E-02  0.10104765E-01
  0.12320894E-01  0.75382330E-04 -0.10346396E-01
  0.11206897E-01  0.10598742E-01 -0.53809833E-02
 -0.63269906E-02 -0.16081491E-01  0.83797276E-02
  0.67702619E-02 -0.11505560E-01 -0.11262537E-02
  0.13434839E-01 -0.69164925E-02  0.43240670E-02
 -0.65431444E-02  0.17187748E-01  0.39711725E-02
 -0.60042761E-03 -0.34774306E-02  0.11130242E-01
  0.11299535E-02 -0.14344489E-01 -0.29210718E-02
 -0.13820844E-01  0.94243235E-02  0.12250438E-01
 -0.39685202E-02  0.43743519E-02  0.15230659E-01
  0.11955592E-01 -0.90088055E-02  0.48567552E-02
 -0.10750355E-01 -0.10417742E-01 -0.36855520E-02
 -0.11301867E-01  0.16305742E-01 -0.24750661E-02
  0.54091546E-02  0.17446784E-02 -0.30616680E-02

           1
   2.0000000000000000     
  0.10000000E+01  0.00000000E+00  0.00000000E+00  0.00000000E+00
  0.28707434E+00  0.53655470E+00  0.75790614E+00
  0.28933786E+00  0.20281579E+00  0.81360519E+00
  0.19564357E+00  0.27033016E+00  0.24261090E+00
  0.10301603E+00  0.12684536E+00  0.62266856E+00
  0.48396535E-01  0.35427774E-02  0.31885278E+00
  0.12891761E+00  0.23312586E+00  0.41769165E+00
  0.30798153E+00  0.19147882E-01  0.85321641E+00
  0.99885295E-01  0.83941499E+00  0.34238136E+00
  0.79019795E+00  0.88644108E-01  0.15938309E+00
  0.41255606E-01  0.50626504E+00  0.88814325E+00
  0.89265187E+00  0.38538809E+00  0.25643061E+00
  0.16250114E+00  0.45010138E+00  0.13283006E+00
  0.23026456E+00  0.16938719E+00  0.51709552E+00
  0.14163775E+00  0.76270356E+00  0.59911921E+00
  0.41528338E+00  0.38329832E+00  0.48784618E-01
  0.55594047E-01  0.64016916E+00  0.99019904E+00
  0.77825504E+00  0.23188847E+00  0.41091361E+00
  0.19447567E+00  0.46094483E+00  0.94443833E-02
  0.88885062E+00  0.51850815E+00  0.37943200E+00
  0.97509045E+00  0.29817632E+00  0.81193460E-01
  0.50835340E-01  0.13329376E+00  0.30926721E+00
  0.15037552E+00  0.63133995E+00  0.17868157E+00
  0.24595181E+00  0.26160776E+00  0.59798687E+00
  0.99654119E+00  0.76420376E+00  0.51171243E+00
  0.27770815E+00  0.15177698E+00  0.89159838E+00
  0.39690610E-01  0.64521196E+00  0.19108575E+00
  0.97857014E+00  0.66593336E+00  0.93068492E+00
  0.89201733E+00  0.99885532E+00  0.70616472E+00
  0.23750745E+00  0.96737422E+00  0.85380442E+00
  0.10102067E+00  0.66430676E+00  0.67833456E+00
  0.44286001E+00  0.89114738E+00  0.64963976E+00
  0.66580850E+00  0.85982977E-01  0.70871071E+00
  0.56775525E+00  0.18505159E+00  0.78736488E+00
  0.55235101E+00  0.92574319E+00  0.12573338E+00
  0.82135020E+00  0.70738137E+00  0.14959213E+00
  0.77762605E+00  0.17721992E+00  0.19740167E+00
  0.73232156E+00  0.89430486E+00  0.49386246E+00
  0.54049047E+00  0.79862294E+00  0.58849603E+00
  0.36792494E+00  0.96994850E+00  0.16672910E+00
  0.68957284E+00  0.26634121E+00  0.14470979E+00
  0.19081670E+00  0.19844601E+00  0.17196393E+00
  0.84736981E+00  0.55588280E+00  0.26415493E+00
  0.23651689E+00  0.28290576E+00  0.41047367E+00
  0.52443474E+00  0.31228133E+00  0.42500585E+00
  0.36368705E+00  0.22351841E+00  0.43296634E+00
  0.57198709E+00  0.31991415E+00  0.78067610E+00
  0.52688723E+00  0.13666947E+00  0.24095981E+00
  0.38468693E+00  0.56753291E+00  0.92275231E+00
  0.17243691E+00  0.56100437E+00  0.71482243E+00
  0.78548710E+00  0.79830647E+00  0.37965911E-01
  0.58549604E+00  0.30710620E+00  0.16623713E+00
  0.57455090E-01  0.33431860E+00  0.74361492E+00
  0.99178279E+00  0.99055225E+00  0.19580475E+00
  0.57860413E+00  0.56980874E+00  0.88899569E+00
  0.61666618E-01  0.59808957E+00  0.89161020E+00
  0.34963503E+00  0.95616775E+00  0.77438833E+00
  0.86398876E+00  0.98642096E+00  0.14735789E+00
  0.46297860E+00  0.67903551E+00  0.26766992E+00
  0.26041226E+00  0.73799774E+00  0.41656386E+00
  0.34457604E+00  0.85601688E+00  0.47271691E+00
  0.14224212E+00  0.61717240E+00  0.40016412E+00
  0.20562895E+00  0.14558192E+00  0.73366991E+00
  0.50667849E+00  0.74775928E+00  0.52150876E+00
  0.18855105E+00  0.84072524E+00  0.95216460E+00
  0.71003163E+00  0.10737311E-01  0.30254552E+00
  0.23773528E+00  0.97728973E+00  0.17693592E+00
  0.28905376E+00  0.40165566E-01  0.41661858E+00
  0.40001752E+00  0.19964411E+00  0.51600476E+00
  0.35771072E+00  0.10171693E+00  0.69695876E+00
  0.80472744E+00  0.33197008E+00  0.85929368E+00
  0.47278145E+00  0.82097495E+00  0.70227696E+00
  0.73148848E+00  0.15249933E+00  0.91050512E+00
  0.62531719E+00  0.22666828E+00  0.87728750E+00
  0.50135549E+00  0.49543668E+00  0.15106072E+00
  0.62152188E+00  0.54111082E+00  0.29242535E+00
  0.86246217E+00  0.67058264E+00  0.23320255E+00
  0.44832238E+00  0.30071278E+00  0.71212870E+00
  0.56578048E+00  0.66029298E+00  0.63582127E+00
  0.30723421E+00  0.70026566E+00  0.13816825E+00
  0.81480260E+00  0.59068245E+00  0.78443516E+00
  0.45788557E+00  0.53237167E+00  0.75722527E+00
  0.66253385E+00  0.68277008E+00  0.17030486E+00
  0.55261967E+00  0.95229037E-01  0.53005417E+00
  0.79456705E+00  0.70797712E+00  0.43221797E+00
  0.41960458E+00  0.37055033E+00  0.26126793E+00
  0.58563768E+00  0.68704738E+00  0.82477860E+00
  0.39159777E+00  0.65375849E+00  0.73771285E+00
  0.60455384E+00  0.55449600E+00  0.10886783E+00
  0.42599324E+00  0.66864933E+00  0.85277471E+00
  0.60489655E+00  0.86069747E+00  0.87709038E+00
  0.51506772E+00  0.77338808E+00  0.15104286E+00
  0.75558390E+00  0.59413048E-01  0.55784087E+00
  0.61256571E+00  0.68227470E+00  0.71395882E+00
  0.79648080E+00  0.83981073E+00  0.91984602E+00
  0.54797648E+00  0.56219253E-01  0.68230903E+00
  0.11428612E+00  0.68468401E+00  0.84984409E+00
  0.72118190E+00  0.99974769E-02  0.86445061E+00
  0.76790781E+00  0.19796296E+00  0.75265863E+00
  0.64919091E+00  0.87510271E+00  0.53873541E-01
  0.39157952E-01  0.42947177E+00  0.65321302E+00
  0.68992313E+00  0.44674809E+00  0.27986523E+00
  0.59956973E+00  0.70716163E+00  0.43236110E+00
  0.76585552E+00  0.77497630E+00  0.56728127E+00
  0.95165619E+00  0.81229851E+00  0.37961467E-03
  0.33566451E+00  0.46565342E+00  0.32651421E+00
  0.49846732E+00  0.26864557E+00  0.12170454E+00
  0.66677395E+00  0.11265441E-01  0.53507243E+00
  0.72732428E+00  0.29036606E+00  0.57696026E+00
  0.39293530E+00  0.73358598E+00  0.51956246E+00
  0.95859484E+00  0.73881170E+00  0.15826297E+00
  0.91205937E+00  0.43655056E+00  0.93037832E+00
  0.92204536E+00  0.23739379E+00  0.76291271E+00
  0.40942785E+00  0.49657284E+00  0.98136669E+00
  0.87447551E+00  0.62273776E+00  0.85356569E+00
  0.70523093E+00  0.60232475E+00  0.84579387E+00
  0.76701271E+00  0.45328497E+00  0.21018157E+00
  0.96575705E+00  0.17239660E+00  0.50665741E+00
  0.67939878E-01  0.31855494E+00  0.92411372E+00
  0.71929971E+00  0.55632704E+00  0.72533854E+00
  0.74397354E+00  0.63451008E+00  0.23971299E+00
  0.77539841E+00  0.62730152E+00  0.66216046E+00
  0.88725809E+00  0.13663002E+00  0.21840504E+00
  0.76595343E+00  0.90108162E+00  0.83817589E+00
  0.94758750E+00  0.93411903E+00  0.57459091E+00
  0.29832415E-01  0.56143469E+00  0.46329097E+00
  0.32376096E+00  0.64525958E+00  0.88142741E+00
  0.88992841E+00  0.74109172E+00  0.95340037E+00
  0.66983969E-01  0.94567880E+00  0.96477379E+00
  0.00000000E+00  0.00000000E+00  0.00000000E+00
  0.00000000E+00  0.00000000E+00  0.00000000E+00
  0.00000000E+00  0.00000000E+00  0.00000000E+00
  0.00000000E+00  0.00000000E+00  0.00000000E+00
  0.00000000E+00  0.00000000E+00  0.00000000E+00
  0.00000000E+00  0.00000000E+00  0.00000000E+00
  0.00000000E+00  0.00000000E+00  0.00000000E+00
  0.00000000E+00  0.00000000E+00  0.00000000E+00
  0.00000000E+00  0.00000000E+00  0.00000000E+00
  0.00000000E+00  0.00000000E+00  0.00000000E+00
  0.00000000E+00  0.00000000E+00  0.00000000E+00
  0.00000000E+00  0.00000000E+00  0.00000000E+00
  0.00000000E+00  0.00000000E+00  0.00000000E+00
  0.00000000E+00  0.00000000E+00  0.00000000E+00
  0.00000000E+00  0.00000000E+00  0.00000000E+00
  0.00000000E+00  0.00000000E+00  0.00000000E+00
  0.00000000E+00  0.00000000E+00  0.00000000E+00
  0.00000000E+00  0.00000000E+00  0.00000000E+00
  0.00000000E+00  0.00000000E+00  0.00000000E+00
  0.00000000E+00  0.00000000E+00  0.00000000E+00
  0.00000000E+00  0.00000000E+00  0.00000000E+00
  0.00000000E+00  0.00000000E+00  0.00000000E+00
  0.00000000E+00  0.00000000E+00  0.00000000E+00
  0.00000000E+00  0.00000000E+00  0.00000000E+00
  0.00000000E+00  0.00000000E+00  0.00000000E+00
  0.00000000E+00  0.00000000E+00  0.00000000E+00
  0.00000000E+00  0.00000000E+00  0.00000000E+00
  0.00000000E+00  0.00000000E+00  0.00000000E+00
  0.00000000E+00  0.00000000E+00  0.00000000E+00
  0.00000000E+00  0.00000000E+00  0.00000000E+00
  0.00000000E+00  0.00000000E+00  0.00000000E+00
  0.00000000E+00  0.00000000E+00  0.00000000E+00
  0.00000000E+00  0.00000000E+00  0.00000000E+00
  0.00000000E+00  0.00000000E+00  0.00000000E+00
  0.00000000E+00  0.00000000E+00  0.00000000E+00
  0.00000000E+00  0.00000000E+00  0.00000000E+00
  0.00000000E+00  0.00000000E+00  0.00000000E+00
  0.00000000E+00  0.00000000E+00  0.00000000E+00
  0.00000000E+00  0.00000000E+00  0.00000000E+00
  0.00000000E+00  0.00000000E+00  0.00000000E+00
  0.00000000E+00  0.00000000E+00  0.00000000E+00
  0.00000000E+00  0.00000000E+00  0.00000000E+00
  0.00000000E+00  0.00000000E+00  0.00000000E+00
  0.00000000E+00  0.00000000E+00  0.00000000E+00
  0.00000000E+00  0.00000000E+00  0.00000000E+00
  0.00000000E+00  0.00000000E+00  0.00000000E+00
  0.00000000E+00  0.00000000E+00  0.00000000E+00
  0.00000000E+00  0.00000000E+00  0.00000000E+00
  0.00000000E+00  0.00000000E+00  0.00000000E+00
  0.00000000E+00  0.00000000E+00  0.00000000E+00
  0.00000000E+00  0.00000000E+00  0.00000000E+00
  0.00000000E+00  0.00000000E+00  0.00000000E+00
  0.00000000E+00  0.00000000E+00  0.00000000E+00
  0.00000000E+00  0.00000000E+00  0.00000000E+00
  0.00000000E+00  0.00000000E+00  0.00000000E+00
  0.00000000E+00  0.00000000E+00  0.00000000E+00
  0.00000000E+00  0.00000000E+00  0.00000000E+00
  0.00000000E+00  0.00000000E+00  0.00000000E+00
  0.00000000E+00  0.00000000E+00  0.00000000E+00
  0.00000000E+00  0.00000000E+00  0.00000000E+00
  0.00000000E+00  0.00000000E+00  0.00000000E+00
  0.00000000E+00  0.00000000E+00  0.00000000E+00
  0.00000000E+00  0.00000000E+00  0.00000000E+00
  0.00000000E+00  0.00000000E+00  0.00000000E+00
  0.00000000E+00  0.00000000E+00  0.00000000E+00
  0.00000000E+00  0.00000000E+00  0.00000000E+00
  0.00000000E+00  0.00000000E+00  0.00000000E+00
  0.00000000E+00  0.00000000E+00  0.00000000E+00
  0.00000000E+00  0.00000000E+00  0.00000000E+00
  0.00000000E+00  0.00000000E+00  0.00000000E+00
  0.00000000E+00  0.00000000E+00  0.00000000E+00
  0.00000000E+00  0.00000000E+00  0.00000000E+00
  0.00000000E+00  0.00000000E+00  0.00000000E+00
  0.00000000E+00  0.00000000E+00  0.00000000E+00
  0.00000000E+00  0.00000000E+00  0.00000000E+00
  0.00000000E+00  0.00000000E+00  0.00000000E+00
  0.00000000E+00  0.00000000E+00  0.00000000E+00
  0.00000000E+00  0.00000000E+00  0.00000000E+00
  0.00000000E+00  0.00000000E+00  0.00000000E+00
  0.00000000E+00  0.00000000E+00  0.00000000E+00
  0.00000000E+00  0.00000000E+00  0.00000000E+00
  0.00000000E+00  0.00000000E+00  0.00000000E+00
  0.00000000E+00  0.00000000E+00  0.00000000E+00
  0.00000000E+00  0.00000000E+00  0.00000000E+00
  0.00000000E+00  0.00000000E+00  0.00000000E+00
  0.00000000E+00  0.00000000E+00  0.00000000E+00
  0.00000000E+00  0.00000000E+00  0.00000000E+00
  0.00000000E+00  0.00000000E+00  0.00000000E+00
  0.00000000E+00  0.00000000E+00  0.00000000E+00
  0.00000000E+00  0.00000000E+00  0.00000000E+00
  0.00000000E+00  0.00000000E+00  0.00000000E+00
  0.00000000E+00  0.00000000E+00  0.00000000E+00
  0.00000000E+00  0.00000000E+00  0.00000000E+00
  0.00000000E+00  0.00000000E+00  0.00000000E+00
  0.00000000E+00  0.00000000E+00  0.00000000E+00
  0.00000000E+00  0.00000000E+00  0.00000000E+00
  0.00000000E+00  0.00000000E+00  0.00000000E+00
  0.00000000E+00  0.00000000E+00  0.00000000E+00
  0.00000000E+00  0.00000000E+00  0.00000000E+00
  0.00000000E+00  0.00000000E+00  0.00000000E+00
  0.00000000E+00  0.00000000E+00  0.00000000E+00
  0.00000000E+00  0.00000000E+00  0.00000000E+00
  0.00000000E+00  0.00000000E+00  0.00000000E+00
  0.00000000E+00  0.00000000E+00  0.00000000E+00
  0.00000000E+00  0.00000000E+00  0.00000000E+00
  0.00000000E+00  0.00000000E+00  0.00000000E+00
  0.00000000E+00  0.00000000E+00  0.00000000E+00
  0.00000000E+00  0.00000000E+00  0.00000000E+00
  0.00000000E+00  0.00000000E+00  0.00000000E+00
  0.00000000E+00  0.00000000E+00  0.00000000E+00
  0.00000000E+00  0.00000000E+00  0.00000000E+00
  0.00000000E+00  0.00000000E+00  0.00000000E+00
  0.00000000E+00  0.00000000E+00  0.00000000E+00
  0.00000000E+00  0.00000000E+00  0.00000000E+00
  0.00000000E+00  0.00000000E+00  0.00000000E+00
  0.00000000E+00  0.00000000E+00  0.00000000E+00
  0.00000000E+00  0.00000000E+00  0.00000000E+00
  0.00000000E+00  0.00000000E+00  0.00000000E+00
  0.00000000E+00  0.00000000E+00  0.00000000E+00
  0.00000000E+00  0.00000000E+00  0.00000000E+00
  0.00000000E+00  0.00000000E+00  0.00000000E+00
  0.00000000E+00  0.00000000E+00  0.00000000E+00
  0.00000000E+00  0.00000000E+00  0.00000000E+00
  0.00000000E+00  0.00000000E+00  0.00000000E+00
  0.00000000E+00  0.00000000E+00  0.00000000E+00
  0.00000000E+00  0.00000000E+00  0.00000000E+00
  0.00000000E+00  0.00000000E+00  0.00000000E+00
  0.00000000E+00  0.00000000E+00  0.00000000E+00
  0.00000000E+00  0.00000000E+00  0.00000000E+00
  0.00000000E+00  0.00000000E+00  0.00000000E+00
  0.00000000E+00  0.00000000E+00  0.00000000E+00
  0.00000000E+00  0.00000000E+00  0.00000000E+00
  0.00000000E+00  0.00000000E+00  0.00000000E+00
  0.00000000E+00  0.00000000E+00  0.00000000E+00
  0.00000000E+00  0.00000000E+00  0.00000000E+00
  0.00000000E+00  0.00000000E+00  0.00000000E+00
  0.00000000E+00  0.00000000E+00  0.00000000E+00
  0.00000000E+00  0.00000000E+00  0.00000000E+00
  0.00000000E+00  0.00000000E+00  0.00000000E+00
  0.00000000E+00  0.00000000E+00  0.00000000E+00
  0.00000000E+00  0.00000000E+00  0.00000000E+00
  0.00000000E+00  0.00000000E+00  0.00000000E+00
  0.00000000E+00  0.00000000E+00  0.00000000E+00
  0.00000000E+00  0.00000000E+00  0.00000000E+00
  0.00000000E+00  0.00000000E+00  0.00000000E+00
  0.00000000E+00  0.00000000E+00  0.00000000E+00
  0.00000000E+00  0.00000000E+00  0.00000000E+00
  0.00000000E+00  0.00000000E+00  0.00000000E+00
  0.00000000E+00  0.00000000E+00  0.00000000E+00
  0.00000000E+00  0.00000000E+00  0.00000000E+00
  0.00000000E+00  0.00000000E+00  0.00000000E+00
  0.00000000E+00  0.00000000E+00  0.00000000E+00
  0.00000000E+00  0.00000000E+00  0.00000000E+00
  0.00000000E+00  0.00000000E+00  0.00000000E+00
  0.00000000E+00  0.00000000E+00  0.00000000E+00
  0.00000000E+00  0.00000000E+00  0.00000000E+00
  0.00000000E+00  0.00000000E+00  0.00000000E+00
  0.00000000E+00  0.00000000E+00  0.00000000E+00
  0.00000000E+00  0.00000000E+00  0.00000000E+00
  0.00000000E+00  0.00000000E+00  0.00000000E+00
  0.00000000E+00  0.00000000E+00  0.00000000E+00
  0.00000000E+00  0.00000000E+00  0.00000000E+00
  0.00000000E+00  0.00000000E+00  0.00000000E+00
  0.00000000E+00  0.00000000E+00  0.00000000E+00
  0.00000000E+00  0.00000000E+00  0.00000000E+00
  0.00000000E+00  0.00000000E+00  0.00000000E+00
  0.00000000E+00  0.00000000E+00  0.00000000E+00
  0.00000000E+00  0.00000000E+00  0.00000000E+00
  0.00000000E+00  0.00000000E+00  0.00000000E+00
  0.00000000E+00  0.00000000E+00  0.00000000E+00
  0.00000000E+00  0.00000000E+00  0.00000000E+00
  0.00000000E+00  0.00000000E+00  0.00000000E+00
  0.00000000E+00  0.00000000E+00  0.00000000E+00
  0.00000000E+00  0.00000000E+00  0.00000000E+00
  0.00000000E+00  0.00000000E+00  0.00000000E+00
  0.00000000E+00  0.00000000E+00  0.00000000E+00
  0.00000000E+00  0.00000000E+00  0.00000000E+00
  0.00000000E+00  0.00000000E+00  0.00000000E+00
  0.00000000E+00  0.00000000E+00  0.00000000E+00
  0.00000000E+00  0.00000000E+00  0.00000000E+00
  0.00000000E+00  0.00000000E+00  0.00000000E+00
  0.00000000E+00  0.00000000E+00  0.00000000E+00
  0.00000000E+00  0.00000000E+00  0.00000000E+00
  0.00000000E+00  0.00000000E+00  0.00000000E+00
  0.00000000E+00  0.00000000E+00  0.00000000E+00
  0.00000000E+00  0.00000000E+00  0.00000000E+00
  0.00000000E+00  0.00000000E+00  0.00000000E+00
  0.00000000E+00  0.00000000E+00  0.00000000E+00
  0.00000000E+00  0.00000000E+00  0.00000000E+00
  0.00000000E+00  0.00000000E+00  0.00000000E+00
  0.00000000E+00  0.00000000E+00  0.00000000E+00
  0.00000000E+00  0.00000000E+00  0.00000000E+00
  0.00000000E+00  0.00000000E+00  0.00000000E+00
  0.00000000E+00  0.00000000E+00  0.00000000E+00
  0.00000000E+00  0.00000000E+00  0.00000000E+00
  0.00000000E+00  0.00000000E+00  0.00000000E+00
  0.00000000E+00  0.00000000E+00  0.00000000E+00
  0.00000000E+00  0.00000000E+00  0.00000000E+00
  0.00000000E+00  0.00000000E+00  0.00000000E+00
  0.00000000E+00  0.00000000E+00  0.00000000E+00
  0.00000000E+00  0.00000000E+00  0.00000000E+00
  0.00000000E+00  0.00000000E+00  0.00000000E+00
  0.00000000E+00  0.00000000E+00  0.00000000E+00
  0.00000000E+00  0.00000000E+00  0.00000000E+00
  0.00000000E+00  0.00000000E+00  0.00000000E+00
  0.00000000E+00  0.00000000E+00  0.00000000E+00
  0.00000000E+00  0.00000000E+00  0.00000000E+00
  0.00000000E+00  0.00000000E+00  0.00000000E+00
  0.00000000E+00  0.00000000E+00  0.00000000E+00
  0.00000000E+00  0.00000000E+00  0.00000000E+00
  0.00000000E+00  0.00000000E+00  0.00000000E+00
  0.00000000E+00  0.00000000E+00  0.00000000E+00
  0.00000000E+00  0.00000000E+00  0.00000000E+00
  0.00000000E+00  0.00000000E+00  0.00000000E+00
  0.00000000E+00  0.00000000E+00  0.00000000E+00
  0.00000000E+00  0.00000000E+00  0.00000000E+00
  0.00000000E+00  0.00000000E+00  0.00000000E+00
  0.00000000E+00  0.00000000E+00  0.00000000E+00
  0.00000000E+00  0.00000000E+00  0.00000000E+00
  0.00000000E+00  0.00000000E+00  0.00000000E+00
  0.00000000E+00  0.00000000E+00  0.00000000E+00
  0.00000000E+00  0.00000000E+00  0.00000000E+00
  0.00000000E+00  0.00000000E+00  0.00000000E+00
  0.00000000E+00  0.00000000E+00  0.00000000E+00
  0.00000000E+00  0.00000000E+00  0.00000000E+00
  0.00000000E+00  0.00000000E+00  0.00000000E+00
  0.00000000E+00  0.00000000E+00  0.00000000E+00
  0.00000000E+00  0.00000000E+00  0.00000000E+00
  0.00000000E+00  0.00000000E+00  0.00000000E+00
  0.00000000E+00  0.00000000E+00  0.00000000E+00
  0.00000000E+00  0.00000000E+00  0.00000000E+00
  0.00000000E+00  0.00000000E+00  0.00000000E+00
  0.00000000E+00  0.00000000E+00  0.00000000E+00
  0.00000000E+00  0.00000000E+00  0.00000000E+00
  0.00000000E+00  0.00000000E+00  0.00000000E+00
  0.00000000E+00  0.00000000E+00  0.00000000E+00
  0.00000000E+00  0.00000000E+00  0.00000000E+00
  0.00000000E+00  0.00000000E+00  0.00000000E+00
  0.00000000E+00  0.00000000E+00  0.00000000E+00
  0.00000000E+00  0.00000000E+00  0.00000000E+00
  0.00000000E+00  0.00000000E+00  0.00000000E+00
  0.00000000E+00  0.00000000E+00  0.00000000E+00
  0.00000000E+00  0.00000000E+00  0.00000000E+00
  0.00000000E+00  0.00000000E+00  0.00000000E+00
  0.00000000E+00  0.00000000E+00  0.00000000E+00
  0.00000000E+00  0.00000000E+00  0.00000000E+00
  0.00000000E+00  0.00000000E+00  0.00000000E+00
  0.00000000E+00  0.00000000E+00  0.00000000E+00
  0.00000000E+00  0.00000000E+00  0.00000000E+00
  0.00000000E+00  0.00000000E+00  0.00000000E+00
  0.00000000E+00  0.00000000E+00  0.00000000E+00
  0.00000000E+00  0.00000000E+00  0.00000000E+00
  0.00000000E+00  0.00000000E+00  0.00000000E+00
  0.00000000E+00  0.00000000E+00  0.00000000E+00
  0.00000000E+00  0.00000000E+00  0.00000000E+00
  0.00000000E+00  0.00000000E+00  0.00000000E+00
