       N       E                     dE             d eps       ncg     rms          rms(c)
RMM:   1     0.851678645366E+01    0.85168E+01   -0.80607E+03   129   0.145E+02
RMM:   2    -0.160861906595E+03   -0.16938E+03   -0.14776E+03   129   0.345E+01
RMM:   3    -0.211305874836E+03   -0.50444E+02   -0.42540E+02   129   0.165E+01
RMM:   4    -0.230204236064E+03   -0.18898E+02   -0.11227E+02   129   0.994E+00
RMM:   5    -0.235607176342E+03   -0.54029E+01   -0.30700E+01   129   0.457E+00
RMM:   6    -0.237665075641E+03   -0.20579E+01   -0.12416E+01   129   0.267E+00
RMM:   7    -0.238251233295E+03   -0.58616E+00   -0.41264E+00   128   0.148E+00
RMM:   8    -0.238468072772E+03   -0.21684E+00   -0.15141E+00   123   0.862E-01
RMM:   9    -0.238557123657E+03   -0.89051E-01   -0.60454E-01   221   0.505E-01
RMM:  10    -0.238593152048E+03   -0.36028E-01   -0.28372E-01   207   0.279E-01
RMM:  11    -0.238600284158E+03   -0.71321E-02   -0.46457E-02   185   0.130E-01
RMM:  12    -0.238601464481E+03   -0.11803E-02   -0.10884E-02   160   0.670E-02    0.162E+00
RMM:  13    -0.238459914265E+03    0.14155E+00   -0.69073E-03   180   0.114E-01    0.106E+00
RMM:  14    -0.238365339866E+03    0.94574E-01   -0.13248E-02   219   0.175E-01    0.479E-02
RMM:  15    -0.238364236852E+03    0.11030E-02   -0.11543E-03   176   0.502E-02
      1 T=   580. E= -.22854704E+03 F= -.23836424E+03 E0= -.23818038E+03  EK= 0.98172E+01 SP= 0.00E+00 SK= 0.00E+00
       N       E                     dE             d eps       ncg     rms          rms(c)
RMM:   1    -0.238368535059E+03   -0.31952E-02   -0.23658E+00   258   0.232E+00    0.694E-01
RMM:   2    -0.238365907644E+03    0.26274E-02   -0.29141E-01   258   0.839E-01    0.535E-01
RMM:   3    -0.238349227982E+03    0.16680E-01   -0.56106E-02   258   0.365E-01    0.169E-01
RMM:   4    -0.238348316574E+03    0.91141E-03   -0.12852E-02   241   0.164E-01
      2 T=   574. E= -.22863675E+03 F= -.23834832E+03 E0= -.23816792E+03  EK= 0.97116E+01 SP= 0.00E+00 SK= 0.00E+00
       N       E                     dE             d eps       ncg     rms          rms(c)
RMM:   1    -0.238308184851E+03    0.41043E-01   -0.24191E+00   258   0.236E+00    0.685E-01
RMM:   2    -0.238305404046E+03    0.27808E-02   -0.30060E-01   258   0.859E-01    0.510E-01
RMM:   3    -0.238291219974E+03    0.14184E-01   -0.58135E-02   258   0.374E-01    0.182E-01
RMM:   4    -0.238290158633E+03    0.10613E-02   -0.13757E-02   242   0.169E-01
      3 T=   578. E= -.22850448E+03 F= -.23829016E+03 E0= -.23811967E+03  EK= 0.97857E+01 SP= 0.00E+00 SK= 0.00E+00
       N       E                     dE             d eps       ncg     rms          rms(c)
RMM:   1    -0.238178501463E+03    0.11272E+00   -0.24337E+00   258   0.238E+00    0.686E-01
RMM:   2    -0.238177648971E+03    0.85249E-03   -0.30615E-01   258   0.866E-01    0.523E-01
RMM:   3    -0.238161999628E+03    0.15649E-01   -0.58406E-02   258   0.376E-01    0.179E-01
RMM:   4    -0.238161030298E+03    0.96933E-03   -0.13958E-02   243   0.171E-01
      4 T=   561. E= -.22866973E+03 F= -.23816103E+03 E0= -.23800618E+03  EK= 0.94913E+01 SP= 0.00E+00 SK= 0.00E+00
       N       E                     dE             d eps       ncg     rms          rms(c)
RMM:   1    -0.237970001162E+03    0.19200E+00   -0.22629E+00   258   0.230E+00    0.641E-01
RMM:   2    -0.237968561154E+03    0.14400E-02   -0.28245E-01   258   0.837E-01    0.469E-01
RMM:   3    -0.237956106386E+03    0.12455E-01   -0.53174E-02   257   0.362E-01    0.170E-01
RMM:   4    -0.237955234424E+03    0.87196E-03   -0.12634E-02   235   0.163E-01
      5 T=   537. E= -.22885719E+03 F= -.23795523E+03 E0= -.23781902E+03  EK= 0.90980E+01 SP= 0.00E+00 SK= 0.00E+00
       N       E                     dE             d eps       ncg     rms          rms(c)
RMM:   1    -0.237649605528E+03    0.30650E+00   -0.22649E+00   258   0.230E+00    0.623E-01
RMM:   2    -0.237646680291E+03    0.29252E-02   -0.27641E-01   258   0.831E-01    0.434E-01
RMM:   3    -0.237636277227E+03    0.10403E-01   -0.51467E-02   257   0.360E-01    0.169E-01
RMM:   4    -0.237635259312E+03    0.10179E-02   -0.12293E-02   232   0.161E-01
      6 T=   514. E= -.22893789E+03 F= -.23763526E+03 E0= -.23751858E+03  EK= 0.86974E+01 SP= 0.00E+00 SK= 0.00E+00
       N       E                     dE             d eps       ncg     rms          rms(c)
RMM:   1    -0.237239249952E+03    0.39703E+00   -0.20790E+00   258   0.221E+00    0.565E-01
RMM:   2    -0.237238419315E+03    0.83064E-03   -0.25491E-01   258   0.804E-01    0.376E-01
RMM:   3    -0.237230868651E+03    0.75507E-02   -0.46725E-02   257   0.345E-01    0.157E-01
RMM:   4    -0.237230013701E+03    0.85495E-03   -0.11091E-02   213   0.154E-01
      7 T=   484. E= -.22904118E+03 F= -.23723001E+03 E0= -.23713239E+03  EK= 0.81888E+01 SP= 0.00E+00 SK= 0.00E+00
       N       E                     dE             d eps       ncg     rms          rms(c)
RMM:   1    -0.236743019927E+03    0.48785E+00   -0.19993E+00   258   0.216E+00    0.544E-01
RMM:   2    -0.236742799558E+03    0.22037E-03   -0.24788E-01   258   0.793E-01    0.354E-01
RMM:   3    -0.236736259499E+03    0.65401E-02   -0.44878E-02   257   0.339E-01    0.150E-01
RMM:   4    -0.236735528904E+03    0.73059E-03   -0.10569E-02   192   0.151E-01
      8 T=   458. E= -.22897970E+03 F= -.23673553E+03 E0= -.23665580E+03  EK= 0.77558E+01 SP= 0.00E+00 SK= 0.00E+00
       N       E                     dE             d eps       ncg     rms          rms(c)
RMM:   1    -0.236177097753E+03    0.55916E+00   -0.18434E+00   258   0.208E+00    0.487E-01
RMM:   2    -0.236178933257E+03   -0.18355E-02   -0.22956E-01   258   0.768E-01    0.301E-01
RMM:   3    -0.236174737094E+03    0.41962E-02   -0.40811E-02   257   0.325E-01
      9 T=   429. E= -.22891513E+03 F= -.23617474E+03 E0= -.23611060E+03  EK= 0.72596E+01 SP= 0.00E+00 SK= 0.00E+00
       N       E                     dE             d eps       ncg     rms          rms(c)
RMM:   1    -0.235580522524E+03    0.59841E+00   -0.17739E+00   258   0.207E+00    0.477E-01
RMM:   2    -0.235580573894E+03   -0.51370E-04   -0.22211E-01   258   0.758E-01    0.264E-01
RMM:   3    -0.235578554554E+03    0.20193E-02   -0.40477E-02   257   0.322E-01
     10 T=   408. E= -.22866952E+03 F= -.23557855E+03 E0= -.23552541E+03  EK= 0.69090E+01 SP= 0.00E+00 SK= 0.00E+00
       N       E                     dE             d eps       ncg     rms          rms(c)
RMM:   1    -0.234949048643E+03    0.63153E+00   -0.16898E+00   258   0.201E+00    0.451E-01
RMM:   2    -0.234949333633E+03   -0.28499E-03   -0.21193E-01   258   0.743E-01    0.239E-01
RMM:   3    -0.234948249595E+03    0.10840E-02   -0.38691E-02   257   0.315E-01
     11 T=   382. E= -.22847469E+03 F= -.23494825E+03 E0= -.23490385E+03  EK= 0.64736E+01 SP= 0.00E+00 SK= 0.00E+00
       N       E                     dE             d eps       ncg     rms          rms(c)
RMM:   1    -0.234351802715E+03    0.59753E+00   -0.15616E+00   258   0.194E+00    0.411E-01
RMM:   2    -0.234354378756E+03   -0.25760E-02   -0.19664E-01   258   0.719E-01    0.215E-01
RMM:   3    -0.234354006551E+03    0.37221E-03   -0.35427E-02   257   0.301E-01
     12 T=   349. E= -.22843949E+03 F= -.23435401E+03 E0= -.23431651E+03  EK= 0.59145E+01 SP= 0.00E+00 SK= 0.00E+00
     13 T=   327. E= -.22813284E+03 F= -.23367052E+03 E0= -.23367052E+03  EK= 0.55377E+01 SP= 0.00E+00 SK= 0.00E+00
       N       E                     dE             d eps       ncg     rms          rms(c)
RMM:   1    -0.233369197202E+03    0.98518E+00   -0.53533E+00   129   0.352E+00
RMM:   2    -0.233422490237E+03   -0.53293E-01   -0.60668E-01   129   0.121E+00
RMM:   3    -0.233432514265E+03   -0.10024E-01   -0.97646E-02   129   0.488E-01
RMM:   4    -0.233437791088E+03   -0.52768E-02   -0.52362E-02   257   0.616E-01
RMM:   5    -0.233438345152E+03   -0.55406E-03   -0.54692E-03   178   0.135E-01    0.760E-01
RMM:   6    -0.233384134724E+03    0.54210E-01   -0.99465E-02   299   0.222E-01    0.382E-01
RMM:   7    -0.233371696755E+03    0.12438E-01   -0.14432E-02   232   0.108E-01    0.201E-01
RMM:   8    -0.233368450584E+03    0.32462E-02   -0.42159E-03   162   0.646E-02
     14 T=   313. E= -.22806208E+03 F= -.23336845E+03 E0= -.23334139E+03  EK= 0.53064E+01 SP= 0.00E+00 SK= 0.00E+00
     15 T=   301. E= -.22778368E+03 F= -.23287217E+03 E0= -.23287217E+03  EK= 0.50885E+01 SP= 0.00E+00 SK= 0.00E+00
     16 T=   296. E= -.22766538E+03 F= -.23267520E+03 E0= -.23267520E+03  EK= 0.50098E+01 SP= 0.00E+00 SK= 0.00E+00
     17 T=   295. E= -.22763627E+03 F= -.23263866E+03 E0= -.23263866E+03  EK= 0.50024E+01 SP= 0.00E+00 SK= 0.00E+00
       N       E                     dE             d eps       ncg     rms          rms(c)
RMM:   1    -0.232863162711E+03    0.50853E+00   -0.17126E+01   129   0.627E+00
RMM:   2    -0.233050569419E+03   -0.18741E+00   -0.19176E+00   129   0.215E+00
RMM:   3    -0.233081914693E+03   -0.31345E-01   -0.30455E-01   129   0.865E-01
RMM:   4    -0.233089782584E+03   -0.78679E-02   -0.77336E-02   258   0.917E-01
RMM:   5    -0.233091372558E+03   -0.15900E-02   -0.15712E-02   237   0.233E-01    0.127E+00
RMM:   6    -0.232930383019E+03    0.16099E+00   -0.26747E-01   310   0.367E-01    0.630E-01
RMM:   7    -0.232895241215E+03    0.35142E-01   -0.40252E-02   256   0.174E-01    0.355E-01
RMM:   8    -0.232883187757E+03    0.12053E-01   -0.13282E-02   238   0.113E-01    0.152E-01
RMM:   9    -0.232882296965E+03    0.89079E-03   -0.47198E-03   177   0.680E-02
     18 T=   302. E= -.22776751E+03 F= -.23288230E+03 E0= -.23286469E+03  EK= 0.51148E+01 SP= 0.00E+00 SK= 0.00E+00
     19 T=   324. E= -.22735325E+03 F= -.23283157E+03 E0= -.23283157E+03  EK= 0.54783E+01 SP= 0.00E+00 SK= 0.00E+00
     20 T=   343. E= -.22720148E+03 F= -.23301348E+03 E0= -.23301348E+03  EK= 0.58120E+01 SP= 0.00E+00 SK= 0.00E+00
     21 T=   367. E= -.22700672E+03 F= -.23322284E+03 E0= -.23322284E+03  EK= 0.62161E+01 SP= 0.00E+00 SK= 0.00E+00
     22 T=   395. E= -.22676531E+03 F= -.23346047E+03 E0= -.23346047E+03  EK= 0.66952E+01 SP= 0.00E+00 SK= 0.00E+00
     23 T=   413. E= -.22668007E+03 F= -.23367442E+03 E0= -.23367442E+03  EK= 0.69944E+01 SP= 0.00E+00 SK= 0.00E+00
     24 T=   430. E= -.22659308E+03 F= -.23387157E+03 E0= -.23387157E+03  EK= 0.72785E+01 SP= 0.00E+00 SK= 0.00E+00
     25 T=   446. E= -.22649203E+03 F= -.23404001E+03 E0= -.23404001E+03  EK= 0.75480E+01 SP= 0.00E+00 SK= 0.00E+00
     26 T=   467. E= -.22626174E+03 F= -.23416203E+03 E0= -.23416203E+03  EK= 0.79003E+01 SP= 0.00E+00 SK= 0.00E+00
     27 T=   465. E= -.22635685E+03 F= -.23423533E+03 E0= -.23423533E+03  EK= 0.78785E+01 SP= 0.00E+00 SK= 0.00E+00
       N       E                     dE             d eps       ncg     rms          rms(c)
RMM:   1    -0.234875423282E+03   -0.19922E+01   -0.12856E+02   129   0.168E+01
RMM:   2    -0.236341554676E+03   -0.14661E+01   -0.13084E+01   129   0.547E+00
RMM:   3    -0.236555685188E+03   -0.21413E+00   -0.20320E+00   129   0.222E+00
RMM:   4    -0.236592725563E+03   -0.37040E-01   -0.36083E-01   258   0.879E-01
RMM:   5    -0.236602412265E+03   -0.96867E-02   -0.95740E-02   258   0.427E-01    0.413E+00
RMM:   6    -0.234667522052E+03    0.19349E+01   -0.26649E+00   320   0.114E+00    0.177E+00
RMM:   7    -0.234398833502E+03    0.26869E+00   -0.32595E-01   259   0.489E-01    0.106E+00
RMM:   8    -0.234292328618E+03    0.10650E+00   -0.12512E-01   258   0.333E-01    0.487E-01
RMM:   9    -0.234276177572E+03    0.16151E-01   -0.54159E-02   257   0.219E-01    0.191E-01
RMM:  10    -0.234275922959E+03    0.25461E-03   -0.10031E-02   223   0.116E-01
     28 T=   454. E= -.22658446E+03 F= -.23427592E+03 E0= -.23424882E+03  EK= 0.76915E+01 SP= 0.00E+00 SK= 0.00E+00
     29 T=   462. E= -.22640581E+03 F= -.23423636E+03 E0= -.23423636E+03  EK= 0.78305E+01 SP= 0.00E+00 SK= 0.00E+00
     30 T=   468. E= -.22623071E+03 F= -.23415127E+03 E0= -.23415127E+03  EK= 0.79206E+01 SP= 0.00E+00 SK= 0.00E+00
     31 T=   467. E= -.22613180E+03 F= -.23403501E+03 E0= -.23403501E+03  EK= 0.79032E+01 SP= 0.00E+00 SK= 0.00E+00
       N       E                     dE             d eps       ncg     rms          rms(c)
RMM:   1    -0.234022666335E+03    0.25351E+00   -0.27290E+01   129   0.776E+00
RMM:   2    -0.234318862884E+03   -0.29620E+00   -0.27885E+00   129   0.252E+00
RMM:   3    -0.234363792403E+03   -0.44930E-01   -0.43249E-01   129   0.102E+00
RMM:   4    -0.234371642786E+03   -0.78504E-02   -0.76860E-02   258   0.403E-01
RMM:   5    -0.234373684231E+03   -0.20414E-02   -0.20199E-02   240   0.196E-01    0.196E+00
RMM:   6    -0.233955008820E+03    0.41868E+00   -0.65001E-01   327   0.554E-01    0.809E-01
RMM:   7    -0.233894033106E+03    0.60976E-01   -0.66498E-02   257   0.220E-01    0.445E-01
RMM:   8    -0.233877173504E+03    0.16860E-01   -0.23092E-02   252   0.143E-01    0.230E-01
RMM:   9    -0.233873042488E+03    0.41310E-02   -0.10923E-02   225   0.956E-02
     32 T=   459. E= -.22610658E+03 F= -.23387304E+03 E0= -.23384312E+03  EK= 0.77665E+01 SP= 0.00E+00 SK= 0.00E+00
     33 T=   445. E= -.22626288E+03 F= -.23379144E+03 E0= -.23379144E+03  EK= 0.75286E+01 SP= 0.00E+00 SK= 0.00E+00
     34 T=   427. E= -.22644743E+03 F= -.23368047E+03 E0= -.23368047E+03  EK= 0.72330E+01 SP= 0.00E+00 SK= 0.00E+00
     35 T=   416. E= -.22650526E+03 F= -.23355715E+03 E0= -.23355715E+03  EK= 0.70519E+01 SP= 0.00E+00 SK= 0.00E+00
     36 T=   414. E= -.22643693E+03 F= -.23344613E+03 E0= -.23344613E+03  EK= 0.70092E+01 SP= 0.00E+00 SK= 0.00E+00
     37 T=   429. E= -.22609783E+03 F= -.23335947E+03 E0= -.23335947E+03  EK= 0.72616E+01 SP= 0.00E+00 SK= 0.00E+00
     38 T=   436. E= -.22593226E+03 F= -.23330799E+03 E0= -.23330799E+03  EK= 0.73757E+01 SP= 0.00E+00 SK= 0.00E+00
     39 T=   426. E= -.22607577E+03 F= -.23329389E+03 E0= -.23329389E+03  EK= 0.72181E+01 SP= 0.00E+00 SK= 0.00E+00
     40 T=   426. E= -.22607417E+03 F= -.23328737E+03 E0= -.23328737E+03  EK= 0.72132E+01 SP= 0.00E+00 SK= 0.00E+00
       N       E                     dE             d eps       ncg     rms          rms(c)
RMM:   1    -0.233631246268E+03    0.24593E+00   -0.10539E+02   129   0.152E+01
RMM:   2    -0.234845327477E+03   -0.12141E+01   -0.10891E+01   129   0.497E+00
RMM:   3    -0.235023728975E+03   -0.17840E+00   -0.17135E+00   129   0.202E+00
RMM:   4    -0.235055243450E+03   -0.31514E-01   -0.30716E-01   258   0.804E-01
RMM:   5    -0.235063478802E+03   -0.82354E-02   -0.81522E-02   258   0.391E-01    0.339E+00
RMM:   6    -0.233536087661E+03    0.15274E+01   -0.20410E+00   318   0.983E-01    0.134E+00
RMM:   7    -0.233388930170E+03    0.14716E+00   -0.23266E-01   258   0.426E-01    0.788E-01
RMM:   8    -0.233331898863E+03    0.57031E-01   -0.79003E-02   258   0.272E-01    0.385E-01
RMM:   9    -0.233322660095E+03    0.92388E-02   -0.34312E-02   256   0.177E-01    0.177E-01
RMM:  10    -0.233322018370E+03    0.64173E-03   -0.71974E-03   198   0.965E-02
     41 T=   431. E= -.22602626E+03 F= -.23332202E+03 E0= -.23329561E+03  EK= 0.72958E+01 SP= 0.00E+00 SK= 0.00E+00
     42 T=   442. E= -.22584107E+03 F= -.23331817E+03 E0= -.23331817E+03  EK= 0.74771E+01 SP= 0.00E+00 SK= 0.00E+00
     43 T=   450. E= -.22569848E+03 F= -.23331638E+03 E0= -.23331638E+03  EK= 0.76179E+01 SP= 0.00E+00 SK= 0.00E+00
     44 T=   453. E= -.22563556E+03 F= -.23329820E+03 E0= -.23329820E+03  EK= 0.76626E+01 SP= 0.00E+00 SK= 0.00E+00
       N       E                     dE             d eps       ncg     rms          rms(c)
RMM:   1    -0.233309632958E+03    0.13027E-01   -0.24919E+01   129   0.747E+00
RMM:   2    -0.233583703668E+03   -0.27407E+00   -0.25805E+00   129   0.241E+00
RMM:   3    -0.233624989707E+03   -0.41286E-01   -0.39841E-01   129   0.980E-01
RMM:   4    -0.233632172173E+03   -0.71825E-02   -0.70292E-02   258   0.384E-01
RMM:   5    -0.233634009241E+03   -0.18371E-02   -0.18182E-02   238   0.187E-01    0.162E+00
RMM:   6    -0.233316463632E+03    0.31755E+00   -0.44256E-01   319   0.459E-01    0.622E-01
RMM:   7    -0.233284061223E+03    0.32402E-01   -0.45731E-02   257   0.193E-01    0.350E-01
RMM:   8    -0.233274743225E+03    0.93180E-02   -0.16430E-02   248   0.122E-01    0.192E-01
RMM:   9    -0.233272050079E+03    0.26931E-02   -0.68664E-03   184   0.784E-02
     45 T=   448. E= -.22568909E+03 F= -.23327205E+03 E0= -.23324595E+03  EK= 0.75830E+01 SP= 0.00E+00 SK= 0.00E+00
     46 T=   447. E= -.22573306E+03 F= -.23329911E+03 E0= -.23329911E+03  EK= 0.75660E+01 SP= 0.00E+00 SK= 0.00E+00
     47 T=   454. E= -.22563328E+03 F= -.23331302E+03 E0= -.23331302E+03  EK= 0.76797E+01 SP= 0.00E+00 SK= 0.00E+00
     48 T=   462. E= -.22550709E+03 F= -.23332656E+03 E0= -.23332656E+03  EK= 0.78195E+01 SP= 0.00E+00 SK= 0.00E+00
     49 T=   477. E= -.22529026E+03 F= -.23336115E+03 E0= -.23336115E+03  EK= 0.80709E+01 SP= 0.00E+00 SK= 0.00E+00
     50 T=   492. E= -.22506981E+03 F= -.23339409E+03 E0= -.23339409E+03  EK= 0.83243E+01 SP= 0.00E+00 SK= 0.00E+00
       N       E                     dE             d eps       ncg     rms          rms(c)
RMM:   1    -0.233246960145E+03    0.27783E-01   -0.54282E+01   129   0.110E+01
RMM:   2    -0.233863986337E+03   -0.61703E+00   -0.56166E+00   129   0.354E+00
RMM:   3    -0.233954308371E+03   -0.90322E-01   -0.86885E-01   129   0.144E+00
RMM:   4    -0.233970011581E+03   -0.15703E-01   -0.15339E-01   258   0.561E-01
RMM:   5    -0.233974063240E+03   -0.40517E-02   -0.40094E-02   257   0.272E-01    0.239E+00
RMM:   6    -0.233335560837E+03    0.63850E+00   -0.98095E-01   320   0.673E-01    0.944E-01
RMM:   7    -0.233260206888E+03    0.75354E-01   -0.96673E-02   259   0.275E-01    0.543E-01
RMM:   8    -0.233236103678E+03    0.24103E-01   -0.32096E-02   257   0.170E-01    0.291E-01
RMM:   9    -0.233230474283E+03    0.56294E-02   -0.15862E-02   234   0.116E-01    0.129E-01
RMM:  10    -0.233230032684E+03    0.44160E-03   -0.33138E-03   177   0.630E-02
     51 T=   493. E= -.22488647E+03 F= -.23323003E+03 E0= -.23319815E+03  EK= 0.83436E+01 SP= 0.00E+00 SK= 0.00E+00
     52 T=   488. E= -.22510334E+03 F= -.23337478E+03 E0= -.23337478E+03  EK= 0.82714E+01 SP= 0.00E+00 SK= 0.00E+00
     53 T=   490. E= -.22507177E+03 F= -.23337390E+03 E0= -.23337390E+03  EK= 0.83021E+01 SP= 0.00E+00 SK= 0.00E+00
     54 T=   497. E= -.22494663E+03 F= -.23335872E+03 E0= -.23335872E+03  EK= 0.84121E+01 SP= 0.00E+00 SK= 0.00E+00
     55 T=   503. E= -.22485041E+03 F= -.23336158E+03 E0= -.23336158E+03  EK= 0.85112E+01 SP= 0.00E+00 SK= 0.00E+00
     56 T=   507. E= -.22477278E+03 F= -.23335993E+03 E0= -.23335993E+03  EK= 0.85871E+01 SP= 0.00E+00 SK= 0.00E+00
     57 T=   522. E= -.22455182E+03 F= -.23338789E+03 E0= -.23338789E+03  EK= 0.88361E+01 SP= 0.00E+00 SK= 0.00E+00
     58 T=   527. E= -.22449620E+03 F= -.23341794E+03 E0= -.23341794E+03  EK= 0.89217E+01 SP= 0.00E+00 SK= 0.00E+00
     59 T=   528. E= -.22449443E+03 F= -.23344019E+03 E0= -.23344019E+03  EK= 0.89458E+01 SP= 0.00E+00 SK= 0.00E+00
     60 T=   533. E= -.22447907E+03 F= -.23350113E+03 E0= -.23350113E+03  EK= 0.90221E+01 SP= 0.00E+00 SK= 0.00E+00
       N       E                     dE             d eps       ncg     rms          rms(c)
RMM:   1    -0.233062507385E+03    0.16797E+00   -0.13622E+02   129   0.174E+01
RMM:   2    -0.234681377275E+03   -0.16189E+01   -0.14164E+01   129   0.560E+00
RMM:   3    -0.234911642950E+03   -0.23027E+00   -0.21957E+00   129   0.227E+00
RMM:   4    -0.234951620819E+03   -0.39978E-01   -0.38835E-01   258   0.889E-01
RMM:   5    -0.234961935515E+03   -0.10315E-01   -0.10199E-01   258   0.430E-01    0.343E+00
RMM:   6    -0.233512943914E+03    0.14490E+01   -0.20747E+00   315   0.971E-01    0.151E+00
RMM:   7    -0.233391129516E+03    0.12181E+00   -0.26804E-01   258   0.436E-01    0.111E+00
RMM:   8    -0.233249871980E+03    0.14126E+00   -0.88103E-02   258   0.283E-01    0.474E-01
RMM:   9    -0.233238102728E+03    0.11769E-01   -0.46306E-02   257   0.195E-01    0.227E-01
RMM:  10    -0.233236096937E+03    0.20058E-02   -0.93935E-03   215   0.106E-01
     61 T=   543. E= -.22404579E+03 F= -.23323610E+03 E0= -.23321024E+03  EK= 0.91903E+01 SP= 0.00E+00 SK= 0.00E+00
     62 T=   554. E= -.22423265E+03 F= -.23361004E+03 E0= -.23361004E+03  EK= 0.93774E+01 SP= 0.00E+00 SK= 0.00E+00
     63 T=   553. E= -.22426418E+03 F= -.23362172E+03 E0= -.23362172E+03  EK= 0.93575E+01 SP= 0.00E+00 SK= 0.00E+00
     64 T=   543. E= -.22442204E+03 F= -.23361475E+03 E0= -.23361475E+03  EK= 0.91927E+01 SP= 0.00E+00 SK= 0.00E+00
     65 T=   536. E= -.22451888E+03 F= -.23359921E+03 E0= -.23359921E+03  EK= 0.90803E+01 SP= 0.00E+00 SK= 0.00E+00
     66 T=   521. E= -.22476196E+03 F= -.23358347E+03 E0= -.23358347E+03  EK= 0.88215E+01 SP= 0.00E+00 SK= 0.00E+00
     67 T=   514. E= -.22486376E+03 F= -.23357209E+03 E0= -.23357209E+03  EK= 0.87083E+01 SP= 0.00E+00 SK= 0.00E+00
       N       E                     dE             d eps       ncg     rms          rms(c)
RMM:   1    -0.233262288151E+03   -0.24185E-01   -0.79418E+01   129   0.131E+01
RMM:   2    -0.234163453004E+03   -0.90116E+00   -0.79758E+00   129   0.415E+00
RMM:   3    -0.234291320459E+03   -0.12787E+00   -0.12201E+00   129   0.168E+00
RMM:   4    -0.234313373305E+03   -0.22053E-01   -0.21476E-01   258   0.648E-01
RMM:   5    -0.234319103494E+03   -0.57302E-02   -0.56644E-02   258   0.315E-01    0.280E+00
RMM:   6    -0.233309781485E+03    0.10093E+01   -0.13707E+00   316   0.781E-01    0.121E+00
RMM:   7    -0.233207340445E+03    0.10244E+00   -0.17838E-01   258   0.357E-01    0.801E-01
RMM:   8    -0.233139999058E+03    0.67341E-01   -0.62497E-02   257   0.233E-01    0.404E-01
RMM:   9    -0.233129081237E+03    0.10918E-01   -0.30711E-02   254   0.158E-01    0.195E-01
RMM:  10    -0.233127284026E+03    0.17972E-02   -0.67631E-03   196   0.879E-02
     68 T=   520. E= -.22432689E+03 F= -.23312728E+03 E0= -.23310032E+03  EK= 0.88004E+01 SP= 0.00E+00 SK= 0.00E+00
     69 T=   516. E= -.22465174E+03 F= -.23338220E+03 E0= -.23338220E+03  EK= 0.87305E+01 SP= 0.00E+00 SK= 0.00E+00
     70 T=   509. E= -.22468135E+03 F= -.23330744E+03 E0= -.23330744E+03  EK= 0.86261E+01 SP= 0.00E+00 SK= 0.00E+00
     71 T=   507. E= -.22464882E+03 F= -.23324183E+03 E0= -.23324183E+03  EK= 0.85930E+01 SP= 0.00E+00 SK= 0.00E+00
     72 T=   507. E= -.22459616E+03 F= -.23318109E+03 E0= -.23318109E+03  EK= 0.85849E+01 SP= 0.00E+00 SK= 0.00E+00
       N       E                     dE             d eps       ncg     rms          rms(c)
RMM:   1    -0.233081446244E+03    0.47635E-01   -0.40449E+01   129   0.931E+00
RMM:   2    -0.233503749918E+03   -0.42230E+00   -0.38957E+00   129   0.288E+00
RMM:   3    -0.233564642045E+03   -0.60892E-01   -0.58385E-01   129   0.116E+00
RMM:   4    -0.233575032215E+03   -0.10390E-01   -0.10164E-01   258   0.442E-01
RMM:   5    -0.233577728386E+03   -0.26962E-02   -0.26653E-02   244   0.214E-01    0.213E+00
RMM:   6    -0.232978600570E+03    0.59913E+00   -0.77828E-01   317   0.588E-01    0.845E-01
RMM:   7    -0.232923484927E+03    0.55116E-01   -0.99039E-02   258   0.269E-01    0.516E-01
RMM:   8    -0.232895827228E+03    0.27658E-01   -0.31917E-02   256   0.169E-01    0.256E-01
RMM:   9    -0.232891725870E+03    0.41014E-02   -0.13989E-02   227   0.109E-01
     73 T=   504. E= -.22435473E+03 F= -.23289173E+03 E0= -.23287086E+03  EK= 0.85370E+01 SP= 0.00E+00 SK= 0.00E+00
     74 T=   498. E= -.22466240E+03 F= -.23308961E+03 E0= -.23308961E+03  EK= 0.84272E+01 SP= 0.00E+00 SK= 0.00E+00
     75 T=   492. E= -.22467316E+03 F= -.23300983E+03 E0= -.23300983E+03  EK= 0.83367E+01 SP= 0.00E+00 SK= 0.00E+00
     76 T=   497. E= -.22454569E+03 F= -.23295874E+03 E0= -.23295874E+03  EK= 0.84131E+01 SP= 0.00E+00 SK= 0.00E+00
     77 T=   508. E= -.22433451E+03 F= -.23293016E+03 E0= -.23293016E+03  EK= 0.85956E+01 SP= 0.00E+00 SK= 0.00E+00
     78 T=   513. E= -.22421239E+03 F= -.23290145E+03 E0= -.23290145E+03  EK= 0.86891E+01 SP= 0.00E+00 SK= 0.00E+00
     79 T=   510. E= -.22424355E+03 F= -.23287110E+03 E0= -.23287110E+03  EK= 0.86275E+01 SP= 0.00E+00 SK= 0.00E+00
     80 T=   500. E= -.22438162E+03 F= -.23285100E+03 E0= -.23285100E+03  EK= 0.84694E+01 SP= 0.00E+00 SK= 0.00E+00
     81 T=   489. E= -.22454846E+03 F= -.23283602E+03 E0= -.23283602E+03  EK= 0.82876E+01 SP= 0.00E+00 SK= 0.00E+00
     82 T=   479. E= -.22469666E+03 F= -.23280219E+03 E0= -.23280219E+03  EK= 0.81055E+01 SP= 0.00E+00 SK= 0.00E+00
       N       E                     dE             d eps       ncg     rms          rms(c)
RMM:   1    -0.232658411344E+03    0.23742E+00   -0.13275E+02   129   0.168E+01
RMM:   2    -0.234124786260E+03   -0.14664E+01   -0.12839E+01   129   0.522E+00
RMM:   3    -0.234328400215E+03   -0.20361E+00   -0.19401E+00   129   0.210E+00
RMM:   4    -0.234363211346E+03   -0.34811E-01   -0.33853E-01   258   0.802E-01
RMM:   5    -0.234372237395E+03   -0.90260E-02   -0.89185E-02   258   0.388E-01    0.336E+00
RMM:   6    -0.232957808680E+03    0.14144E+01   -0.19643E+00   312   0.934E-01    0.157E+00
RMM:   7    -0.232773667578E+03    0.18414E+00   -0.30936E-01   258   0.449E-01    0.111E+00
RMM:   8    -0.232622919531E+03    0.15075E+00   -0.12523E-01   258   0.321E-01    0.442E-01
RMM:   9    -0.232611812888E+03    0.11107E-01   -0.49688E-02   257   0.207E-01    0.241E-01
RMM:  10    -0.232608446877E+03    0.33660E-02   -0.12417E-02   226   0.115E-01
     83 T=   470. E= -.22465031E+03 F= -.23260845E+03 E0= -.23258395E+03  EK= 0.79581E+01 SP= 0.00E+00 SK= 0.00E+00
     84 T=   472. E= -.22469223E+03 F= -.23268917E+03 E0= -.23268917E+03  EK= 0.79969E+01 SP= 0.00E+00 SK= 0.00E+00
     85 T=   483. E= -.22443963E+03 F= -.23261268E+03 E0= -.23261268E+03  EK= 0.81731E+01 SP= 0.00E+00 SK= 0.00E+00
       N       E                     dE             d eps       ncg     rms          rms(c)
RMM:   1    -0.232328759573E+03    0.28305E+00   -0.13723E+01   129   0.549E+00
RMM:   2    -0.232470935035E+03   -0.14218E+00   -0.13419E+00   129   0.168E+00
RMM:   3    -0.232491974323E+03   -0.21039E-01   -0.20268E-01   129   0.682E-01
RMM:   4    -0.232495569453E+03   -0.35951E-02   -0.35212E-02   257   0.258E-01
RMM:   5    -0.232496474947E+03   -0.90549E-03   -0.89516E-03   206   0.125E-01    0.105E+00
RMM:   6    -0.232359605101E+03    0.13687E+00   -0.16994E-01   313   0.282E-01    0.421E-01
RMM:   7    -0.232346924046E+03    0.12681E-01   -0.26918E-02   257   0.140E-01    0.252E-01
RMM:   8    -0.232341167907E+03    0.57561E-02   -0.80209E-03   194   0.862E-02    0.135E-01
RMM:   9    -0.232340219791E+03    0.94812E-03   -0.28708E-03   175   0.531E-02
     86 T=   484. E= -.22415147E+03 F= -.23234022E+03 E0= -.23231433E+03  EK= 0.81888E+01 SP= 0.00E+00 SK= 0.00E+00
     87 T=   473. E= -.22462914E+03 F= -.23263843E+03 E0= -.23263843E+03  EK= 0.80093E+01 SP= 0.00E+00 SK= 0.00E+00
     88 T=   457. E= -.22486306E+03 F= -.23260648E+03 E0= -.23260648E+03  EK= 0.77434E+01 SP= 0.00E+00 SK= 0.00E+00
     89 T=   455. E= -.22489138E+03 F= -.23259635E+03 E0= -.23259635E+03  EK= 0.77050E+01 SP= 0.00E+00 SK= 0.00E+00
     90 T=   466. E= -.22470230E+03 F= -.23259896E+03 E0= -.23259896E+03  EK= 0.78967E+01 SP= 0.00E+00 SK= 0.00E+00
     91 T=   469. E= -.22465591E+03 F= -.23259494E+03 E0= -.23259494E+03  EK= 0.79390E+01 SP= 0.00E+00 SK= 0.00E+00
     92 T=   471. E= -.22462131E+03 F= -.23260504E+03 E0= -.23260504E+03  EK= 0.79837E+01 SP= 0.00E+00 SK= 0.00E+00
     93 T=   477. E= -.22452707E+03 F= -.23260320E+03 E0= -.23260320E+03  EK= 0.80761E+01 SP= 0.00E+00 SK= 0.00E+00
     94 T=   477. E= -.22450677E+03 F= -.23258150E+03 E0= -.23258150E+03  EK= 0.80747E+01 SP= 0.00E+00 SK= 0.00E+00
     95 T=   474. E= -.22453438E+03 F= -.23256873E+03 E0= -.23256873E+03  EK= 0.80343E+01 SP= 0.00E+00 SK= 0.00E+00
       N       E                     dE             d eps       ncg     rms          rms(c)
RMM:   1    -0.231744591860E+03    0.59658E+00   -0.12327E+02   129   0.163E+01
RMM:   2    -0.233142710687E+03   -0.13981E+01   -0.12131E+01   129   0.502E+00
RMM:   3    -0.233336161349E+03   -0.19345E+00   -0.18428E+00   129   0.204E+00
RMM:   4    -0.233369325841E+03   -0.33164E-01   -0.32236E-01   258   0.776E-01
RMM:   5    -0.233377892679E+03   -0.85668E-02   -0.84688E-02   258   0.377E-01    0.307E+00
RMM:   6    -0.232150374563E+03    0.12275E+01   -0.14991E+00   312   0.824E-01    0.127E+00
RMM:   7    -0.232041244295E+03    0.10913E+00   -0.23445E-01   258   0.412E-01    0.785E-01
RMM:   8    -0.231979120323E+03    0.62124E-01   -0.71694E-02   258   0.257E-01    0.411E-01
RMM:   9    -0.231969347545E+03    0.97728E-02   -0.32604E-02   256   0.168E-01    0.211E-01
RMM:  10    -0.231966825585E+03    0.25220E-02   -0.87522E-03   208   0.976E-02
     96 T=   477. E= -.22388304E+03 F= -.23196683E+03 E0= -.23194976E+03  EK= 0.80838E+01 SP= 0.00E+00 SK= 0.00E+00
     97 T=   498. E= -.22411113E+03 F= -.23254906E+03 E0= -.23254906E+03  EK= 0.84379E+01 SP= 0.00E+00 SK= 0.00E+00
     98 T=   508. E= -.22395074E+03 F= -.23255921E+03 E0= -.23255921E+03  EK= 0.86085E+01 SP= 0.00E+00 SK= 0.00E+00
     99 T=   512. E= -.22390224E+03 F= -.23256643E+03 E0= -.23256643E+03  EK= 0.86642E+01 SP= 0.00E+00 SK= 0.00E+00
    100 T=   521. E= -.22375101E+03 F= -.23256532E+03 E0= -.23256532E+03  EK= 0.88143E+01 SP= 0.00E+00 SK= 0.00E+00
    101 T=   545. E= -.22334223E+03 F= -.23257513E+03 E0= -.23257513E+03  EK= 0.92329E+01 SP= 0.00E+00 SK= 0.00E+00
    102 T=   569. E= -.22293601E+03 F= -.23257137E+03 E0= -.23257137E+03  EK= 0.96354E+01 SP= 0.00E+00 SK= 0.00E+00
    103 T=   562. E= -.22304368E+03 F= -.23256136E+03 E0= -.23256136E+03  EK= 0.95177E+01 SP= 0.00E+00 SK= 0.00E+00
    104 T=   558. E= -.22308597E+03 F= -.23254054E+03 E0= -.23254054E+03  EK= 0.94546E+01 SP= 0.00E+00 SK= 0.00E+00
    105 T=   570. E= -.22286003E+03 F= -.23250487E+03 E0= -.23250487E+03  EK= 0.96448E+01 SP= 0.00E+00 SK= 0.00E+00
       N       E                     dE             d eps       ncg     rms          rms(c)
RMM:   1    -0.232116931092E+03   -0.14758E+00   -0.14770E+02   129   0.177E+01
RMM:   2    -0.233744697163E+03   -0.16278E+01   -0.14094E+01   129   0.538E+00
RMM:   3    -0.233969332084E+03   -0.22463E+00   -0.21338E+00   129   0.217E+00
RMM:   4    -0.234007764670E+03   -0.38433E-01   -0.37324E-01   258   0.827E-01
RMM:   5    -0.234017765387E+03   -0.10001E-01   -0.98788E-02   258   0.400E-01    0.355E+00
RMM:   6    -0.232381631113E+03    0.16361E+01   -0.21813E+00   312   0.970E-01    0.161E+00
RMM:   7    -0.232264518013E+03    0.11711E+00   -0.32770E-01   258   0.465E-01    0.126E+00
RMM:   8    -0.232057521961E+03    0.20700E+00   -0.12443E-01   258   0.321E-01    0.479E-01
RMM:   9    -0.232045794869E+03    0.11727E-01   -0.55833E-02   257   0.214E-01    0.256E-01
RMM:  10    -0.232041670719E+03    0.41242E-02   -0.13247E-02   227   0.120E-01
    106 T=   572. E= -.22235934E+03 F= -.23204167E+03 E0= -.23203422E+03  EK= 0.96823E+01 SP= 0.00E+00 SK= 0.00E+00
    107 T=   568. E= -.22271893E+03 F= -.23234508E+03 E0= -.23234508E+03  EK= 0.96262E+01 SP= 0.00E+00 SK= 0.00E+00
    108 T=   560. E= -.22275508E+03 F= -.23224011E+03 E0= -.23224011E+03  EK= 0.94850E+01 SP= 0.00E+00 SK= 0.00E+00
    109 T=   552. E= -.22277829E+03 F= -.23213262E+03 E0= -.23213262E+03  EK= 0.93543E+01 SP= 0.00E+00 SK= 0.00E+00
    110 T=   554. E= -.22265593E+03 F= -.23203242E+03 E0= -.23203242E+03  EK= 0.93765E+01 SP= 0.00E+00 SK= 0.00E+00
    111 T=   543. E= -.22271709E+03 F= -.23191855E+03 E0= -.23191855E+03  EK= 0.92015E+01 SP= 0.00E+00 SK= 0.00E+00
    112 T=   527. E= -.22287413E+03 F= -.23179340E+03 E0= -.23179340E+03  EK= 0.89193E+01 SP= 0.00E+00 SK= 0.00E+00
    113 T=   528. E= -.22271504E+03 F= -.23166081E+03 E0= -.23166081E+03  EK= 0.89458E+01 SP= 0.00E+00 SK= 0.00E+00
    114 T=   525. E= -.22264236E+03 F= -.23153972E+03 E0= -.23153972E+03  EK= 0.88974E+01 SP= 0.00E+00 SK= 0.00E+00
    115 T=   512. E= -.22274567E+03 F= -.23141033E+03 E0= -.23141033E+03  EK= 0.86647E+01 SP= 0.00E+00 SK= 0.00E+00
       N       E                     dE             d eps       ncg     rms          rms(c)
RMM:   1    -0.230223386481E+03    0.18224E+01   -0.14372E+02   129   0.176E+01
RMM:   2    -0.231783514825E+03   -0.15601E+01   -0.13604E+01   129   0.529E+00
RMM:   3    -0.231996898027E+03   -0.21338E+00   -0.20300E+00   129   0.213E+00
RMM:   4    -0.232032860683E+03   -0.35963E-01   -0.34913E-01   258   0.801E-01
RMM:   5    -0.232041977695E+03   -0.91170E-02   -0.90056E-02   258   0.387E-01    0.310E+00
RMM:   6    -0.230811838034E+03    0.12301E+01   -0.15738E+00   305   0.822E-01    0.146E+00
RMM:   7    -0.230684081061E+03    0.12776E+00   -0.28158E-01   258   0.431E-01    0.105E+00
RMM:   8    -0.230556207141E+03    0.12787E+00   -0.10323E-01   258   0.294E-01    0.488E-01
RMM:   9    -0.230542032158E+03    0.14175E-01   -0.44230E-02   257   0.193E-01    0.270E-01
RMM:  10    -0.230537919925E+03    0.41122E-02   -0.13582E-02   228   0.116E-01
    116 T=   507. E= -.22195263E+03 F= -.23053792E+03 E0= -.23054557E+03  EK= 0.85853E+01 SP= 0.00E+00 SK= 0.00E+00
    117 T=   511. E= -.22258102E+03 F= -.23123953E+03 E0= -.23123953E+03  EK= 0.86585E+01 SP= 0.00E+00 SK= 0.00E+00
    118 T=   517. E= -.22240298E+03 F= -.23116453E+03 E0= -.23116453E+03  EK= 0.87616E+01 SP= 0.00E+00 SK= 0.00E+00
    119 T=   519. E= -.22233468E+03 F= -.23112260E+03 E0= -.23112260E+03  EK= 0.87879E+01 SP= 0.00E+00 SK= 0.00E+00
    120 T=   529. E= -.22211752E+03 F= -.23108214E+03 E0= -.23108214E+03  EK= 0.89646E+01 SP= 0.00E+00 SK= 0.00E+00
    121 T=   533. E= -.22202270E+03 F= -.23104578E+03 E0= -.23104578E+03  EK= 0.90231E+01 SP= 0.00E+00 SK= 0.00E+00
    122 T=   522. E= -.22217227E+03 F= -.23100758E+03 E0= -.23100758E+03  EK= 0.88353E+01 SP= 0.00E+00 SK= 0.00E+00
    123 T=   507. E= -.22241469E+03 F= -.23099209E+03 E0= -.23099209E+03  EK= 0.85774E+01 SP= 0.00E+00 SK= 0.00E+00
    124 T=   499. E= -.22252623E+03 F= -.23097467E+03 E0= -.23097467E+03  EK= 0.84484E+01 SP= 0.00E+00 SK= 0.00E+00
    125 T=   507. E= -.22238074E+03 F= -.23095901E+03 E0= -.23095901E+03  EK= 0.85783E+01 SP= 0.00E+00 SK= 0.00E+00
       N       E                     dE             d eps       ncg     rms          rms(c)
RMM:   1    -0.229274370878E+03    0.12677E+01   -0.13586E+02   129   0.169E+01
RMM:   2    -0.230766459106E+03   -0.14921E+01   -0.12869E+01   129   0.509E+00
RMM:   3    -0.230970754792E+03   -0.20430E+00   -0.19364E+00   129   0.205E+00
RMM:   4    -0.231005573320E+03   -0.34819E-01   -0.33861E-01   258   0.776E-01
RMM:   5    -0.231014719971E+03   -0.91467E-02   -0.90359E-02   258   0.376E-01    0.337E+00
RMM:   6    -0.229457520549E+03    0.15572E+01   -0.20538E+00   311   0.920E-01    0.135E+00
RMM:   7    -0.229334026267E+03    0.12349E+00   -0.24602E-01   258   0.431E-01    0.864E-01
RMM:   8    -0.229265154248E+03    0.68872E-01   -0.74353E-02   258   0.259E-01    0.503E-01
RMM:   9    -0.229247665392E+03    0.17489E-01   -0.40956E-02   257   0.180E-01    0.260E-01
RMM:  10    -0.229243547382E+03    0.41180E-02   -0.11900E-02   224   0.110E-01
    126 T=   508. E= -.22064137E+03 F= -.22924355E+03 E0= -.22924834E+03  EK= 0.86022E+01 SP= 0.00E+00 SK= 0.00E+00
    127 T=   503. E= -.22235861E+03 F= -.23086897E+03 E0= -.23086897E+03  EK= 0.85104E+01 SP= 0.00E+00 SK= 0.00E+00
    128 T=   503. E= -.22227887E+03 F= -.23079859E+03 E0= -.23079859E+03  EK= 0.85197E+01 SP= 0.00E+00 SK= 0.00E+00
    129 T=   505. E= -.22213262E+03 F= -.23068520E+03 E0= -.23068520E+03  EK= 0.85526E+01 SP= 0.00E+00 SK= 0.00E+00
    130 T=   496. E= -.22217204E+03 F= -.23056926E+03 E0= -.23056926E+03  EK= 0.83972E+01 SP= 0.00E+00 SK= 0.00E+00
       N       E                     dE             d eps       ncg     rms          rms(c)
RMM:   1    -0.228588439002E+03    0.65923E+00   -0.38365E+01   129   0.908E+00
RMM:   2    -0.228980750326E+03   -0.39231E+00   -0.36066E+00   129   0.269E+00
RMM:   3    -0.229036514665E+03   -0.55764E-01   -0.53520E-01   129   0.108E+00
RMM:   4    -0.229045999445E+03   -0.94848E-02   -0.92738E-02   258   0.405E-01
RMM:   5    -0.229048452600E+03   -0.24532E-02   -0.24255E-02   240   0.197E-01    0.194E+00
RMM:   6    -0.228570355577E+03    0.47810E+00   -0.70847E-01   314   0.533E-01    0.804E-01
RMM:   7    -0.228534810205E+03    0.35545E-01   -0.76776E-02   260   0.233E-01    0.588E-01
RMM:   8    -0.228497845052E+03    0.36965E-01   -0.23247E-02   250   0.142E-01    0.302E-01
RMM:   9    -0.228491656695E+03    0.61884E-02   -0.13491E-02   230   0.101E-01    0.157E-01
RMM:  10    -0.228490061380E+03    0.15953E-02   -0.41557E-03   179   0.624E-02
    131 T=   491. E= -.22018389E+03 F= -.22849006E+03 E0= -.22848298E+03  EK= 0.83062E+01 SP= 0.00E+00 SK= 0.00E+00
    132 T=   482. E= -.22163192E+03 F= -.22978686E+03 E0= -.22978686E+03  EK= 0.81549E+01 SP= 0.00E+00 SK= 0.00E+00
    133 T=   473. E= -.22164938E+03 F= -.22965913E+03 E0= -.22965913E+03  EK= 0.80097E+01 SP= 0.00E+00 SK= 0.00E+00
    134 T=   473. E= -.22153447E+03 F= -.22953991E+03 E0= -.22953991E+03  EK= 0.80054E+01 SP= 0.00E+00 SK= 0.00E+00
    135 T=   473. E= -.22142030E+03 F= -.22942762E+03 E0= -.22942762E+03  EK= 0.80073E+01 SP= 0.00E+00 SK= 0.00E+00
    136 T=   481. E= -.22119629E+03 F= -.22934443E+03 E0= -.22934443E+03  EK= 0.81481E+01 SP= 0.00E+00 SK= 0.00E+00
    137 T=   485. E= -.22108835E+03 F= -.22929540E+03 E0= -.22929540E+03  EK= 0.82070E+01 SP= 0.00E+00 SK= 0.00E+00
    138 T=   488. E= -.22102531E+03 F= -.22928795E+03 E0= -.22928795E+03  EK= 0.82626E+01 SP= 0.00E+00 SK= 0.00E+00
    139 T=   503. E= -.22077670E+03 F= -.22928980E+03 E0= -.22928980E+03  EK= 0.85131E+01 SP= 0.00E+00 SK= 0.00E+00
    140 T=   511. E= -.22066453E+03 F= -.22931619E+03 E0= -.22931619E+03  EK= 0.86517E+01 SP= 0.00E+00 SK= 0.00E+00
       N       E                     dE             d eps       ncg     rms          rms(c)
RMM:   1    -0.227653185774E+03    0.83847E+00   -0.12644E+02   129   0.164E+01
RMM:   2    -0.229019668712E+03   -0.13665E+01   -0.11983E+01   129   0.491E+00
RMM:   3    -0.229207291763E+03   -0.18762E+00   -0.17914E+00   129   0.196E+00
RMM:   4    -0.229239599586E+03   -0.32308E-01   -0.31371E-01   258   0.743E-01
RMM:   5    -0.229248095119E+03   -0.84955E-02   -0.83980E-02   258   0.360E-01    0.318E+00
RMM:   6    -0.227815991738E+03    0.14321E+01   -0.17732E+00   307   0.856E-01    0.132E+00
RMM:   7    -0.227670190540E+03    0.14580E+00   -0.26372E-01   259   0.433E-01    0.756E-01
RMM:   8    -0.227626712708E+03    0.43478E-01   -0.83245E-02   258   0.271E-01    0.460E-01
RMM:   9    -0.227611788396E+03    0.14924E-01   -0.31982E-02   251   0.168E-01    0.253E-01
RMM:  10    -0.227608298884E+03    0.34895E-02   -0.98093E-03   217   0.100E-01
    141 T=   511. E= -.21896347E+03 F= -.22760830E+03 E0= -.22759537E+03  EK= 0.86448E+01 SP= 0.00E+00 SK= 0.00E+00
    142 T=   507. E= -.22073256E+03 F= -.22932199E+03 E0= -.22932199E+03  EK= 0.85894E+01 SP= 0.00E+00 SK= 0.00E+00
    143 T=   513. E= -.22068755E+03 F= -.22937516E+03 E0= -.22937516E+03  EK= 0.86876E+01 SP= 0.00E+00 SK= 0.00E+00
    144 T=   526. E= -.22051875E+03 F= -.22943184E+03 E0= -.22943184E+03  EK= 0.89131E+01 SP= 0.00E+00 SK= 0.00E+00
    145 T=   538. E= -.22037999E+03 F= -.22948957E+03 E0= -.22948957E+03  EK= 0.91096E+01 SP= 0.00E+00 SK= 0.00E+00
    146 T=   549. E= -.22026250E+03 F= -.22955795E+03 E0= -.22955795E+03  EK= 0.92954E+01 SP= 0.00E+00 SK= 0.00E+00
    147 T=   562. E= -.22007638E+03 F= -.22959854E+03 E0= -.22959854E+03  EK= 0.95222E+01 SP= 0.00E+00 SK= 0.00E+00
    148 T=   569. E= -.21996477E+03 F= -.22960709E+03 E0= -.22960709E+03  EK= 0.96423E+01 SP= 0.00E+00 SK= 0.00E+00
    149 T=   560. E= -.22009667E+03 F= -.22957930E+03 E0= -.22957930E+03  EK= 0.94826E+01 SP= 0.00E+00 SK= 0.00E+00
    150 T=   551. E= -.22022048E+03 F= -.22954377E+03 E0= -.22954377E+03  EK= 0.93233E+01 SP= 0.00E+00 SK= 0.00E+00
    151 T=   548. E= -.22018745E+03 F= -.22947402E+03 E0= -.22947402E+03  EK= 0.92866E+01 SP= 0.00E+00 SK= 0.00E+00
    152 T=   541. E= -.22022116E+03 F= -.22937463E+03 E0= -.22937463E+03  EK= 0.91535E+01 SP= 0.00E+00 SK= 0.00E+00
    153 T=   526. E= -.22036133E+03 F= -.22926272E+03 E0= -.22926272E+03  EK= 0.89014E+01 SP= 0.00E+00 SK= 0.00E+00
    154 T=   515. E= -.22044193E+03 F= -.22915681E+03 E0= -.22915681E+03  EK= 0.87149E+01 SP= 0.00E+00 SK= 0.00E+00
       N       E                     dE             d eps       ncg     rms          rms(c)
RMM:   1    -0.226642633205E+03    0.96916E+00   -0.23039E+02   129   0.219E+01
RMM:   2    -0.229221911055E+03   -0.25793E+01   -0.21505E+01   129   0.650E+00
RMM:   3    -0.229571778686E+03   -0.34987E+00   -0.32742E+00   129   0.259E+00
RMM:   4    -0.229632520419E+03   -0.60742E-01   -0.58236E-01   258   0.995E-01
RMM:   5    -0.229648725488E+03   -0.16205E-01   -0.15983E-01   258   0.479E-01    0.402E+00
RMM:   6    -0.227516110644E+03    0.21326E+01   -0.27703E+00   301   0.108E+00    0.184E+00
RMM:   7    -0.227230567049E+03    0.28554E+00   -0.49960E-01   258   0.576E-01    0.116E+00
RMM:   8    -0.227088520355E+03    0.14205E+00   -0.19062E-01   258   0.396E-01    0.547E-01
RMM:   9    -0.227079786002E+03    0.87344E-02   -0.62857E-02   258   0.243E-01    0.373E-01
RMM:  10    -0.227070383661E+03    0.94023E-02   -0.21445E-02   249   0.145E-01    0.167E-01
RMM:  11    -0.227070496547E+03   -0.11289E-03   -0.56242E-03   192   0.809E-02
    155 T=   517. E= -.21831403E+03 F= -.22707050E+03 E0= -.22705404E+03  EK= 0.87565E+01 SP= 0.00E+00 SK= 0.00E+00
    156 T=   529. E= -.21997813E+03 F= -.22893143E+03 E0= -.22893143E+03  EK= 0.89533E+01 SP= 0.00E+00 SK= 0.00E+00
    157 T=   533. E= -.21980005E+03 F= -.22882620E+03 E0= -.22882620E+03  EK= 0.90262E+01 SP= 0.00E+00 SK= 0.00E+00
    158 T=   536. E= -.21965516E+03 F= -.22873868E+03 E0= -.22873868E+03  EK= 0.90835E+01 SP= 0.00E+00 SK= 0.00E+00
    159 T=   527. E= -.21973884E+03 F= -.22865722E+03 E0= -.22865722E+03  EK= 0.89184E+01 SP= 0.00E+00 SK= 0.00E+00
    160 T=   528. E= -.21966438E+03 F= -.22860409E+03 E0= -.22860409E+03  EK= 0.89397E+01 SP= 0.00E+00 SK= 0.00E+00
    161 T=   537. E= -.21949394E+03 F= -.22858408E+03 E0= -.22858408E+03  EK= 0.90901E+01 SP= 0.00E+00 SK= 0.00E+00
    162 T=   527. E= -.21963683E+03 F= -.22856212E+03 E0= -.22856212E+03  EK= 0.89253E+01 SP= 0.00E+00 SK= 0.00E+00
    163 T=   527. E= -.21961920E+03 F= -.22855007E+03 E0= -.22855007E+03  EK= 0.89309E+01 SP= 0.00E+00 SK= 0.00E+00
    164 T=   537. E= -.21945367E+03 F= -.22855002E+03 E0= -.22855002E+03  EK= 0.90964E+01 SP= 0.00E+00 SK= 0.00E+00
       N       E                     dE             d eps       ncg     rms          rms(c)
RMM:   1    -0.225712413978E+03    0.13580E+01   -0.13057E+02   129   0.167E+01
RMM:   2    -0.227108481370E+03   -0.13961E+01   -0.12094E+01   129   0.488E+00
RMM:   3    -0.227295775218E+03   -0.18729E+00   -0.17850E+00   129   0.194E+00
RMM:   4    -0.227327883511E+03   -0.32108E-01   -0.31128E-01   258   0.728E-01
RMM:   5    -0.227336378438E+03   -0.84949E-02   -0.83959E-02   258   0.352E-01    0.280E+00
RMM:   6    -0.226358564881E+03    0.97781E+00   -0.12873E+00   304   0.731E-01    0.136E+00
RMM:   7    -0.226250336928E+03    0.10823E+00   -0.23606E-01   258   0.388E-01    0.100E+00
RMM:   8    -0.226139197658E+03    0.11114E+00   -0.91464E-02   258   0.271E-01    0.469E-01
RMM:   9    -0.226125340723E+03    0.13857E-01   -0.37028E-02   257   0.175E-01    0.265E-01
RMM:  10    -0.226122150079E+03    0.31906E-02   -0.12996E-02   231   0.110E-01
    165 T=   543. E= -.21692522E+03 F= -.22612215E+03 E0= -.22611667E+03  EK= 0.91969E+01 SP= 0.00E+00 SK= 0.00E+00
    166 T=   563. E= -.21906247E+03 F= -.22858987E+03 E0= -.22858987E+03  EK= 0.95274E+01 SP= 0.00E+00 SK= 0.00E+00
    167 T=   573. E= -.21888223E+03 F= -.22858435E+03 E0= -.22858435E+03  EK= 0.97021E+01 SP= 0.00E+00 SK= 0.00E+00
    168 T=   567. E= -.21896951E+03 F= -.22856837E+03 E0= -.22856837E+03  EK= 0.95989E+01 SP= 0.00E+00 SK= 0.00E+00
    169 T=   567. E= -.21893969E+03 F= -.22854904E+03 E0= -.22854904E+03  EK= 0.96093E+01 SP= 0.00E+00 SK= 0.00E+00
    170 T=   556. E= -.21910037E+03 F= -.22852158E+03 E0= -.22852158E+03  EK= 0.94212E+01 SP= 0.00E+00 SK= 0.00E+00
    171 T=   546. E= -.21925664E+03 F= -.22850410E+03 E0= -.22850410E+03  EK= 0.92475E+01 SP= 0.00E+00 SK= 0.00E+00
    172 T=   534. E= -.21942235E+03 F= -.22846963E+03 E0= -.22846963E+03  EK= 0.90473E+01 SP= 0.00E+00 SK= 0.00E+00
    173 T=   517. E= -.21969791E+03 F= -.22844980E+03 E0= -.22844980E+03  EK= 0.87519E+01 SP= 0.00E+00 SK= 0.00E+00
    174 T=   514. E= -.21971815E+03 F= -.22842862E+03 E0= -.22842862E+03  EK= 0.87105E+01 SP= 0.00E+00 SK= 0.00E+00
       N       E                     dE             d eps       ncg     rms          rms(c)
RMM:   1    -0.225828032439E+03    0.29731E+00   -0.13454E+02   129   0.168E+01
RMM:   2    -0.227271700192E+03   -0.14437E+01   -0.12550E+01   129   0.492E+00
RMM:   3    -0.227467865241E+03   -0.19617E+00   -0.18636E+00   129   0.196E+00
RMM:   4    -0.227501537813E+03   -0.33673E-01   -0.32739E-01   258   0.740E-01
RMM:   5    -0.227510522134E+03   -0.89843E-02   -0.88766E-02   258   0.358E-01    0.313E+00
RMM:   6    -0.226201069871E+03    0.13095E+01   -0.17893E+00   309   0.844E-01    0.133E+00
RMM:   7    -0.226086429707E+03    0.11464E+00   -0.25145E-01   258   0.411E-01    0.925E-01
RMM:   8    -0.226001174572E+03    0.85255E-01   -0.82429E-02   258   0.263E-01    0.502E-01
RMM:   9    -0.225983682681E+03    0.17492E-01   -0.35870E-02   256   0.170E-01    0.277E-01
RMM:  10    -0.225980128890E+03    0.35538E-02   -0.14430E-02   231   0.114E-01
    175 T=   531. E= -.21698757E+03 F= -.22598013E+03 E0= -.22596849E+03  EK= 0.89926E+01 SP= 0.00E+00 SK= 0.00E+00
    176 T=   540. E= -.21927421E+03 F= -.22841494E+03 E0= -.22841494E+03  EK= 0.91407E+01 SP= 0.00E+00 SK= 0.00E+00
    177 T=   534. E= -.21939465E+03 F= -.22842983E+03 E0= -.22842983E+03  EK= 0.90352E+01 SP= 0.00E+00 SK= 0.00E+00
    178 T=   531. E= -.21947473E+03 F= -.22847060E+03 E0= -.22847060E+03  EK= 0.89959E+01 SP= 0.00E+00 SK= 0.00E+00
    179 T=   539. E= -.21938275E+03 F= -.22851669E+03 E0= -.22851669E+03  EK= 0.91339E+01 SP= 0.00E+00 SK= 0.00E+00
    180 T=   564. E= -.21899898E+03 F= -.22854554E+03 E0= -.22854554E+03  EK= 0.95466E+01 SP= 0.00E+00 SK= 0.00E+00
    181 T=   578. E= -.21878336E+03 F= -.22856801E+03 E0= -.22856801E+03  EK= 0.97847E+01 SP= 0.00E+00 SK= 0.00E+00
    182 T=   577. E= -.21879684E+03 F= -.22857024E+03 E0= -.22857024E+03  EK= 0.97734E+01 SP= 0.00E+00 SK= 0.00E+00
    183 T=   571. E= -.21888244E+03 F= -.22855062E+03 E0= -.22855062E+03  EK= 0.96682E+01 SP= 0.00E+00 SK= 0.00E+00
    184 T=   566. E= -.21894781E+03 F= -.22853671E+03 E0= -.22853671E+03  EK= 0.95889E+01 SP= 0.00E+00 SK= 0.00E+00
       N       E                     dE             d eps       ncg     rms          rms(c)
RMM:   1    -0.226181572646E+03   -0.19789E+00   -0.13725E+02   129   0.167E+01
RMM:   2    -0.227635872508E+03   -0.14543E+01   -0.12542E+01   129   0.484E+00
RMM:   3    -0.227832779941E+03   -0.19691E+00   -0.18685E+00   129   0.193E+00
RMM:   4    -0.227866885727E+03   -0.34106E-01   -0.33106E-01   258   0.732E-01
RMM:   5    -0.227876087159E+03   -0.92014E-02   -0.90938E-02   258   0.355E-01    0.326E+00
RMM:   6    -0.226459173185E+03    0.14169E+01   -0.18240E+00   308   0.859E-01    0.140E+00
RMM:   7    -0.226302587474E+03    0.15659E+00   -0.29360E-01   258   0.437E-01    0.880E-01
RMM:   8    -0.226228856816E+03    0.73731E-01   -0.10207E-01   258   0.291E-01    0.467E-01
RMM:   9    -0.226218306393E+03    0.10550E-01   -0.39486E-02   256   0.182E-01    0.288E-01
RMM:  10    -0.226213098018E+03    0.52084E-02   -0.13878E-02   231   0.114E-01    0.138E-01
RMM:  11    -0.226213112015E+03   -0.13997E-04   -0.33461E-03   181   0.613E-02
    185 T=   572. E= -.21652645E+03 F= -.22621311E+03 E0= -.22619824E+03  EK= 0.96867E+01 SP= 0.00E+00 SK= 0.00E+00
    186 T=   569. E= -.21879100E+03 F= -.22842229E+03 E0= -.22842229E+03  EK= 0.96313E+01 SP= 0.00E+00 SK= 0.00E+00
    187 T=   562. E= -.21881759E+03 F= -.22833832E+03 E0= -.22833832E+03  EK= 0.95207E+01 SP= 0.00E+00 SK= 0.00E+00
    188 T=   553. E= -.21887167E+03 F= -.22824407E+03 E0= -.22824407E+03  EK= 0.93724E+01 SP= 0.00E+00 SK= 0.00E+00
    189 T=   547. E= -.21888714E+03 F= -.22815681E+03 E0= -.22815681E+03  EK= 0.92697E+01 SP= 0.00E+00 SK= 0.00E+00
    190 T=   542. E= -.21889995E+03 F= -.22807723E+03 E0= -.22807723E+03  EK= 0.91773E+01 SP= 0.00E+00 SK= 0.00E+00
    191 T=   540. E= -.21885213E+03 F= -.22799072E+03 E0= -.22799072E+03  EK= 0.91386E+01 SP= 0.00E+00 SK= 0.00E+00
    192 T=   536. E= -.21882558E+03 F= -.22790968E+03 E0= -.22790968E+03  EK= 0.90841E+01 SP= 0.00E+00 SK= 0.00E+00
    193 T=   524. E= -.21896240E+03 F= -.22783948E+03 E0= -.22783948E+03  EK= 0.88771E+01 SP= 0.00E+00 SK= 0.00E+00
    194 T=   522. E= -.21894299E+03 F= -.22777492E+03 E0= -.22777492E+03  EK= 0.88319E+01 SP= 0.00E+00 SK= 0.00E+00
       N       E                     dE             d eps       ncg     rms          rms(c)
RMM:   1    -0.225022460735E+03    0.11906E+01   -0.12641E+02   129   0.162E+01
RMM:   2    -0.226310782576E+03   -0.12883E+01   -0.11358E+01   129   0.458E+00
RMM:   3    -0.226485413258E+03   -0.17463E+00   -0.16540E+00   129   0.184E+00
RMM:   4    -0.226514872546E+03   -0.29459E-01   -0.28700E-01   258   0.678E-01
RMM:   5    -0.226522671054E+03   -0.77985E-02   -0.77050E-02   258   0.329E-01    0.287E+00
RMM:   6    -0.225525702652E+03    0.99697E+00   -0.13593E+00   300   0.747E-01    0.145E+00
RMM:   7    -0.225356599343E+03    0.16910E+00   -0.27171E-01   258   0.409E-01    0.975E-01
RMM:   8    -0.225258227147E+03    0.98372E-01   -0.12528E-01   258   0.304E-01    0.482E-01
RMM:   9    -0.225242306340E+03    0.15921E-01   -0.41933E-02   257   0.193E-01    0.269E-01
RMM:  10    -0.225239749091E+03    0.25572E-02   -0.13440E-02   230   0.113E-01
    195 T=   522. E= -.21639858E+03 F= -.22523975E+03 E0= -.22523458E+03  EK= 0.88412E+01 SP= 0.00E+00 SK= 0.00E+00
    196 T=   523. E= -.21835341E+03 F= -.22720900E+03 E0= -.22720900E+03  EK= 0.88556E+01 SP= 0.00E+00 SK= 0.00E+00
    197 T=   516. E= -.21844532E+03 F= -.22719005E+03 E0= -.22719005E+03  EK= 0.87447E+01 SP= 0.00E+00 SK= 0.00E+00
    198 T=   506. E= -.21862377E+03 F= -.22719412E+03 E0= -.22719412E+03  EK= 0.85704E+01 SP= 0.00E+00 SK= 0.00E+00
    199 T=   510. E= -.21857835E+03 F= -.22721405E+03 E0= -.22721405E+03  EK= 0.86357E+01 SP= 0.00E+00 SK= 0.00E+00
    200 T=   517. E= -.21849840E+03 F= -.22724944E+03 E0= -.22724944E+03  EK= 0.87510E+01 SP= 0.00E+00 SK= 0.00E+00
    201 T=   512. E= -.21862488E+03 F= -.22729772E+03 E0= -.22729772E+03  EK= 0.86728E+01 SP= 0.00E+00 SK= 0.00E+00
    202 T=   511. E= -.21869097E+03 F= -.22734662E+03 E0= -.22734662E+03  EK= 0.86556E+01 SP= 0.00E+00 SK= 0.00E+00
    203 T=   514. E= -.21868904E+03 F= -.22739651E+03 E0= -.22739651E+03  EK= 0.87075E+01 SP= 0.00E+00 SK= 0.00E+00
    204 T=   516. E= -.21871859E+03 F= -.22746022E+03 E0= -.22746022E+03  EK= 0.87416E+01 SP= 0.00E+00 SK= 0.00E+00
       N       E                     dE             d eps       ncg     rms          rms(c)
RMM:   1    -0.224689235845E+03    0.55307E+00   -0.11357E+02   129   0.153E+01
RMM:   2    -0.225875890224E+03   -0.11867E+01   -0.10422E+01   129   0.439E+00
RMM:   3    -0.226035554385E+03   -0.15966E+00   -0.15176E+00   129   0.175E+00
RMM:   4    -0.226062588122E+03   -0.27034E-01   -0.26350E-01   258   0.649E-01
RMM:   5    -0.226069658526E+03   -0.70704E-02   -0.69912E-02   258   0.314E-01    0.261E+00
RMM:   6    -0.225215887936E+03    0.85377E+00   -0.10272E+00   291   0.660E-01    0.121E+00
RMM:   7    -0.225143247880E+03    0.72640E-01   -0.24688E-01   258   0.403E-01    0.876E-01
RMM:   8    -0.225055436482E+03    0.87811E-01   -0.90688E-02   258   0.266E-01    0.397E-01
RMM:   9    -0.225050047462E+03    0.53890E-02   -0.33460E-02   251   0.169E-01    0.242E-01
RMM:  10    -0.225047754286E+03    0.22932E-02   -0.99218E-03   221   0.982E-02
    205 T=   529. E= -.21609078E+03 F= -.22504775E+03 E0= -.22504761E+03  EK= 0.89570E+01 SP= 0.00E+00 SK= 0.00E+00
    206 T=   546. E= -.21835491E+03 F= -.22759298E+03 E0= -.22759298E+03  EK= 0.92381E+01 SP= 0.00E+00 SK= 0.00E+00
    207 T=   545. E= -.21841997E+03 F= -.22765009E+03 E0= -.22765009E+03  EK= 0.92301E+01 SP= 0.00E+00 SK= 0.00E+00
    208 T=   536. E= -.21862118E+03 F= -.22769164E+03 E0= -.22769164E+03  EK= 0.90705E+01 SP= 0.00E+00 SK= 0.00E+00
    209 T=   529. E= -.21875387E+03 F= -.22770895E+03 E0= -.22770895E+03  EK= 0.89551E+01 SP= 0.00E+00 SK= 0.00E+00
    210 T=   526. E= -.21883547E+03 F= -.22773447E+03 E0= -.22773447E+03  EK= 0.88990E+01 SP= 0.00E+00 SK= 0.00E+00
    211 T=   527. E= -.21882745E+03 F= -.22774811E+03 E0= -.22774811E+03  EK= 0.89207E+01 SP= 0.00E+00 SK= 0.00E+00
    212 T=   530. E= -.21876695E+03 F= -.22774500E+03 E0= -.22774500E+03  EK= 0.89781E+01 SP= 0.00E+00 SK= 0.00E+00
    213 T=   532. E= -.21871472E+03 F= -.22772098E+03 E0= -.22772098E+03  EK= 0.90063E+01 SP= 0.00E+00 SK= 0.00E+00
    214 T=   523. E= -.21882081E+03 F= -.22767777E+03 E0= -.22767777E+03  EK= 0.88570E+01 SP= 0.00E+00 SK= 0.00E+00
       N       E                     dE             d eps       ncg     rms          rms(c)
RMM:   1    -0.224500877200E+03    0.54917E+00   -0.11770E+02   129   0.155E+01
RMM:   2    -0.225720078542E+03   -0.12192E+01   -0.10572E+01   129   0.439E+00
RMM:   3    -0.225882379724E+03   -0.16230E+00   -0.15380E+00   129   0.174E+00
RMM:   4    -0.225909984086E+03   -0.27604E-01   -0.26873E-01   258   0.647E-01
RMM:   5    -0.225917338456E+03   -0.73544E-02   -0.72742E-02   258   0.313E-01    0.279E+00
RMM:   6    -0.224931153425E+03    0.98619E+00   -0.11934E+00   296   0.702E-01    0.134E+00
RMM:   7    -0.224831608223E+03    0.99545E-01   -0.28729E-01   259   0.414E-01    0.992E-01
RMM:   8    -0.224718847884E+03    0.11276E+00   -0.11838E-01   258   0.297E-01    0.442E-01
RMM:   9    -0.224708388650E+03    0.10459E-01   -0.36423E-02   253   0.181E-01    0.269E-01
RMM:  10    -0.224705611288E+03    0.27774E-02   -0.12581E-02   228   0.109E-01
    215 T=   504. E= -.21617543E+03 F= -.22470561E+03 E0= -.22470915E+03  EK= 0.85302E+01 SP= 0.00E+00 SK= 0.00E+00
    216 T=   500. E= -.21914118E+03 F= -.22761480E+03 E0= -.22761480E+03  EK= 0.84736E+01 SP= 0.00E+00 SK= 0.00E+00
    217 T=   501. E= -.21909596E+03 F= -.22758219E+03 E0= -.22758219E+03  EK= 0.84862E+01 SP= 0.00E+00 SK= 0.00E+00
    218 T=   498. E= -.21912567E+03 F= -.22755993E+03 E0= -.22755993E+03  EK= 0.84343E+01 SP= 0.00E+00 SK= 0.00E+00
    219 T=   504. E= -.21901254E+03 F= -.22755050E+03 E0= -.22755050E+03  EK= 0.85380E+01 SP= 0.00E+00 SK= 0.00E+00
    220 T=   518. E= -.21877179E+03 F= -.22755086E+03 E0= -.22755086E+03  EK= 0.87791E+01 SP= 0.00E+00 SK= 0.00E+00
    221 T=   536. E= -.21849410E+03 F= -.22756741E+03 E0= -.22756741E+03  EK= 0.90733E+01 SP= 0.00E+00 SK= 0.00E+00
    222 T=   535. E= -.21853295E+03 F= -.22759084E+03 E0= -.22759084E+03  EK= 0.90579E+01 SP= 0.00E+00 SK= 0.00E+00
    223 T=   539. E= -.21849495E+03 F= -.22761477E+03 E0= -.22761477E+03  EK= 0.91198E+01 SP= 0.00E+00 SK= 0.00E+00
    224 T=   548. E= -.21838958E+03 F= -.22766417E+03 E0= -.22766417E+03  EK= 0.92746E+01 SP= 0.00E+00 SK= 0.00E+00
       N       E                     dE             d eps       ncg     rms          rms(c)
RMM:   1    -0.224342054392E+03    0.36633E+00   -0.11356E+02   129   0.152E+01
RMM:   2    -0.225453963031E+03   -0.11119E+01   -0.98754E+00   129   0.423E+00
RMM:   3    -0.225601734423E+03   -0.14777E+00   -0.14131E+00   129   0.166E+00
RMM:   4    -0.225626746958E+03   -0.25013E-01   -0.24410E-01   258   0.614E-01
RMM:   5    -0.225633321145E+03   -0.65742E-02   -0.65034E-02   258   0.296E-01    0.267E+00
RMM:   6    -0.224702859783E+03    0.93046E+00   -0.11030E+00   300   0.669E-01    0.127E+00
RMM:   7    -0.224610802157E+03    0.92058E-01   -0.26197E-01   258   0.399E-01    0.907E-01
RMM:   8    -0.224517926720E+03    0.92875E-01   -0.99233E-02   258   0.274E-01    0.442E-01
RMM:   9    -0.224504109992E+03    0.13817E-01   -0.35439E-02   254   0.172E-01    0.245E-01
RMM:  10    -0.224502456207E+03    0.16538E-02   -0.11633E-02   223   0.104E-01
    225 T=   543. E= -.21531000E+03 F= -.22450246E+03 E0= -.22449874E+03  EK= 0.91925E+01 SP= 0.00E+00 SK= 0.00E+00
    226 T=   550. E= -.21844434E+03 F= -.22775099E+03 E0= -.22775099E+03  EK= 0.93067E+01 SP= 0.00E+00 SK= 0.00E+00
    227 T=   567. E= -.21816238E+03 F= -.22776663E+03 E0= -.22776663E+03  EK= 0.96043E+01 SP= 0.00E+00 SK= 0.00E+00
    228 T=   577. E= -.21802496E+03 F= -.22779109E+03 E0= -.22779109E+03  EK= 0.97661E+01 SP= 0.00E+00 SK= 0.00E+00
    229 T=   579. E= -.21800155E+03 F= -.22781058E+03 E0= -.22781058E+03  EK= 0.98090E+01 SP= 0.00E+00 SK= 0.00E+00
    230 T=   582. E= -.21796945E+03 F= -.22782166E+03 E0= -.22782166E+03  EK= 0.98522E+01 SP= 0.00E+00 SK= 0.00E+00
    231 T=   582. E= -.21796123E+03 F= -.22782254E+03 E0= -.22782254E+03  EK= 0.98613E+01 SP= 0.00E+00 SK= 0.00E+00
    232 T=   575. E= -.21808465E+03 F= -.22782060E+03 E0= -.22782060E+03  EK= 0.97360E+01 SP= 0.00E+00 SK= 0.00E+00
    233 T=   565. E= -.21823270E+03 F= -.22779382E+03 E0= -.22779382E+03  EK= 0.95611E+01 SP= 0.00E+00 SK= 0.00E+00
    234 T=   550. E= -.21844402E+03 F= -.22776163E+03 E0= -.22776163E+03  EK= 0.93176E+01 SP= 0.00E+00 SK= 0.00E+00
       N       E                     dE             d eps       ncg     rms          rms(c)
RMM:   1    -0.224268595546E+03    0.23551E+00   -0.12397E+02   129   0.157E+01
RMM:   2    -0.225448221328E+03   -0.11796E+01   -0.10423E+01   129   0.429E+00
RMM:   3    -0.225605405791E+03   -0.15718E+00   -0.14980E+00   129   0.169E+00
RMM:   4    -0.225632152720E+03   -0.26747E-01   -0.26092E-01   258   0.627E-01
RMM:   5    -0.225639306160E+03   -0.71534E-02   -0.70766E-02   258   0.302E-01    0.291E+00
RMM:   6    -0.224538477701E+03    0.11008E+01   -0.13976E+00   302   0.738E-01    0.147E+00
RMM:   7    -0.224410956772E+03    0.12752E+00   -0.30501E-01   258   0.418E-01    0.109E+00
RMM:   8    -0.224259897854E+03    0.15106E+00   -0.14092E-01   258   0.316E-01    0.490E-01
RMM:   9    -0.224244087426E+03    0.15810E-01   -0.51336E-02   257   0.206E-01    0.288E-01
RMM:  10    -0.224240506522E+03    0.35809E-02   -0.16752E-02   233   0.124E-01
    235 T=   553. E= -.21487798E+03 F= -.22424051E+03 E0= -.22423448E+03  EK= 0.93625E+01 SP= 0.00E+00 SK= 0.00E+00
    236 T=   571. E= -.21802960E+03 F= -.22769800E+03 E0= -.22769800E+03  EK= 0.96684E+01 SP= 0.00E+00 SK= 0.00E+00
    237 T=   573. E= -.21793319E+03 F= -.22764177E+03 E0= -.22764177E+03  EK= 0.97086E+01 SP= 0.00E+00 SK= 0.00E+00
    238 T=   553. E= -.21819046E+03 F= -.22755895E+03 E0= -.22755895E+03  EK= 0.93685E+01 SP= 0.00E+00 SK= 0.00E+00
    239 T=   523. E= -.21860233E+03 F= -.22745899E+03 E0= -.22745899E+03  EK= 0.88567E+01 SP= 0.00E+00 SK= 0.00E+00
    240 T=   501. E= -.21887533E+03 F= -.22735946E+03 E0= -.22735946E+03  EK= 0.84841E+01 SP= 0.00E+00 SK= 0.00E+00
    241 T=   501. E= -.21876355E+03 F= -.22725352E+03 E0= -.22725352E+03  EK= 0.84900E+01 SP= 0.00E+00 SK= 0.00E+00
    242 T=   507. E= -.21856014E+03 F= -.22714636E+03 E0= -.22714636E+03  EK= 0.85862E+01 SP= 0.00E+00 SK= 0.00E+00
    243 T=   503. E= -.21852901E+03 F= -.22705145E+03 E0= -.22705145E+03  EK= 0.85224E+01 SP= 0.00E+00 SK= 0.00E+00
    244 T=   503. E= -.21845421E+03 F= -.22697380E+03 E0= -.22697380E+03  EK= 0.85196E+01 SP= 0.00E+00 SK= 0.00E+00
       N       E                     dE             d eps       ncg     rms          rms(c)
RMM:   1    -0.223209047014E+03    0.10350E+01   -0.11208E+02   129   0.150E+01
RMM:   2    -0.224293272903E+03   -0.10842E+01   -0.94770E+00   129   0.406E+00
RMM:   3    -0.224437292540E+03   -0.14402E+00   -0.13672E+00   129   0.160E+00
RMM:   4    -0.224461987590E+03   -0.24695E-01   -0.24081E-01   258   0.595E-01
RMM:   5    -0.224468702739E+03   -0.67151E-02   -0.66447E-02   258   0.288E-01    0.273E+00
RMM:   6    -0.223506864503E+03    0.96184E+00   -0.12054E+00   296   0.687E-01    0.130E+00
RMM:   7    -0.223454061417E+03    0.52803E-01   -0.27972E-01   258   0.406E-01    0.107E+00
RMM:   8    -0.223299844520E+03    0.15422E+00   -0.10906E-01   258   0.285E-01    0.436E-01
RMM:   9    -0.223292939695E+03    0.69048E-02   -0.44046E-02   258   0.192E-01    0.239E-01
RMM:  10    -0.223291634574E+03    0.13051E-02   -0.12079E-02   222   0.111E-01
    245 T=   501. E= -.21480212E+03 F= -.22329163E+03 E0= -.22328271E+03  EK= 0.84895E+01 SP= 0.00E+00 SK= 0.00E+00
    246 T=   494. E= -.21846883E+03 F= -.22683488E+03 E0= -.22683488E+03  EK= 0.83660E+01 SP= 0.00E+00 SK= 0.00E+00
    247 T=   501. E= -.21832465E+03 F= -.22681568E+03 E0= -.22681568E+03  EK= 0.84910E+01 SP= 0.00E+00 SK= 0.00E+00
    248 T=   508. E= -.21820967E+03 F= -.22681285E+03 E0= -.22681285E+03  EK= 0.86032E+01 SP= 0.00E+00 SK= 0.00E+00
    249 T=   509. E= -.21820954E+03 F= -.22682066E+03 E0= -.22682066E+03  EK= 0.86111E+01 SP= 0.00E+00 SK= 0.00E+00
    250 T=   510. E= -.21821668E+03 F= -.22685538E+03 E0= -.22685538E+03  EK= 0.86387E+01 SP= 0.00E+00 SK= 0.00E+00
    251 T=   518. E= -.21813243E+03 F= -.22691026E+03 E0= -.22691026E+03  EK= 0.87778E+01 SP= 0.00E+00 SK= 0.00E+00
    252 T=   535. E= -.21789898E+03 F= -.22696415E+03 E0= -.22696415E+03  EK= 0.90652E+01 SP= 0.00E+00 SK= 0.00E+00
    253 T=   549. E= -.21771752E+03 F= -.22701764E+03 E0= -.22701764E+03  EK= 0.93001E+01 SP= 0.00E+00 SK= 0.00E+00
    254 T=   549. E= -.21776540E+03 F= -.22706947E+03 E0= -.22706947E+03  EK= 0.93041E+01 SP= 0.00E+00 SK= 0.00E+00
    255 T=   543. E= -.21793957E+03 F= -.22712596E+03 E0= -.22712596E+03  EK= 0.91864E+01 SP= 0.00E+00 SK= 0.00E+00
    256 T=   545. E= -.21796005E+03 F= -.22719061E+03 E0= -.22719061E+03  EK= 0.92306E+01 SP= 0.00E+00 SK= 0.00E+00
       N       E                     dE             d eps       ncg     rms          rms(c)
RMM:   1    -0.222937840632E+03    0.35510E+00   -0.14664E+02   129   0.171E+01
RMM:   2    -0.224359740047E+03   -0.14219E+01   -0.12317E+01   129   0.463E+00
RMM:   3    -0.224545417016E+03   -0.18568E+00   -0.17626E+00   129   0.180E+00
RMM:   4    -0.224577343802E+03   -0.31927E-01   -0.31087E-01   258   0.673E-01
RMM:   5    -0.224586083554E+03   -0.87398E-02   -0.86476E-02   258   0.323E-01    0.306E+00
RMM:   6    -0.223477664102E+03    0.11084E+01   -0.18284E+00   303   0.798E-01    0.169E+00
RMM:   7    -0.223235855569E+03    0.24181E+00   -0.34362E-01   259   0.432E-01    0.114E+00
RMM:   8    -0.223092105965E+03    0.14375E+00   -0.14869E-01   258   0.323E-01    0.587E-01
RMM:   9    -0.223067677114E+03    0.24429E-01   -0.58968E-02   258   0.215E-01    0.315E-01
RMM:  10    -0.223065588678E+03    0.20884E-02   -0.20627E-02   244   0.139E-01
    257 T=   545. E= -.21383807E+03 F= -.22306559E+03 E0= -.22305327E+03  EK= 0.92275E+01 SP= 0.00E+00 SK= 0.00E+00
    258 T=   548. E= -.21801596E+03 F= -.22729047E+03 E0= -.22729047E+03  EK= 0.92745E+01 SP= 0.00E+00 SK= 0.00E+00
    259 T=   552. E= -.21797526E+03 F= -.22732847E+03 E0= -.22732847E+03  EK= 0.93532E+01 SP= 0.00E+00 SK= 0.00E+00
    260 T=   546. E= -.21811272E+03 F= -.22735883E+03 E0= -.22735883E+03  EK= 0.92461E+01 SP= 0.00E+00 SK= 0.00E+00
    261 T=   542. E= -.21820436E+03 F= -.22738899E+03 E0= -.22738899E+03  EK= 0.91846E+01 SP= 0.00E+00 SK= 0.00E+00
    262 T=   542. E= -.21821465E+03 F= -.22740048E+03 E0= -.22740048E+03  EK= 0.91858E+01 SP= 0.00E+00 SK= 0.00E+00
    263 T=   536. E= -.21832846E+03 F= -.22741120E+03 E0= -.22741120E+03  EK= 0.90827E+01 SP= 0.00E+00 SK= 0.00E+00
    264 T=   534. E= -.21836363E+03 F= -.22741109E+03 E0= -.22741109E+03  EK= 0.90475E+01 SP= 0.00E+00 SK= 0.00E+00
    265 T=   536. E= -.21832033E+03 F= -.22739315E+03 E0= -.22739315E+03  EK= 0.90728E+01 SP= 0.00E+00 SK= 0.00E+00
    266 T=   536. E= -.21831584E+03 F= -.22738380E+03 E0= -.22738380E+03  EK= 0.90680E+01 SP= 0.00E+00 SK= 0.00E+00
       N       E                     dE             d eps       ncg     rms          rms(c)
RMM:   1    -0.222788642375E+03    0.27903E+00   -0.11550E+02   129   0.149E+01
RMM:   2    -0.223865585824E+03   -0.10769E+01   -0.94889E+00   129   0.399E+00
RMM:   3    -0.224009052817E+03   -0.14347E+00   -0.13556E+00   129   0.156E+00
RMM:   4    -0.224033788816E+03   -0.24736E-01   -0.24081E-01   258   0.579E-01
RMM:   5    -0.224040665736E+03   -0.68769E-02   -0.68025E-02   258   0.279E-01    0.279E+00
RMM:   6    -0.222951723814E+03    0.10889E+01   -0.14202E+00   307   0.714E-01    0.132E+00
RMM:   7    -0.222856979601E+03    0.94744E-01   -0.27549E-01   258   0.396E-01    0.945E-01
RMM:   8    -0.222740969342E+03    0.11601E+00   -0.10622E-01   258   0.277E-01    0.456E-01
RMM:   9    -0.222730018604E+03    0.10951E-01   -0.43999E-02   257   0.185E-01    0.256E-01
RMM:  10    -0.222727139419E+03    0.28792E-02   -0.16377E-02   236   0.118E-01
    267 T=   536. E= -.21364404E+03 F= -.22272714E+03 E0= -.22272529E+03  EK= 0.90831E+01 SP= 0.00E+00 SK= 0.00E+00
    268 T=   530. E= -.21838685E+03 F= -.22736207E+03 E0= -.22736207E+03  EK= 0.89752E+01 SP= 0.00E+00 SK= 0.00E+00
    269 T=   522. E= -.21850505E+03 F= -.22733991E+03 E0= -.22733991E+03  EK= 0.88349E+01 SP= 0.00E+00 SK= 0.00E+00
    270 T=   520. E= -.21850111E+03 F= -.22731136E+03 E0= -.22731136E+03  EK= 0.88103E+01 SP= 0.00E+00 SK= 0.00E+00
    271 T=   522. E= -.21843860E+03 F= -.22728609E+03 E0= -.22728609E+03  EK= 0.88475E+01 SP= 0.00E+00 SK= 0.00E+00
    272 T=   527. E= -.21832962E+03 F= -.22724531E+03 E0= -.22724531E+03  EK= 0.89157E+01 SP= 0.00E+00 SK= 0.00E+00
       N       E                     dE             d eps       ncg     rms          rms(c)
RMM:   1    -0.222642361420E+03    0.87657E-01   -0.43174E+01   129   0.925E+00
RMM:   2    -0.223038190961E+03   -0.39583E+00   -0.36157E+00   129   0.248E+00
RMM:   3    -0.223092310111E+03   -0.54119E-01   -0.51893E-01   129   0.976E-01
RMM:   4    -0.223101616488E+03   -0.93064E-02   -0.91106E-02   258   0.361E-01
RMM:   5    -0.223104112649E+03   -0.24962E-02   -0.24732E-02   237   0.174E-01    0.166E+00
RMM:   6    -0.222755214723E+03    0.34890E+00   -0.46058E-01   300   0.417E-01    0.810E-01
RMM:   7    -0.222726556009E+03    0.28659E-01   -0.98964E-02   258   0.242E-01    0.609E-01
RMM:   8    -0.222677986111E+03    0.48570E-01   -0.40024E-02   257   0.172E-01    0.269E-01
RMM:   9    -0.222676402177E+03    0.15839E-02   -0.18148E-02   243   0.122E-01
    273 T=   531. E= -.21368100E+03 F= -.22267640E+03 E0= -.22267885E+03  EK= 0.89954E+01 SP= 0.00E+00 SK= 0.00E+00
    274 T=   537. E= -.21775352E+03 F= -.22684106E+03 E0= -.22684106E+03  EK= 0.90875E+01 SP= 0.00E+00 SK= 0.00E+00
    275 T=   543. E= -.21757976E+03 F= -.22677392E+03 E0= -.22677392E+03  EK= 0.91942E+01 SP= 0.00E+00 SK= 0.00E+00
    276 T=   549. E= -.21740872E+03 F= -.22669974E+03 E0= -.22669974E+03  EK= 0.92910E+01 SP= 0.00E+00 SK= 0.00E+00
    277 T=   552. E= -.21728302E+03 F= -.22662398E+03 E0= -.22662398E+03  EK= 0.93410E+01 SP= 0.00E+00 SK= 0.00E+00
    278 T=   572. E= -.21688880E+03 F= -.22656835E+03 E0= -.22656835E+03  EK= 0.96795E+01 SP= 0.00E+00 SK= 0.00E+00
    279 T=   588. E= -.21655309E+03 F= -.22650209E+03 E0= -.22650209E+03  EK= 0.99490E+01 SP= 0.00E+00 SK= 0.00E+00
    280 T=   581. E= -.21660199E+03 F= -.22644479E+03 E0= -.22644479E+03  EK= 0.98428E+01 SP= 0.00E+00 SK= 0.00E+00
    281 T=   569. E= -.21673846E+03 F= -.22638022E+03 E0= -.22638022E+03  EK= 0.96418E+01 SP= 0.00E+00 SK= 0.00E+00
    282 T=   568. E= -.21671308E+03 F= -.22632730E+03 E0= -.22632730E+03  EK= 0.96142E+01 SP= 0.00E+00 SK= 0.00E+00
    283 T=   573. E= -.21655554E+03 F= -.22626167E+03 E0= -.22626167E+03  EK= 0.97061E+01 SP= 0.00E+00 SK= 0.00E+00
    284 T=   568. E= -.21659258E+03 F= -.22620600E+03 E0= -.22620600E+03  EK= 0.96134E+01 SP= 0.00E+00 SK= 0.00E+00
    285 T=   565. E= -.21660352E+03 F= -.22616800E+03 E0= -.22616800E+03  EK= 0.95645E+01 SP= 0.00E+00 SK= 0.00E+00
       N       E                     dE             d eps       ncg     rms          rms(c)
RMM:   1    -0.221149937301E+03    0.15280E+01   -0.16888E+02   129   0.180E+01
RMM:   2    -0.222742681724E+03   -0.15927E+01   -0.13785E+01   129   0.479E+00
RMM:   3    -0.222950610074E+03   -0.20793E+00   -0.19638E+00   129   0.185E+00
RMM:   4    -0.222986447841E+03   -0.35838E-01   -0.34844E-01   258   0.695E-01
RMM:   5    -0.222996252431E+03   -0.98046E-02   -0.96971E-02   258   0.334E-01    0.314E+00
RMM:   6    -0.221686051690E+03    0.13102E+01   -0.16144E+00   299   0.783E-01    0.152E+00
RMM:   7    -0.221571166160E+03    0.11489E+00   -0.39892E-01   258   0.486E-01    0.108E+00
RMM:   8    -0.221422515002E+03    0.14865E+00   -0.15747E-01   258   0.342E-01    0.493E-01
RMM:   9    -0.221417628241E+03    0.48868E-02   -0.56738E-02   258   0.220E-01    0.286E-01
RMM:  10    -0.221416010654E+03    0.16176E-02   -0.18224E-02   243   0.137E-01
    286 T=   566. E= -.21183294E+03 F= -.22141601E+03 E0= -.22142335E+03  EK= 0.95831E+01 SP= 0.00E+00 SK= 0.00E+00
    287 T=   565. E= -.21655495E+03 F= -.22611917E+03 E0= -.22611917E+03  EK= 0.95642E+01 SP= 0.00E+00 SK= 0.00E+00
    288 T=   567. E= -.21651174E+03 F= -.22611967E+03 E0= -.22611967E+03  EK= 0.96079E+01 SP= 0.00E+00 SK= 0.00E+00
    289 T=   574. E= -.21641004E+03 F= -.22612619E+03 E0= -.22612619E+03  EK= 0.97162E+01 SP= 0.00E+00 SK= 0.00E+00
    290 T=   581. E= -.21630066E+03 F= -.22613700E+03 E0= -.22613700E+03  EK= 0.98363E+01 SP= 0.00E+00 SK= 0.00E+00
    291 T=   586. E= -.21626272E+03 F= -.22618170E+03 E0= -.22618170E+03  EK= 0.99190E+01 SP= 0.00E+00 SK= 0.00E+00
    292 T=   584. E= -.21634006E+03 F= -.22623672E+03 E0= -.22623672E+03  EK= 0.98967E+01 SP= 0.00E+00 SK= 0.00E+00
    293 T=   591. E= -.21631718E+03 F= -.22631689E+03 E0= -.22631689E+03  EK= 0.99997E+01 SP= 0.00E+00 SK= 0.00E+00
    294 T=   583. E= -.21653181E+03 F= -.22640592E+03 E0= -.22640592E+03  EK= 0.98741E+01 SP= 0.00E+00 SK= 0.00E+00
    295 T=   574. E= -.21677019E+03 F= -.22648397E+03 E0= -.22648397E+03  EK= 0.97138E+01 SP= 0.00E+00 SK= 0.00E+00
    296 T=   582. E= -.21669052E+03 F= -.22655259E+03 E0= -.22655259E+03  EK= 0.98621E+01 SP= 0.00E+00 SK= 0.00E+00
    297 T=   587. E= -.21665881E+03 F= -.22660669E+03 E0= -.22660669E+03  EK= 0.99479E+01 SP= 0.00E+00 SK= 0.00E+00
    298 T=   591. E= -.21662693E+03 F= -.22663231E+03 E0= -.22663231E+03  EK= 0.10005E+02 SP= 0.00E+00 SK= 0.00E+00
    299 T=   593. E= -.21660956E+03 F= -.22664638E+03 E0= -.22664638E+03  EK= 0.10037E+02 SP= 0.00E+00 SK= 0.00E+00
       N       E                     dE             d eps       ncg     rms          rms(c)
RMM:   1    -0.220890525419E+03    0.52710E+00   -0.18525E+02   129   0.187E+01
RMM:   2    -0.222544285891E+03   -0.16538E+01   -0.14481E+01   129   0.487E+00
RMM:   3    -0.222760543657E+03   -0.21626E+00   -0.20290E+00   129   0.186E+00
RMM:   4    -0.222797473536E+03   -0.36930E-01   -0.35867E-01   258   0.701E-01
RMM:   5    -0.222807561969E+03   -0.10088E-01   -0.99689E-02   258   0.338E-01    0.316E+00
RMM:   6    -0.221511690290E+03    0.12959E+01   -0.14096E+00   280   0.772E-01    0.157E+00
RMM:   7    -0.221351400364E+03    0.16029E+00   -0.60526E-01   258   0.599E-01    0.930E-01
RMM:   8    -0.221265046254E+03    0.86354E-01   -0.18525E-01   258   0.384E-01    0.463E-01
RMM:   9    -0.221265505712E+03   -0.45946E-03   -0.54352E-02   258   0.235E-01    0.287E-01
RMM:  10    -0.221265402538E+03    0.10317E-03   -0.17176E-02   238   0.137E-01
    300 T=   586. E= -.21134554E+03 F= -.22126540E+03 E0= -.22127510E+03  EK= 0.99199E+01 SP= 0.00E+00 SK= 0.00E+00
    301 T=   586. E= -.21671938E+03 F= -.22664292E+03 E0= -.22664292E+03  EK= 0.99235E+01 SP= 0.00E+00 SK= 0.00E+00
    302 T=   591. E= -.21662147E+03 F= -.22662383E+03 E0= -.22662383E+03  EK= 0.10002E+02 SP= 0.00E+00 SK= 0.00E+00
    303 T=   588. E= -.21665039E+03 F= -.22660571E+03 E0= -.22660571E+03  EK= 0.99553E+01 SP= 0.00E+00 SK= 0.00E+00
    304 T=   588. E= -.21664383E+03 F= -.22659344E+03 E0= -.22659344E+03  EK= 0.99496E+01 SP= 0.00E+00 SK= 0.00E+00
    305 T=   583. E= -.21672009E+03 F= -.22659235E+03 E0= -.22659235E+03  EK= 0.98723E+01 SP= 0.00E+00 SK= 0.00E+00
    306 T=   575. E= -.21686973E+03 F= -.22660459E+03 E0= -.22660459E+03  EK= 0.97349E+01 SP= 0.00E+00 SK= 0.00E+00
    307 T=   568. E= -.21699243E+03 F= -.22661522E+03 E0= -.22661522E+03  EK= 0.96228E+01 SP= 0.00E+00 SK= 0.00E+00
    308 T=   562. E= -.21712600E+03 F= -.22663910E+03 E0= -.22663910E+03  EK= 0.95131E+01 SP= 0.00E+00 SK= 0.00E+00
    309 T=   567. E= -.21705979E+03 F= -.22665259E+03 E0= -.22665259E+03  EK= 0.95928E+01 SP= 0.00E+00 SK= 0.00E+00
       N       E                     dE             d eps       ncg     rms          rms(c)
RMM:   1    -0.220751149834E+03    0.51436E+00   -0.10662E+02   129   0.143E+01
RMM:   2    -0.221692013690E+03   -0.94086E+00   -0.83956E+00   129   0.369E+00
RMM:   3    -0.221816190918E+03   -0.12418E+00   -0.11757E+00   129   0.142E+00
RMM:   4    -0.221837261867E+03   -0.21071E-01   -0.20601E-01   258   0.529E-01
RMM:   5    -0.221842982621E+03   -0.57208E-02   -0.56622E-02   258   0.254E-01    0.244E+00
RMM:   6    -0.221095957362E+03    0.74703E+00   -0.93283E-01   297   0.610E-01    0.119E+00
RMM:   7    -0.221033238978E+03    0.62718E-01   -0.24992E-01   258   0.390E-01    0.818E-01
RMM:   8    -0.220962562267E+03    0.70677E-01   -0.88067E-02   258   0.264E-01    0.415E-01
RMM:   9    -0.220961026981E+03    0.15353E-02   -0.36298E-02   258   0.179E-01
    310 T=   570. E= -.21130721E+03 F= -.22096103E+03 E0= -.22095416E+03  EK= 0.96538E+01 SP= 0.00E+00 SK= 0.00E+00
    311 T=   569. E= -.21706672E+03 F= -.22670323E+03 E0= -.22670323E+03  EK= 0.96365E+01 SP= 0.00E+00 SK= 0.00E+00
    312 T=   564. E= -.21720461E+03 F= -.22674647E+03 E0= -.22674647E+03  EK= 0.95419E+01 SP= 0.00E+00 SK= 0.00E+00
    313 T=   558. E= -.21732158E+03 F= -.22677772E+03 E0= -.22677772E+03  EK= 0.94561E+01 SP= 0.00E+00 SK= 0.00E+00
    314 T=   569. E= -.21716387E+03 F= -.22679916E+03 E0= -.22679916E+03  EK= 0.96353E+01 SP= 0.00E+00 SK= 0.00E+00
    315 T=   587. E= -.21688189E+03 F= -.22682411E+03 E0= -.22682411E+03  EK= 0.99422E+01 SP= 0.00E+00 SK= 0.00E+00
    316 T=   592. E= -.21679060E+03 F= -.22681501E+03 E0= -.22681501E+03  EK= 0.10024E+02 SP= 0.00E+00 SK= 0.00E+00
    317 T=   587. E= -.21686979E+03 F= -.22680650E+03 E0= -.22680650E+03  EK= 0.99367E+01 SP= 0.00E+00 SK= 0.00E+00
    318 T=   588. E= -.21684645E+03 F= -.22679608E+03 E0= -.22679608E+03  EK= 0.99496E+01 SP= 0.00E+00 SK= 0.00E+00
    319 T=   599. E= -.21663984E+03 F= -.22678076E+03 E0= -.22678076E+03  EK= 0.10141E+02 SP= 0.00E+00 SK= 0.00E+00
    320 T=   604. E= -.21653343E+03 F= -.22676873E+03 E0= -.22676873E+03  EK= 0.10235E+02 SP= 0.00E+00 SK= 0.00E+00
    321 T=   595. E= -.21669817E+03 F= -.22676897E+03 E0= -.22676897E+03  EK= 0.10071E+02 SP= 0.00E+00 SK= 0.00E+00
    322 T=   587. E= -.21685729E+03 F= -.22678981E+03 E0= -.22678981E+03  EK= 0.99325E+01 SP= 0.00E+00 SK= 0.00E+00
    323 T=   586. E= -.21691942E+03 F= -.22684225E+03 E0= -.22684225E+03  EK= 0.99228E+01 SP= 0.00E+00 SK= 0.00E+00
    324 T=   583. E= -.21703888E+03 F= -.22691181E+03 E0= -.22691181E+03  EK= 0.98729E+01 SP= 0.00E+00 SK= 0.00E+00
    325 T=   586. E= -.21707554E+03 F= -.22700000E+03 E0= -.22700000E+03  EK= 0.99245E+01 SP= 0.00E+00 SK= 0.00E+00
    326 T=   592. E= -.21706022E+03 F= -.22708506E+03 E0= -.22708506E+03  EK= 0.10025E+02 SP= 0.00E+00 SK= 0.00E+00
    327 T=   607. E= -.21688913E+03 F= -.22716379E+03 E0= -.22716379E+03  EK= 0.10275E+02 SP= 0.00E+00 SK= 0.00E+00
    328 T=   616. E= -.21679418E+03 F= -.22723291E+03 E0= -.22723291E+03  EK= 0.10439E+02 SP= 0.00E+00 SK= 0.00E+00
    329 T=   623. E= -.21673751E+03 F= -.22729018E+03 E0= -.22729018E+03  EK= 0.10553E+02 SP= 0.00E+00 SK= 0.00E+00
    330 T=   632. E= -.21662858E+03 F= -.22732909E+03 E0= -.22732909E+03  EK= 0.10701E+02 SP= 0.00E+00 SK= 0.00E+00
    331 T=   636. E= -.21660427E+03 F= -.22738041E+03 E0= -.22738041E+03  EK= 0.10776E+02 SP= 0.00E+00 SK= 0.00E+00
    332 T=   640. E= -.21659332E+03 F= -.22742370E+03 E0= -.22742370E+03  EK= 0.10830E+02 SP= 0.00E+00 SK= 0.00E+00
       N       E                     dE             d eps       ncg     rms          rms(c)
RMM:   1    -0.220569686431E+03    0.39288E+00   -0.34973E+02   129   0.250E+01
RMM:   2    -0.223790251409E+03   -0.32206E+01   -0.27298E+01   129   0.650E+00
RMM:   3    -0.224213381002E+03   -0.42313E+00   -0.39149E+00   129   0.241E+00
RMM:   4    -0.224289661343E+03   -0.76280E-01   -0.73222E-01   258   0.969E-01
RMM:   5    -0.224311717558E+03   -0.22056E-01   -0.21709E-01   260   0.470E-01    0.438E+00
RMM:   6    -0.221837876060E+03    0.24738E+01   -0.36996E+00   299   0.115E+00    0.232E+00
RMM:   7    -0.221483582349E+03    0.35429E+00   -0.78165E-01   258   0.665E-01    0.165E+00
RMM:   8    -0.221213596353E+03    0.26999E+00   -0.38516E-01   258   0.512E-01    0.876E-01
RMM:   9    -0.221187236106E+03    0.26360E-01   -0.15357E-01   258   0.348E-01    0.512E-01
RMM:  10    -0.221187668318E+03   -0.43221E-03   -0.54519E-02   258   0.230E-01    0.286E-01
RMM:  11    -0.221192792637E+03   -0.51243E-02   -0.17865E-02   243   0.144E-01    0.182E-01
RMM:  12    -0.221194363946E+03   -0.15713E-02   -0.66170E-03   190   0.912E-02
    333 T=   639. E= -.21036724E+03 F= -.22119436E+03 E0= -.22117006E+03  EK= 0.10827E+02 SP= 0.00E+00 SK= 0.00E+00
    334 T=   656. E= -.21635234E+03 F= -.22746224E+03 E0= -.22746224E+03  EK= 0.11110E+02 SP= 0.00E+00 SK= 0.00E+00
    335 T=   659. E= -.21631207E+03 F= -.22747745E+03 E0= -.22747745E+03  EK= 0.11165E+02 SP= 0.00E+00 SK= 0.00E+00
    336 T=   649. E= -.21650796E+03 F= -.22749186E+03 E0= -.22749186E+03  EK= 0.10984E+02 SP= 0.00E+00 SK= 0.00E+00
    337 T=   646. E= -.21655348E+03 F= -.22749411E+03 E0= -.22749411E+03  EK= 0.10941E+02 SP= 0.00E+00 SK= 0.00E+00
    338 T=   639. E= -.21666809E+03 F= -.22749147E+03 E0= -.22749147E+03  EK= 0.10823E+02 SP= 0.00E+00 SK= 0.00E+00
    339 T=   623. E= -.21694280E+03 F= -.22748481E+03 E0= -.22748481E+03  EK= 0.10542E+02 SP= 0.00E+00 SK= 0.00E+00
    340 T=   618. E= -.21701977E+03 F= -.22747897E+03 E0= -.22747897E+03  EK= 0.10459E+02 SP= 0.00E+00 SK= 0.00E+00
    341 T=   611. E= -.21711584E+03 F= -.22746287E+03 E0= -.22746287E+03  EK= 0.10347E+02 SP= 0.00E+00 SK= 0.00E+00
    342 T=   598. E= -.21733466E+03 F= -.22745619E+03 E0= -.22745619E+03  EK= 0.10122E+02 SP= 0.00E+00 SK= 0.00E+00
       N       E                     dE             d eps       ncg     rms          rms(c)
RMM:   1    -0.220819511869E+03    0.37328E+00   -0.10479E+02   129   0.139E+01
RMM:   2    -0.221722406788E+03   -0.90289E+00   -0.79764E+00   129   0.351E+00
RMM:   3    -0.221837649759E+03   -0.11524E+00   -0.11027E+00   129   0.133E+00
RMM:   4    -0.221857491499E+03   -0.19842E-01   -0.19418E-01   258   0.504E-01
RMM:   5    -0.221862878580E+03   -0.53871E-02   -0.53347E-02   258   0.243E-01    0.245E+00
RMM:   6    -0.221223446814E+03    0.63943E+00   -0.11306E+00   303   0.648E-01    0.137E+00
RMM:   7    -0.221097515631E+03    0.12593E+00   -0.24505E-01   258   0.371E-01    0.966E-01
RMM:   8    -0.221012676802E+03    0.84839E-01   -0.13516E-01   258   0.317E-01    0.482E-01
RMM:   9    -0.221011632881E+03    0.10439E-02   -0.51560E-02   258   0.218E-01    0.300E-01
RMM:  10    -0.221015840595E+03   -0.42077E-02   -0.23617E-02   256   0.167E-01
    343 T=   585. E= -.21111062E+03 F= -.22101584E+03 E0= -.22098658E+03  EK= 0.99052E+01 SP= 0.00E+00 SK= 0.00E+00
    344 T=   592. E= -.21631756E+03 F= -.22633472E+03 E0= -.22633472E+03  EK= 0.10017E+02 SP= 0.00E+00 SK= 0.00E+00
    345 T=   598. E= -.21615730E+03 F= -.22628886E+03 E0= -.22628886E+03  EK= 0.10132E+02 SP= 0.00E+00 SK= 0.00E+00
    346 T=   595. E= -.21616742E+03 F= -.22623866E+03 E0= -.22623866E+03  EK= 0.10071E+02 SP= 0.00E+00 SK= 0.00E+00
    347 T=   587. E= -.21624507E+03 F= -.22619080E+03 E0= -.22619080E+03  EK= 0.99457E+01 SP= 0.00E+00 SK= 0.00E+00
    348 T=   570. E= -.21648038E+03 F= -.22612972E+03 E0= -.22612972E+03  EK= 0.96493E+01 SP= 0.00E+00 SK= 0.00E+00
    349 T=   554. E= -.21669800E+03 F= -.22607248E+03 E0= -.22607248E+03  EK= 0.93745E+01 SP= 0.00E+00 SK= 0.00E+00
    350 T=   541. E= -.21685898E+03 F= -.22602401E+03 E0= -.22602401E+03  EK= 0.91650E+01 SP= 0.00E+00 SK= 0.00E+00
    351 T=   534. E= -.21695140E+03 F= -.22598598E+03 E0= -.22598598E+03  EK= 0.90346E+01 SP= 0.00E+00 SK= 0.00E+00
    352 T=   539. E= -.21682234E+03 F= -.22594573E+03 E0= -.22594573E+03  EK= 0.91234E+01 SP= 0.00E+00 SK= 0.00E+00
    353 T=   542. E= -.21672067E+03 F= -.22589939E+03 E0= -.22589939E+03  EK= 0.91787E+01 SP= 0.00E+00 SK= 0.00E+00
    354 T=   533. E= -.21683391E+03 F= -.22585458E+03 E0= -.22585458E+03  EK= 0.90207E+01 SP= 0.00E+00 SK= 0.00E+00
    355 T=   527. E= -.21687605E+03 F= -.22580812E+03 E0= -.22580812E+03  EK= 0.89321E+01 SP= 0.00E+00 SK= 0.00E+00
    356 T=   531. E= -.21674969E+03 F= -.22574511E+03 E0= -.22574511E+03  EK= 0.89954E+01 SP= 0.00E+00 SK= 0.00E+00
    357 T=   537. E= -.21659806E+03 F= -.22568363E+03 E0= -.22568363E+03  EK= 0.90856E+01 SP= 0.00E+00 SK= 0.00E+00
    358 T=   548. E= -.21634805E+03 F= -.22562694E+03 E0= -.22562694E+03  EK= 0.92789E+01 SP= 0.00E+00 SK= 0.00E+00
       N       E                     dE             d eps       ncg     rms          rms(c)
RMM:   1    -0.219985313434E+03    0.10263E+01   -0.19326E+02   129   0.188E+01
RMM:   2    -0.221630033497E+03   -0.16447E+01   -0.14310E+01   129   0.462E+00
RMM:   3    -0.221840879298E+03   -0.21085E+00   -0.19896E+00   129   0.174E+00
RMM:   4    -0.221878552919E+03   -0.37674E-01   -0.36577E-01   258   0.675E-01
RMM:   5    -0.221889552499E+03   -0.11000E-01   -0.10871E-01   258   0.333E-01    0.302E+00
RMM:   6    -0.221004219232E+03    0.88533E+00   -0.14760E+00   292   0.760E-01    0.170E+00
RMM:   7    -0.220793783428E+03    0.21044E+00   -0.36812E-01   258   0.460E-01    0.122E+00
RMM:   8    -0.220673885965E+03    0.11990E+00   -0.25340E-01   258   0.428E-01    0.604E-01
RMM:   9    -0.220671315190E+03    0.25708E-02   -0.10421E-01   258   0.300E-01    0.347E-01
RMM:  10    -0.220675587274E+03   -0.42721E-02   -0.31460E-02   258   0.187E-01
    359 T=   544. E= -.21145877E+03 F= -.22067559E+03 E0= -.22066257E+03  EK= 0.92168E+01 SP= 0.00E+00 SK= 0.00E+00
    360 T=   542. E= -.21635833E+03 F= -.22554189E+03 E0= -.22554189E+03  EK= 0.91836E+01 SP= 0.00E+00 SK= 0.00E+00
    361 T=   550. E= -.21620005E+03 F= -.22551500E+03 E0= -.22551500E+03  EK= 0.93149E+01 SP= 0.00E+00 SK= 0.00E+00
    362 T=   561. E= -.21600778E+03 F= -.22550326E+03 E0= -.22550326E+03  EK= 0.94955E+01 SP= 0.00E+00 SK= 0.00E+00
    363 T=   576. E= -.21573763E+03 F= -.22549874E+03 E0= -.22549874E+03  EK= 0.97611E+01 SP= 0.00E+00 SK= 0.00E+00
    364 T=   587. E= -.21555638E+03 F= -.22549107E+03 E0= -.22549107E+03  EK= 0.99347E+01 SP= 0.00E+00 SK= 0.00E+00
    365 T=   595. E= -.21540810E+03 F= -.22548898E+03 E0= -.22548898E+03  EK= 0.10081E+02 SP= 0.00E+00 SK= 0.00E+00
    366 T=   603. E= -.21529815E+03 F= -.22550525E+03 E0= -.22550525E+03  EK= 0.10207E+02 SP= 0.00E+00 SK= 0.00E+00
    367 T=   594. E= -.21545952E+03 F= -.22552539E+03 E0= -.22552539E+03  EK= 0.10066E+02 SP= 0.00E+00 SK= 0.00E+00
    368 T=   601. E= -.21537265E+03 F= -.22554129E+03 E0= -.22554129E+03  EK= 0.10169E+02 SP= 0.00E+00 SK= 0.00E+00
       N       E                     dE             d eps       ncg     rms          rms(c)
RMM:   1    -0.220400849687E+03    0.27047E+00   -0.94662E+01   129   0.130E+01
RMM:   2    -0.221191455330E+03   -0.79061E+00   -0.71596E+00   129   0.329E+00
RMM:   3    -0.221295017898E+03   -0.10356E+00   -0.99251E-01   129   0.123E+00
RMM:   4    -0.221313208455E+03   -0.18191E-01   -0.17814E-01   258   0.475E-01
RMM:   5    -0.221318315586E+03   -0.51071E-02   -0.50575E-02   258   0.231E-01    0.228E+00
RMM:   6    -0.220816017190E+03    0.50230E+00   -0.71991E-01   282   0.582E-01    0.123E+00
RMM:   7    -0.220762255340E+03    0.53762E-01   -0.27245E-01   258   0.420E-01    0.861E-01
RMM:   8    -0.220711633646E+03    0.50622E-01   -0.14045E-01   258   0.329E-01    0.435E-01
RMM:   9    -0.220716135734E+03   -0.45021E-02   -0.52095E-02   258   0.226E-01    0.271E-01
RMM:  10    -0.220720408892E+03   -0.42732E-02   -0.18716E-02   246   0.150E-01
    369 T=   609. E= -.21041252E+03 F= -.22072041E+03 E0= -.22070825E+03  EK= 0.10308E+02 SP= 0.00E+00 SK= 0.00E+00
    370 T=   604. E= -.21536443E+03 F= -.22559557E+03 E0= -.22559557E+03  EK= 0.10231E+02 SP= 0.00E+00 SK= 0.00E+00
    371 T=   600. E= -.21547773E+03 F= -.22563816E+03 E0= -.22563816E+03  EK= 0.10160E+02 SP= 0.00E+00 SK= 0.00E+00
    372 T=   602. E= -.21547429E+03 F= -.22566926E+03 E0= -.22566926E+03  EK= 0.10195E+02 SP= 0.00E+00 SK= 0.00E+00
    373 T=   593. E= -.21565433E+03 F= -.22570091E+03 E0= -.22570091E+03  EK= 0.10047E+02 SP= 0.00E+00 SK= 0.00E+00
    374 T=   581. E= -.21588851E+03 F= -.22573094E+03 E0= -.22573094E+03  EK= 0.98424E+01 SP= 0.00E+00 SK= 0.00E+00
    375 T=   579. E= -.21595196E+03 F= -.22575266E+03 E0= -.22575266E+03  EK= 0.98007E+01 SP= 0.00E+00 SK= 0.00E+00
    376 T=   574. E= -.21605786E+03 F= -.22578507E+03 E0= -.22578507E+03  EK= 0.97272E+01 SP= 0.00E+00 SK= 0.00E+00
    377 T=   564. E= -.21625522E+03 F= -.22580912E+03 E0= -.22580912E+03  EK= 0.95539E+01 SP= 0.00E+00 SK= 0.00E+00
    378 T=   572. E= -.21613232E+03 F= -.22581868E+03 E0= -.22581868E+03  EK= 0.96864E+01 SP= 0.00E+00 SK= 0.00E+00
       N       E                     dE             d eps       ncg     rms          rms(c)
RMM:   1    -0.220789537749E+03   -0.73402E-01   -0.96587E+01   129   0.129E+01
RMM:   2    -0.221587606319E+03   -0.79807E+00   -0.71308E+00   129   0.322E+00
RMM:   3    -0.221692759257E+03   -0.10515E+00   -0.10022E+00   129   0.121E+00
RMM:   4    -0.221711794186E+03   -0.19035E-01   -0.18593E-01   258   0.476E-01
RMM:   5    -0.221717391477E+03   -0.55973E-02   -0.55394E-02   258   0.236E-01    0.253E+00
RMM:   6    -0.221029570054E+03    0.68782E+00   -0.91910E-01   292   0.626E-01    0.132E+00
RMM:   7    -0.220941563314E+03    0.88007E-01   -0.30719E-01   258   0.449E-01    0.860E-01
RMM:   8    -0.220886867140E+03    0.54696E-01   -0.15488E-01   258   0.337E-01    0.436E-01
RMM:   9    -0.220890431967E+03   -0.35648E-02   -0.58516E-02   258   0.241E-01    0.267E-01
RMM:  10    -0.220892972278E+03   -0.25403E-02   -0.18372E-02   246   0.145E-01
    379 T=   582. E= -.21103242E+03 F= -.22089297E+03 E0= -.22088288E+03  EK= 0.98606E+01 SP= 0.00E+00 SK= 0.00E+00
    380 T=   576. E= -.21607839E+03 F= -.22582471E+03 E0= -.22582471E+03  EK= 0.97463E+01 SP= 0.00E+00 SK= 0.00E+00
    381 T=   575. E= -.21607714E+03 F= -.22581231E+03 E0= -.22581231E+03  EK= 0.97352E+01 SP= 0.00E+00 SK= 0.00E+00
    382 T=   587. E= -.21586804E+03 F= -.22580005E+03 E0= -.22580005E+03  EK= 0.99320E+01 SP= 0.00E+00 SK= 0.00E+00
    383 T=   588. E= -.21581616E+03 F= -.22577266E+03 E0= -.22577266E+03  EK= 0.99565E+01 SP= 0.00E+00 SK= 0.00E+00
    384 T=   580. E= -.21594784E+03 F= -.22576471E+03 E0= -.22576471E+03  EK= 0.98169E+01 SP= 0.00E+00 SK= 0.00E+00
    385 T=   582. E= -.21586866E+03 F= -.22572527E+03 E0= -.22572527E+03  EK= 0.98566E+01 SP= 0.00E+00 SK= 0.00E+00
    386 T=   582. E= -.21581923E+03 F= -.22567034E+03 E0= -.22567034E+03  EK= 0.98511E+01 SP= 0.00E+00 SK= 0.00E+00
    387 T=   561. E= -.21613390E+03 F= -.22563835E+03 E0= -.22563835E+03  EK= 0.95045E+01 SP= 0.00E+00 SK= 0.00E+00
    388 T=   547. E= -.21636550E+03 F= -.22562465E+03 E0= -.22562465E+03  EK= 0.92592E+01 SP= 0.00E+00 SK= 0.00E+00
       N       E                     dE             d eps       ncg     rms          rms(c)
RMM:   1    -0.220386324068E+03    0.50411E+00   -0.92622E+01   129   0.126E+01
RMM:   2    -0.221154063594E+03   -0.76774E+00   -0.69124E+00   129   0.315E+00
RMM:   3    -0.221257306008E+03   -0.10324E+00   -0.98057E-01   129   0.118E+00
RMM:   4    -0.221275984962E+03   -0.18679E-01   -0.18308E-01   258   0.468E-01
RMM:   5    -0.221281580195E+03   -0.55952E-02   -0.55393E-02   258   0.231E-01    0.235E+00
RMM:   6    -0.220724352845E+03    0.55723E+00   -0.82388E-01   291   0.608E-01    0.124E+00
RMM:   7    -0.220678567679E+03    0.45785E-01   -0.30249E-01   258   0.444E-01    0.811E-01
RMM:   8    -0.220638756759E+03    0.39811E-01   -0.12040E-01   258   0.311E-01    0.467E-01
RMM:   9    -0.220644822139E+03   -0.60654E-02   -0.50484E-02   258   0.219E-01    0.287E-01
RMM:  10    -0.220648130387E+03   -0.33082E-02   -0.20594E-02   254   0.156E-01
    389 T=   538. E= -.21153251E+03 F= -.22064813E+03 E0= -.22064123E+03  EK= 0.91156E+01 SP= 0.00E+00 SK= 0.00E+00
    390 T=   534. E= -.21653967E+03 F= -.22558570E+03 E0= -.22558570E+03  EK= 0.90460E+01 SP= 0.00E+00 SK= 0.00E+00
    391 T=   534. E= -.21652732E+03 F= -.22557477E+03 E0= -.22557477E+03  EK= 0.90475E+01 SP= 0.00E+00 SK= 0.00E+00
    392 T=   544. E= -.21634162E+03 F= -.22555567E+03 E0= -.22555567E+03  EK= 0.92140E+01 SP= 0.00E+00 SK= 0.00E+00
    393 T=   549. E= -.21623557E+03 F= -.22554022E+03 E0= -.22554022E+03  EK= 0.93047E+01 SP= 0.00E+00 SK= 0.00E+00
    394 T=   553. E= -.21618220E+03 F= -.22555017E+03 E0= -.22555017E+03  EK= 0.93680E+01 SP= 0.00E+00 SK= 0.00E+00
    395 T=   557. E= -.21614345E+03 F= -.22557632E+03 E0= -.22557632E+03  EK= 0.94329E+01 SP= 0.00E+00 SK= 0.00E+00
    396 T=   558. E= -.21616380E+03 F= -.22561313E+03 E0= -.22561313E+03  EK= 0.94493E+01 SP= 0.00E+00 SK= 0.00E+00
    397 T=   566. E= -.21607872E+03 F= -.22565864E+03 E0= -.22565864E+03  EK= 0.95799E+01 SP= 0.00E+00 SK= 0.00E+00
    398 T=   583. E= -.21583074E+03 F= -.22571030E+03 E0= -.22571030E+03  EK= 0.98796E+01 SP= 0.00E+00 SK= 0.00E+00
    399 T=   586. E= -.21583771E+03 F= -.22575960E+03 E0= -.22575960E+03  EK= 0.99219E+01 SP= 0.00E+00 SK= 0.00E+00
    400 T=   593. E= -.21575184E+03 F= -.22579918E+03 E0= -.22579918E+03  EK= 0.10047E+02 SP= 0.00E+00 SK= 0.00E+00
    401 T=   604. E= -.21558889E+03 F= -.22581195E+03 E0= -.22581195E+03  EK= 0.10223E+02 SP= 0.00E+00 SK= 0.00E+00
    402 T=   611. E= -.21547702E+03 F= -.22581627E+03 E0= -.22581627E+03  EK= 0.10339E+02 SP= 0.00E+00 SK= 0.00E+00
    403 T=   610. E= -.21547502E+03 F= -.22580192E+03 E0= -.22580192E+03  EK= 0.10327E+02 SP= 0.00E+00 SK= 0.00E+00
    404 T=   593. E= -.21574864E+03 F= -.22578883E+03 E0= -.22578883E+03  EK= 0.10040E+02 SP= 0.00E+00 SK= 0.00E+00
       N       E                     dE             d eps       ncg     rms          rms(c)
RMM:   1    -0.221416279508E+03   -0.77146E+00   -0.19046E+02   129   0.176E+01
RMM:   2    -0.223072313120E+03   -0.16560E+01   -0.14449E+01   129   0.442E+00
RMM:   3    -0.223302255994E+03   -0.22994E+00   -0.21327E+00   129   0.167E+00
RMM:   4    -0.223346141361E+03   -0.43885E-01   -0.42338E-01   258   0.694E-01
RMM:   5    -0.223360214884E+03   -0.14074E-01   -0.13867E-01   260   0.357E-01    0.347E+00
RMM:   6    -0.222075478988E+03    0.12847E+01   -0.17084E+00   289   0.860E-01    0.189E+00
RMM:   7    -0.221914507012E+03    0.16097E+00   -0.67495E-01   258   0.642E-01    0.123E+00
RMM:   8    -0.221785095969E+03    0.12941E+00   -0.33025E-01   258   0.484E-01    0.602E-01
RMM:   9    -0.221800806614E+03   -0.15711E-01   -0.12669E-01   258   0.350E-01    0.355E-01
RMM:  10    -0.221804212773E+03   -0.34062E-02   -0.33907E-02   258   0.192E-01
    405 T=   589. E= -.21182532E+03 F= -.22180421E+03 E0= -.22180413E+03  EK= 0.99789E+01 SP= 0.00E+00 SK= 0.00E+00
    406 T=   597. E= -.21547251E+03 F= -.22558752E+03 E0= -.22558752E+03  EK= 0.10115E+02 SP= 0.00E+00 SK= 0.00E+00
    407 T=   599. E= -.21543195E+03 F= -.22558085E+03 E0= -.22558085E+03  EK= 0.10149E+02 SP= 0.00E+00 SK= 0.00E+00
    408 T=   594. E= -.21554041E+03 F= -.22559036E+03 E0= -.22559036E+03  EK= 0.10050E+02 SP= 0.00E+00 SK= 0.00E+00
    409 T=   598. E= -.21548164E+03 F= -.22561383E+03 E0= -.22561383E+03  EK= 0.10132E+02 SP= 0.00E+00 SK= 0.00E+00
    410 T=   622. E= -.21511247E+03 F= -.22564770E+03 E0= -.22564770E+03  EK= 0.10535E+02 SP= 0.00E+00 SK= 0.00E+00
    411 T=   632. E= -.21497838E+03 F= -.22568570E+03 E0= -.22568570E+03  EK= 0.10707E+02 SP= 0.00E+00 SK= 0.00E+00
    412 T=   644. E= -.21481754E+03 F= -.22573051E+03 E0= -.22573051E+03  EK= 0.10913E+02 SP= 0.00E+00 SK= 0.00E+00
    413 T=   644. E= -.21486434E+03 F= -.22576343E+03 E0= -.22576343E+03  EK= 0.10899E+02 SP= 0.00E+00 SK= 0.00E+00
    414 T=   641. E= -.21493980E+03 F= -.22579491E+03 E0= -.22579491E+03  EK= 0.10855E+02 SP= 0.00E+00 SK= 0.00E+00
       N       E                     dE             d eps       ncg     rms          rms(c)
RMM:   1    -0.221440153813E+03    0.36065E+00   -0.94455E+01   129   0.126E+01
RMM:   2    -0.222207035650E+03   -0.76688E+00   -0.69406E+00   129   0.311E+00
RMM:   3    -0.222310493698E+03   -0.10346E+00   -0.99344E-01   129   0.118E+00
RMM:   4    -0.222329765574E+03   -0.19272E-01   -0.18902E-01   258   0.478E-01
RMM:   5    -0.222335616340E+03   -0.58508E-02   -0.57905E-02   258   0.245E-01    0.243E+00
RMM:   6    -0.221808857138E+03    0.52676E+00   -0.79418E-01   290   0.622E-01    0.133E+00
RMM:   7    -0.221743309766E+03    0.65547E-01   -0.32363E-01   258   0.457E-01    0.869E-01
RMM:   8    -0.221699591316E+03    0.43718E-01   -0.16649E-01   258   0.363E-01    0.423E-01
RMM:   9    -0.221711644905E+03   -0.12054E-01   -0.61454E-02   258   0.259E-01    0.259E-01
RMM:  10    -0.221716221414E+03   -0.45765E-02   -0.20962E-02   257   0.160E-01
    415 T=   652. E= -.21067747E+03 F= -.22171622E+03 E0= -.22171457E+03  EK= 0.11039E+02 SP= 0.00E+00 SK= 0.00E+00
    416 T=   661. E= -.21463014E+03 F= -.22583136E+03 E0= -.22583136E+03  EK= 0.11201E+02 SP= 0.00E+00 SK= 0.00E+00
    417 T=   650. E= -.21484816E+03 F= -.22585328E+03 E0= -.22585328E+03  EK= 0.11005E+02 SP= 0.00E+00 SK= 0.00E+00
    418 T=   640. E= -.21503483E+03 F= -.22586869E+03 E0= -.22586869E+03  EK= 0.10834E+02 SP= 0.00E+00 SK= 0.00E+00
    419 T=   641. E= -.21503361E+03 F= -.22588149E+03 E0= -.22588149E+03  EK= 0.10848E+02 SP= 0.00E+00 SK= 0.00E+00
    420 T=   643. E= -.21500982E+03 F= -.22590188E+03 E0= -.22590188E+03  EK= 0.10892E+02 SP= 0.00E+00 SK= 0.00E+00
    421 T=   657. E= -.21480309E+03 F= -.22592903E+03 E0= -.22592903E+03  EK= 0.11126E+02 SP= 0.00E+00 SK= 0.00E+00
    422 T=   658. E= -.21481726E+03 F= -.22595182E+03 E0= -.22595182E+03  EK= 0.11135E+02 SP= 0.00E+00 SK= 0.00E+00
    423 T=   651. E= -.21494656E+03 F= -.22597771E+03 E0= -.22597771E+03  EK= 0.11031E+02 SP= 0.00E+00 SK= 0.00E+00
    424 T=   666. E= -.21472679E+03 F= -.22601020E+03 E0= -.22601020E+03  EK= 0.11283E+02 SP= 0.00E+00 SK= 0.00E+00
    425 T=   668. E= -.21472802E+03 F= -.22603975E+03 E0= -.22603975E+03  EK= 0.11312E+02 SP= 0.00E+00 SK= 0.00E+00
    426 T=   660. E= -.21488699E+03 F= -.22606978E+03 E0= -.22606978E+03  EK= 0.11183E+02 SP= 0.00E+00 SK= 0.00E+00
    427 T=   662. E= -.21488483E+03 F= -.22609947E+03 E0= -.22609947E+03  EK= 0.11215E+02 SP= 0.00E+00 SK= 0.00E+00
    428 T=   651. E= -.21505981E+03 F= -.22608837E+03 E0= -.22608837E+03  EK= 0.11029E+02 SP= 0.00E+00 SK= 0.00E+00
    429 T=   638. E= -.21533121E+03 F= -.22613902E+03 E0= -.22613902E+03  EK= 0.10808E+02 SP= 0.00E+00 SK= 0.00E+00
       N       E                     dE             d eps       ncg     rms          rms(c)
RMM:   1    -0.223202846526E+03   -0.14912E+01   -0.18293E+02   129   0.173E+01
RMM:   2    -0.224619235786E+03   -0.14164E+01   -0.12642E+01   129   0.415E+00
RMM:   3    -0.224803217672E+03   -0.18398E+00   -0.17351E+00   129   0.153E+00
RMM:   4    -0.224836592862E+03   -0.33375E-01   -0.32533E-01   258   0.615E-01
RMM:   5    -0.224846557829E+03   -0.99650E-02   -0.98495E-02   258   0.313E-01    0.312E+00
RMM:   6    -0.223997218854E+03    0.84934E+00   -0.12839E+00   280   0.781E-01    0.180E+00
RMM:   7    -0.223946689277E+03    0.50530E-01   -0.54902E-01   258   0.597E-01    0.129E+00
RMM:   8    -0.223815111406E+03    0.13158E+00   -0.31430E-01   258   0.483E-01    0.651E-01
RMM:   9    -0.223830419822E+03   -0.15308E-01   -0.12115E-01   258   0.339E-01    0.409E-01
RMM:  10    -0.223836330568E+03   -0.59107E-02   -0.37907E-02   258   0.205E-01    0.258E-01
RMM:  11    -0.223844331998E+03   -0.80014E-02   -0.26157E-02   258   0.188E-01    0.128E-01
RMM:  12    -0.223847418661E+03   -0.30867E-02   -0.88959E-03   199   0.111E-01
    430 T=   635. E= -.21308900E+03 F= -.22384742E+03 E0= -.22383809E+03  EK= 0.10758E+02 SP= 0.00E+00 SK= 0.00E+00
    431 T=   643. E= -.21530115E+03 F= -.22619474E+03 E0= -.22619474E+03  EK= 0.10894E+02 SP= 0.00E+00 SK= 0.00E+00
    432 T=   652. E= -.21518044E+03 F= -.22621283E+03 E0= -.22621283E+03  EK= 0.11032E+02 SP= 0.00E+00 SK= 0.00E+00
    433 T=   664. E= -.21498954E+03 F= -.22622782E+03 E0= -.22622782E+03  EK= 0.11238E+02 SP= 0.00E+00 SK= 0.00E+00
    434 T=   671. E= -.21486121E+03 F= -.22621861E+03 E0= -.22621861E+03  EK= 0.11357E+02 SP= 0.00E+00 SK= 0.00E+00
    435 T=   676. E= -.21474476E+03 F= -.22619833E+03 E0= -.22619833E+03  EK= 0.11454E+02 SP= 0.00E+00 SK= 0.00E+00
    436 T=   675. E= -.21474549E+03 F= -.22616900E+03 E0= -.22616900E+03  EK= 0.11424E+02 SP= 0.00E+00 SK= 0.00E+00
    437 T=   654. E= -.21506334E+03 F= -.22613741E+03 E0= -.22613741E+03  EK= 0.11074E+02 SP= 0.00E+00 SK= 0.00E+00
    438 T=   634. E= -.21536733E+03 F= -.22610665E+03 E0= -.22610665E+03  EK= 0.10739E+02 SP= 0.00E+00 SK= 0.00E+00
    439 T=   634. E= -.21534157E+03 F= -.22607754E+03 E0= -.22607754E+03  EK= 0.10736E+02 SP= 0.00E+00 SK= 0.00E+00
    440 T=   633. E= -.21533138E+03 F= -.22605538E+03 E0= -.22605538E+03  EK= 0.10724E+02 SP= 0.00E+00 SK= 0.00E+00
    441 T=   614. E= -.21562971E+03 F= -.22603204E+03 E0= -.22603204E+03  EK= 0.10402E+02 SP= 0.00E+00 SK= 0.00E+00
    442 T=   593. E= -.21596495E+03 F= -.22601368E+03 E0= -.22601368E+03  EK= 0.10049E+02 SP= 0.00E+00 SK= 0.00E+00
    443 T=   587. E= -.21606245E+03 F= -.22599583E+03 E0= -.22599583E+03  EK= 0.99334E+01 SP= 0.00E+00 SK= 0.00E+00
       N       E                     dE             d eps       ncg     rms          rms(c)
RMM:   1    -0.224795040805E+03   -0.95071E+00   -0.16392E+02   129   0.160E+01
RMM:   2    -0.226113981135E+03   -0.13189E+01   -0.11580E+01   129   0.388E+00
RMM:   3    -0.226293376860E+03   -0.17940E+00   -0.16844E+00   129   0.145E+00
RMM:   4    -0.226327859400E+03   -0.34483E-01   -0.33488E-01   258   0.604E-01
RMM:   5    -0.226338900816E+03   -0.11041E-01   -0.10907E-01   259   0.310E-01    0.331E+00
RMM:   6    -0.225470302531E+03    0.86860E+00   -0.14494E+00   289   0.813E-01    0.192E+00
RMM:   7    -0.225312684936E+03    0.15762E+00   -0.47812E-01   259   0.536E-01    0.144E+00
RMM:   8    -0.225153865711E+03    0.15882E+00   -0.42836E-01   258   0.548E-01    0.649E-01
RMM:   9    -0.225165032425E+03   -0.11167E-01   -0.14613E-01   258   0.357E-01    0.420E-01
RMM:  10    -0.225172424708E+03   -0.73923E-02   -0.47055E-02   258   0.227E-01    0.260E-01
RMM:  11    -0.225180182636E+03   -0.77579E-02   -0.26274E-02   258   0.183E-01    0.164E-01
RMM:  12    -0.225183598157E+03   -0.34155E-02   -0.11576E-02   215   0.123E-01
    444 T=   586. E= -.21526414E+03 F= -.22518360E+03 E0= -.22517757E+03  EK= 0.99195E+01 SP= 0.00E+00 SK= 0.00E+00
    445 T=   583. E= -.21608329E+03 F= -.22594761E+03 E0= -.22594761E+03  EK= 0.98643E+01 SP= 0.00E+00 SK= 0.00E+00
    446 T=   588. E= -.21597299E+03 F= -.22592986E+03 E0= -.22592986E+03  EK= 0.99569E+01 SP= 0.00E+00 SK= 0.00E+00
    447 T=   598. E= -.21577761E+03 F= -.22590686E+03 E0= -.22590686E+03  EK= 0.10129E+02 SP= 0.00E+00 SK= 0.00E+00
    448 T=   595. E= -.21579459E+03 F= -.22587331E+03 E0= -.22587331E+03  EK= 0.10079E+02 SP= 0.00E+00 SK= 0.00E+00
    449 T=   580. E= -.21602291E+03 F= -.22584125E+03 E0= -.22584125E+03  EK= 0.98183E+01 SP= 0.00E+00 SK= 0.00E+00
    450 T=   580. E= -.21599102E+03 F= -.22580474E+03 E0= -.22580474E+03  EK= 0.98137E+01 SP= 0.00E+00 SK= 0.00E+00
    451 T=   592. E= -.21574769E+03 F= -.22577631E+03 E0= -.22577631E+03  EK= 0.10029E+02 SP= 0.00E+00 SK= 0.00E+00
    452 T=   591. E= -.21574060E+03 F= -.22574132E+03 E0= -.22574132E+03  EK= 0.10001E+02 SP= 0.00E+00 SK= 0.00E+00
    453 T=   593. E= -.21567174E+03 F= -.22571340E+03 E0= -.22571340E+03  EK= 0.10042E+02 SP= 0.00E+00 SK= 0.00E+00
       N       E                     dE             d eps       ncg     rms          rms(c)
RMM:   1    -0.224418694997E+03    0.76149E+00   -0.83783E+01   129   0.115E+01
RMM:   2    -0.225043047372E+03   -0.62435E+00   -0.56860E+00   129   0.275E+00
RMM:   3    -0.225126702872E+03   -0.83656E-01   -0.79889E-01   129   0.102E+00
RMM:   4    -0.225142070491E+03   -0.15368E-01   -0.15062E-01   258   0.412E-01
RMM:   5    -0.225146682448E+03   -0.46120E-02   -0.45671E-02   258   0.209E-01    0.228E+00
RMM:   6    -0.224788006782E+03    0.35868E+00   -0.61398E-01   283   0.570E-01    0.135E+00
RMM:   7    -0.224773394785E+03    0.14612E-01   -0.27101E-01   259   0.435E-01    0.102E+00
RMM:   8    -0.224703648160E+03    0.69747E-01   -0.19583E-01   258   0.395E-01    0.481E-01
RMM:   9    -0.224712865370E+03   -0.92172E-02   -0.71316E-02   258   0.262E-01    0.299E-01
RMM:  10    -0.224721033058E+03   -0.81677E-02   -0.29985E-02   258   0.187E-01    0.180E-01
RMM:  11    -0.224725901371E+03   -0.48683E-02   -0.15530E-02   239   0.141E-01
    454 T=   605. E= -.21448471E+03 F= -.22472590E+03 E0= -.22471837E+03  EK= 0.10241E+02 SP= 0.00E+00 SK= 0.00E+00
    455 T=   608. E= -.21536963E+03 F= -.22567176E+03 E0= -.22567176E+03  EK= 0.10302E+02 SP= 0.00E+00 SK= 0.00E+00
    456 T=   606. E= -.21540891E+03 F= -.22567205E+03 E0= -.22567205E+03  EK= 0.10263E+02 SP= 0.00E+00 SK= 0.00E+00
    457 T=   599. E= -.21555353E+03 F= -.22569374E+03 E0= -.22569374E+03  EK= 0.10140E+02 SP= 0.00E+00 SK= 0.00E+00
    458 T=   596. E= -.21562667E+03 F= -.22571071E+03 E0= -.22571071E+03  EK= 0.10084E+02 SP= 0.00E+00 SK= 0.00E+00
    459 T=   603. E= -.21552817E+03 F= -.22573794E+03 E0= -.22573794E+03  EK= 0.10210E+02 SP= 0.00E+00 SK= 0.00E+00
    460 T=   611. E= -.21542218E+03 F= -.22577035E+03 E0= -.22577035E+03  EK= 0.10348E+02 SP= 0.00E+00 SK= 0.00E+00
    461 T=   610. E= -.21547262E+03 F= -.22579520E+03 E0= -.22579520E+03  EK= 0.10323E+02 SP= 0.00E+00 SK= 0.00E+00
    462 T=   602. E= -.21561771E+03 F= -.22581586E+03 E0= -.22581586E+03  EK= 0.10198E+02 SP= 0.00E+00 SK= 0.00E+00
    463 T=   604. E= -.21561002E+03 F= -.22583977E+03 E0= -.22583977E+03  EK= 0.10230E+02 SP= 0.00E+00 SK= 0.00E+00
    464 T=   612. E= -.21549304E+03 F= -.22585767E+03 E0= -.22585767E+03  EK= 0.10365E+02 SP= 0.00E+00 SK= 0.00E+00
    465 T=   619. E= -.21539474E+03 F= -.22586887E+03 E0= -.22586887E+03  EK= 0.10474E+02 SP= 0.00E+00 SK= 0.00E+00
    466 T=   621. E= -.21536528E+03 F= -.22588605E+03 E0= -.22588605E+03  EK= 0.10521E+02 SP= 0.00E+00 SK= 0.00E+00
    467 T=   621. E= -.21537846E+03 F= -.22589000E+03 E0= -.22589000E+03  EK= 0.10512E+02 SP= 0.00E+00 SK= 0.00E+00
    468 T=   613. E= -.21548890E+03 F= -.22587408E+03 E0= -.22587408E+03  EK= 0.10385E+02 SP= 0.00E+00 SK= 0.00E+00
    469 T=   597. E= -.21575086E+03 F= -.22585498E+03 E0= -.22585498E+03  EK= 0.10104E+02 SP= 0.00E+00 SK= 0.00E+00
    470 T=   587. E= -.21588265E+03 F= -.22581913E+03 E0= -.22581913E+03  EK= 0.99365E+01 SP= 0.00E+00 SK= 0.00E+00
       N       E                     dE             d eps       ncg     rms          rms(c)
RMM:   1    -0.225053540441E+03   -0.33251E+00   -0.19272E+02   129   0.171E+01
RMM:   2    -0.226612176010E+03   -0.15586E+01   -0.13543E+01   129   0.413E+00
RMM:   3    -0.226822936548E+03   -0.21076E+00   -0.19592E+00   129   0.153E+00
RMM:   4    -0.226863879992E+03   -0.40943E-01   -0.39476E-01   258   0.649E-01
RMM:   5    -0.226877209884E+03   -0.13330E-01   -0.13139E-01   262   0.338E-01    0.348E+00
RMM:   6    -0.225926797394E+03    0.95041E+00   -0.18294E+00   292   0.886E-01    0.207E+00
RMM:   7    -0.225734731216E+03    0.19207E+00   -0.57304E-01   258   0.594E-01    0.139E+00
RMM:   8    -0.225651369965E+03    0.83361E-01   -0.45301E-01   259   0.584E-01    0.755E-01
RMM:   9    -0.225652600163E+03   -0.12302E-02   -0.17157E-01   258   0.377E-01    0.456E-01
RMM:  10    -0.225659713333E+03   -0.71132E-02   -0.57259E-02   258   0.241E-01    0.281E-01
RMM:  11    -0.225670928441E+03   -0.11215E-01   -0.36289E-02   258   0.214E-01    0.152E-01
RMM:  12    -0.225675049349E+03   -0.41209E-02   -0.14523E-02   239   0.135E-01
    471 T=   601. E= -.21549145E+03 F= -.22567505E+03 E0= -.22566301E+03  EK= 0.10184E+02 SP= 0.00E+00 SK= 0.00E+00
    472 T=   618. E= -.21444874E+03 F= -.22491849E+03 E0= -.22491849E+03  EK= 0.10470E+02 SP= 0.00E+00 SK= 0.00E+00
    473 T=   610. E= -.21455400E+03 F= -.22489033E+03 E0= -.22489033E+03  EK= 0.10336E+02 SP= 0.00E+00 SK= 0.00E+00
    474 T=   604. E= -.21463785E+03 F= -.22487011E+03 E0= -.22487011E+03  EK= 0.10232E+02 SP= 0.00E+00 SK= 0.00E+00
    475 T=   605. E= -.21461010E+03 F= -.22484937E+03 E0= -.22484937E+03  EK= 0.10239E+02 SP= 0.00E+00 SK= 0.00E+00
    476 T=   605. E= -.21457951E+03 F= -.22483241E+03 E0= -.22483241E+03  EK= 0.10253E+02 SP= 0.00E+00 SK= 0.00E+00
    477 T=   619. E= -.21434787E+03 F= -.22482139E+03 E0= -.22482139E+03  EK= 0.10474E+02 SP= 0.00E+00 SK= 0.00E+00
    478 T=   634. E= -.21406645E+03 F= -.22479874E+03 E0= -.22479874E+03  EK= 0.10732E+02 SP= 0.00E+00 SK= 0.00E+00
    479 T=   637. E= -.21398533E+03 F= -.22477425E+03 E0= -.22477425E+03  EK= 0.10789E+02 SP= 0.00E+00 SK= 0.00E+00
    480 T=   644. E= -.21386327E+03 F= -.22476384E+03 E0= -.22476384E+03  EK= 0.10901E+02 SP= 0.00E+00 SK= 0.00E+00
       N       E                     dE             d eps       ncg     rms          rms(c)
RMM:   1    -0.225663420929E+03    0.75075E-02   -0.90048E+01   129   0.118E+01
RMM:   2    -0.226358121190E+03   -0.69470E+00   -0.62602E+00   129   0.282E+00
RMM:   3    -0.226455629923E+03   -0.97509E-01   -0.93211E-01   129   0.107E+00
RMM:   4    -0.226474742733E+03   -0.19113E-01   -0.18698E-01   258   0.455E-01
RMM:   5    -0.226480863709E+03   -0.61210E-02   -0.60654E-02   259   0.238E-01    0.255E+00
RMM:   6    -0.226110831499E+03    0.37003E+00   -0.89191E-01   294   0.674E-01    0.154E+00
RMM:   7    -0.226054320484E+03    0.56511E-01   -0.28156E-01   258   0.447E-01    0.119E+00
RMM:   8    -0.225989697570E+03    0.64623E-01   -0.27573E-01   258   0.472E-01    0.615E-01
RMM:   9    -0.225993384181E+03   -0.36866E-02   -0.11213E-01   258   0.320E-01    0.369E-01
RMM:  10    -0.226004240949E+03   -0.10857E-01   -0.47059E-02   258   0.232E-01    0.226E-01
RMM:  11    -0.226013273657E+03   -0.90327E-02   -0.27301E-02   258   0.189E-01    0.146E-01
RMM:  12    -0.226016400050E+03   -0.31264E-02   -0.10849E-02   210   0.119E-01
    481 T=   655. E= -.21492479E+03 F= -.22601640E+03 E0= -.22599766E+03  EK= 0.11092E+02 SP= 0.00E+00 SK= 0.00E+00
    482 T=   670. E= -.21335677E+03 F= -.22470525E+03 E0= -.22470525E+03  EK= 0.11348E+02 SP= 0.00E+00 SK= 0.00E+00
    483 T=   678. E= -.21319461E+03 F= -.22467583E+03 E0= -.22467583E+03  EK= 0.11481E+02 SP= 0.00E+00 SK= 0.00E+00
    484 T=   674. E= -.21323620E+03 F= -.22464836E+03 E0= -.22464836E+03  EK= 0.11412E+02 SP= 0.00E+00 SK= 0.00E+00
    485 T=   674. E= -.21322991E+03 F= -.22463569E+03 E0= -.22463569E+03  EK= 0.11406E+02 SP= 0.00E+00 SK= 0.00E+00
    486 T=   678. E= -.21314324E+03 F= -.22462534E+03 E0= -.22462534E+03  EK= 0.11482E+02 SP= 0.00E+00 SK= 0.00E+00
    487 T=   686. E= -.21298890E+03 F= -.22461311E+03 E0= -.22461311E+03  EK= 0.11624E+02 SP= 0.00E+00 SK= 0.00E+00
    488 T=   696. E= -.21280713E+03 F= -.22459095E+03 E0= -.22459095E+03  EK= 0.11784E+02 SP= 0.00E+00 SK= 0.00E+00
    489 T=   684. E= -.21299871E+03 F= -.22457435E+03 E0= -.22457435E+03  EK= 0.11576E+02 SP= 0.00E+00 SK= 0.00E+00
    490 T=   659. E= -.21339030E+03 F= -.22455748E+03 E0= -.22455748E+03  EK= 0.11167E+02 SP= 0.00E+00 SK= 0.00E+00
       N       E                     dE             d eps       ncg     rms          rms(c)
RMM:   1    -0.226673039382E+03   -0.65977E+00   -0.92591E+01   129   0.118E+01
RMM:   2    -0.227408746593E+03   -0.73571E+00   -0.65879E+00   129   0.286E+00
RMM:   3    -0.227513480503E+03   -0.10473E+00   -0.10004E+00   129   0.108E+00
RMM:   4    -0.227534690522E+03   -0.21210E-01   -0.20725E-01   258   0.468E-01
RMM:   5    -0.227541872393E+03   -0.71819E-02   -0.71102E-02   261   0.247E-01    0.268E+00
RMM:   6    -0.226976760710E+03    0.56511E+00   -0.10917E+00   300   0.680E-01    0.157E+00
RMM:   7    -0.226874363087E+03    0.10240E+00   -0.30034E-01   259   0.442E-01    0.112E+00
RMM:   8    -0.226834933290E+03    0.39430E-01   -0.27283E-01   258   0.468E-01    0.605E-01
RMM:   9    -0.226841599137E+03   -0.66658E-02   -0.11780E-01   258   0.327E-01    0.368E-01
RMM:  10    -0.226851599519E+03   -0.10000E-01   -0.43113E-02   258   0.224E-01    0.235E-01
RMM:  11    -0.226859634723E+03   -0.80352E-02   -0.26251E-02   258   0.183E-01    0.154E-01
RMM:  12    -0.226862848282E+03   -0.32136E-02   -0.13876E-02   233   0.135E-01
    491 T=   650. E= -.21585122E+03 F= -.22686285E+03 E0= -.22685469E+03  EK= 0.11012E+02 SP= 0.00E+00 SK= 0.00E+00
    492 T=   660. E= -.21334350E+03 F= -.22451789E+03 E0= -.22451789E+03  EK= 0.11174E+02 SP= 0.00E+00 SK= 0.00E+00
    493 T=   659. E= -.21334160E+03 F= -.22450375E+03 E0= -.22450375E+03  EK= 0.11162E+02 SP= 0.00E+00 SK= 0.00E+00
    494 T=   659. E= -.21333060E+03 F= -.22449382E+03 E0= -.22449382E+03  EK= 0.11163E+02 SP= 0.00E+00 SK= 0.00E+00
    495 T=   675. E= -.21307298E+03 F= -.22449475E+03 E0= -.22449475E+03  EK= 0.11422E+02 SP= 0.00E+00 SK= 0.00E+00
    496 T=   680. E= -.21298235E+03 F= -.22449739E+03 E0= -.22449739E+03  EK= 0.11515E+02 SP= 0.00E+00 SK= 0.00E+00
    497 T=   658. E= -.21337921E+03 F= -.22451693E+03 E0= -.22451693E+03  EK= 0.11138E+02 SP= 0.00E+00 SK= 0.00E+00
    498 T=   643. E= -.21365531E+03 F= -.22454328E+03 E0= -.22454328E+03  EK= 0.10888E+02 SP= 0.00E+00 SK= 0.00E+00
    499 T=   650. E= -.21357310E+03 F= -.22458019E+03 E0= -.22458019E+03  EK= 0.11007E+02 SP= 0.00E+00 SK= 0.00E+00
    500 T=   656. E= -.21352528E+03 F= -.22463839E+03 E0= -.22463839E+03  EK= 0.11113E+02 SP= 0.00E+00 SK= 0.00E+00
       N       E                     dE             d eps       ncg     rms          rms(c)
RMM:   1    -0.227255250761E+03   -0.39562E+00   -0.89381E+01   129   0.115E+01
RMM:   2    -0.227935594498E+03   -0.68034E+00   -0.63188E+00   129   0.284E+00
RMM:   3    -0.228032755744E+03   -0.97161E-01   -0.93036E-01   129   0.105E+00
RMM:   4    -0.228051550655E+03   -0.18795E-01   -0.18462E-01   258   0.451E-01
RMM:   5    -0.228057592027E+03   -0.60414E-02   -0.59872E-02   258   0.237E-01    0.250E+00
RMM:   6    -0.227662034044E+03    0.39556E+00   -0.84172E-01   294   0.642E-01    0.151E+00
RMM:   7    -0.227574656818E+03    0.87377E-01   -0.29964E-01   259   0.438E-01    0.105E+00
RMM:   8    -0.227554506152E+03    0.20151E-01   -0.32014E-01   258   0.501E-01    0.502E-01
RMM:   9    -0.227564631650E+03   -0.10125E-01   -0.88025E-02   258   0.288E-01    0.356E-01
RMM:  10    -0.227574947885E+03   -0.10316E-01   -0.42920E-02   258   0.227E-01    0.215E-01
RMM:  11    -0.227583579573E+03   -0.86317E-02   -0.29880E-02   258   0.197E-01    0.124E-01
RMM:  12    -0.227586359198E+03   -0.27796E-02   -0.10358E-02   202   0.117E-01
    501 T=   665. E= -.21633135E+03 F= -.22758636E+03 E0= -.22758494E+03  EK= 0.11255E+02 SP= 0.00E+00 SK= 0.00E+00
    502 T=   678. E= -.21326882E+03 F= -.22475522E+03 E0= -.22475522E+03  EK= 0.11486E+02 SP= 0.00E+00 SK= 0.00E+00
    503 T=   678. E= -.21332710E+03 F= -.22480102E+03 E0= -.22480102E+03  EK= 0.11474E+02 SP= 0.00E+00 SK= 0.00E+00
    504 T=   670. E= -.21350515E+03 F= -.22485092E+03 E0= -.22485092E+03  EK= 0.11346E+02 SP= 0.00E+00 SK= 0.00E+00
    505 T=   656. E= -.21378835E+03 F= -.22490228E+03 E0= -.22490228E+03  EK= 0.11114E+02 SP= 0.00E+00 SK= 0.00E+00
    506 T=   648. E= -.21397420E+03 F= -.22494473E+03 E0= -.22494473E+03  EK= 0.10971E+02 SP= 0.00E+00 SK= 0.00E+00
    507 T=   656. E= -.21388066E+03 F= -.22498304E+03 E0= -.22498304E+03  EK= 0.11102E+02 SP= 0.00E+00 SK= 0.00E+00
    508 T=   659. E= -.21386418E+03 F= -.22502400E+03 E0= -.22502400E+03  EK= 0.11160E+02 SP= 0.00E+00 SK= 0.00E+00
    509 T=   661. E= -.21386639E+03 F= -.22505252E+03 E0= -.22505252E+03  EK= 0.11186E+02 SP= 0.00E+00 SK= 0.00E+00
    510 T=   660. E= -.21390992E+03 F= -.22507968E+03 E0= -.22507968E+03  EK= 0.11170E+02 SP= 0.00E+00 SK= 0.00E+00
    511 T=   644. E= -.21418906E+03 F= -.22510055E+03 E0= -.22510055E+03  EK= 0.10911E+02 SP= 0.00E+00 SK= 0.00E+00
    512 T=   644. E= -.21421287E+03 F= -.22511644E+03 E0= -.22511644E+03  EK= 0.10904E+02 SP= 0.00E+00 SK= 0.00E+00
    513 T=   651. E= -.21409995E+03 F= -.22512688E+03 E0= -.22512688E+03  EK= 0.11027E+02 SP= 0.00E+00 SK= 0.00E+00
    514 T=   654. E= -.21405979E+03 F= -.22513883E+03 E0= -.22513883E+03  EK= 0.11079E+02 SP= 0.00E+00 SK= 0.00E+00
    515 T=   651. E= -.21412368E+03 F= -.22514044E+03 E0= -.22514044E+03  EK= 0.11017E+02 SP= 0.00E+00 SK= 0.00E+00
    516 T=   645. E= -.21421795E+03 F= -.22514249E+03 E0= -.22514249E+03  EK= 0.10925E+02 SP= 0.00E+00 SK= 0.00E+00
    517 T=   644. E= -.21424398E+03 F= -.22514383E+03 E0= -.22514383E+03  EK= 0.10900E+02 SP= 0.00E+00 SK= 0.00E+00
    518 T=   642. E= -.21428737E+03 F= -.22515499E+03 E0= -.22515499E+03  EK= 0.10868E+02 SP= 0.00E+00 SK= 0.00E+00
    519 T=   631. E= -.21447202E+03 F= -.22516205E+03 E0= -.22516205E+03  EK= 0.10690E+02 SP= 0.00E+00 SK= 0.00E+00
    520 T=   629. E= -.21453388E+03 F= -.22517688E+03 E0= -.22517688E+03  EK= 0.10643E+02 SP= 0.00E+00 SK= 0.00E+00
    521 T=   635. E= -.21444386E+03 F= -.22519430E+03 E0= -.22519430E+03  EK= 0.10750E+02 SP= 0.00E+00 SK= 0.00E+00
    522 T=   638. E= -.21441973E+03 F= -.22522641E+03 E0= -.22522641E+03  EK= 0.10807E+02 SP= 0.00E+00 SK= 0.00E+00
    523 T=   639. E= -.21446527E+03 F= -.22528352E+03 E0= -.22528352E+03  EK= 0.10818E+02 SP= 0.00E+00 SK= 0.00E+00
    524 T=   620. E= -.21482742E+03 F= -.22532234E+03 E0= -.22532234E+03  EK= 0.10495E+02 SP= 0.00E+00 SK= 0.00E+00
    525 T=   615. E= -.21494933E+03 F= -.22536281E+03 E0= -.22536281E+03  EK= 0.10413E+02 SP= 0.00E+00 SK= 0.00E+00
    526 T=   632. E= -.21468318E+03 F= -.22538995E+03 E0= -.22538995E+03  EK= 0.10707E+02 SP= 0.00E+00 SK= 0.00E+00
    527 T=   645. E= -.21448207E+03 F= -.22541054E+03 E0= -.22541054E+03  EK= 0.10928E+02 SP= 0.00E+00 SK= 0.00E+00
    528 T=   662. E= -.21421821E+03 F= -.22542572E+03 E0= -.22542572E+03  EK= 0.11208E+02 SP= 0.00E+00 SK= 0.00E+00
    529 T=   672. E= -.21405158E+03 F= -.22543693E+03 E0= -.22543693E+03  EK= 0.11385E+02 SP= 0.00E+00 SK= 0.00E+00
    530 T=   671. E= -.21408482E+03 F= -.22544418E+03 E0= -.22544418E+03  EK= 0.11359E+02 SP= 0.00E+00 SK= 0.00E+00
    531 T=   684. E= -.21387623E+03 F= -.22545771E+03 E0= -.22545771E+03  EK= 0.11581E+02 SP= 0.00E+00 SK= 0.00E+00
    532 T=   683. E= -.21387060E+03 F= -.22544276E+03 E0= -.22544276E+03  EK= 0.11572E+02 SP= 0.00E+00 SK= 0.00E+00
    533 T=   660. E= -.21424727E+03 F= -.22541580E+03 E0= -.22541580E+03  EK= 0.11169E+02 SP= 0.00E+00 SK= 0.00E+00
    534 T=   647. E= -.21441219E+03 F= -.22537144E+03 E0= -.22537144E+03  EK= 0.10959E+02 SP= 0.00E+00 SK= 0.00E+00
    535 T=   636. E= -.21454006E+03 F= -.22530456E+03 E0= -.22530456E+03  EK= 0.10765E+02 SP= 0.00E+00 SK= 0.00E+00
    536 T=   628. E= -.21459578E+03 F= -.22523375E+03 E0= -.22523375E+03  EK= 0.10638E+02 SP= 0.00E+00 SK= 0.00E+00
    537 T=   617. E= -.21471276E+03 F= -.22516562E+03 E0= -.22516562E+03  EK= 0.10453E+02 SP= 0.00E+00 SK= 0.00E+00
    538 T=   604. E= -.21487268E+03 F= -.22510345E+03 E0= -.22510345E+03  EK= 0.10231E+02 SP= 0.00E+00 SK= 0.00E+00
    539 T=   586. E= -.21509586E+03 F= -.22502554E+03 E0= -.22502554E+03  EK= 0.99297E+01 SP= 0.00E+00 SK= 0.00E+00
       N       E                     dE             d eps       ncg     rms          rms(c)
RMM:   1    -0.228056000790E+03   -0.47242E+00   -0.51910E+02   129   0.256E+01
RMM:   2    -0.232730349248E+03   -0.46743E+01   -0.43162E+01   129   0.660E+00
RMM:   3    -0.233583082537E+03   -0.85273E+00   -0.71407E+00   129   0.259E+00
RMM:   4    -0.233769401309E+03   -0.18632E+00   -0.17569E+00   268   0.124E+00
RMM:   5    -0.233842523066E+03   -0.73122E-01   -0.70469E-01   282   0.684E-01    0.549E+00
RMM:   6    -0.232048749457E+03    0.17938E+01   -0.39401E+00   281   0.136E+00    0.329E+00
RMM:   7    -0.231930782767E+03    0.11797E+00   -0.18841E+00   258   0.110E+00    0.213E+00
RMM:   8    -0.231944924894E+03   -0.14142E-01   -0.14128E+00   258   0.982E-01    0.112E+00
RMM:   9    -0.232028065694E+03   -0.83141E-01   -0.42873E-01   258   0.600E-01    0.789E-01
RMM:  10    -0.232068476519E+03   -0.40411E-01   -0.15962E-01   258   0.400E-01    0.503E-01
RMM:  11    -0.232112887011E+03   -0.44410E-01   -0.13227E-01   258   0.379E-01    0.248E-01
RMM:  12    -0.232124908439E+03   -0.12021E-01   -0.40898E-02   258   0.214E-01    0.168E-01
RMM:  13    -0.232131698337E+03   -0.67899E-02   -0.22612E-02   258   0.162E-01    0.117E-01
RMM:  14    -0.232135089977E+03   -0.33916E-02   -0.11137E-02   211   0.115E-01
    540 T=   577. E= -.22236757E+03 F= -.23213509E+03 E0= -.23212455E+03  EK= 0.97675E+01 SP= 0.00E+00 SK= 0.00E+00
    541 T=   590. E= -.21493848E+03 F= -.22493682E+03 E0= -.22493682E+03  EK= 0.99983E+01 SP= 0.00E+00 SK= 0.00E+00
    542 T=   596. E= -.21481543E+03 F= -.22490371E+03 E0= -.22490371E+03  EK= 0.10088E+02 SP= 0.00E+00 SK= 0.00E+00
    543 T=   592. E= -.21485031E+03 F= -.22488097E+03 E0= -.22488097E+03  EK= 0.10031E+02 SP= 0.00E+00 SK= 0.00E+00
    544 T=   574. E= -.21514333E+03 F= -.22487079E+03 E0= -.22487079E+03  EK= 0.97275E+01 SP= 0.00E+00 SK= 0.00E+00
    545 T=   565. E= -.21531225E+03 F= -.22488056E+03 E0= -.22488056E+03  EK= 0.95683E+01 SP= 0.00E+00 SK= 0.00E+00
    546 T=   578. E= -.21513006E+03 F= -.22492031E+03 E0= -.22492031E+03  EK= 0.97903E+01 SP= 0.00E+00 SK= 0.00E+00
    547 T=   589. E= -.21496713E+03 F= -.22494654E+03 E0= -.22494654E+03  EK= 0.99794E+01 SP= 0.00E+00 SK= 0.00E+00
    548 T=   581. E= -.21511687E+03 F= -.22494762E+03 E0= -.22494762E+03  EK= 0.98307E+01 SP= 0.00E+00 SK= 0.00E+00
    549 T=   574. E= -.21527321E+03 F= -.22498568E+03 E0= -.22498568E+03  EK= 0.97125E+01 SP= 0.00E+00 SK= 0.00E+00
    550 T=   580. E= -.21520142E+03 F= -.22502165E+03 E0= -.22502165E+03  EK= 0.98202E+01 SP= 0.00E+00 SK= 0.00E+00
    551 T=   589. E= -.21509549E+03 F= -.22506433E+03 E0= -.22506433E+03  EK= 0.99688E+01 SP= 0.00E+00 SK= 0.00E+00
    552 T=   581. E= -.21528445E+03 F= -.22511476E+03 E0= -.22511476E+03  EK= 0.98303E+01 SP= 0.00E+00 SK= 0.00E+00
    553 T=   579. E= -.21536479E+03 F= -.22516512E+03 E0= -.22516512E+03  EK= 0.98003E+01 SP= 0.00E+00 SK= 0.00E+00
    554 T=   583. E= -.21535583E+03 F= -.22523499E+03 E0= -.22523499E+03  EK= 0.98792E+01 SP= 0.00E+00 SK= 0.00E+00
    555 T=   580. E= -.21549419E+03 F= -.22531801E+03 E0= -.22531801E+03  EK= 0.98238E+01 SP= 0.00E+00 SK= 0.00E+00
    556 T=   576. E= -.21565250E+03 F= -.22540206E+03 E0= -.22540206E+03  EK= 0.97496E+01 SP= 0.00E+00 SK= 0.00E+00
    557 T=   579. E= -.21567782E+03 F= -.22548472E+03 E0= -.22548472E+03  EK= 0.98069E+01 SP= 0.00E+00 SK= 0.00E+00
    558 T=   580. E= -.21573396E+03 F= -.22556196E+03 E0= -.22556196E+03  EK= 0.98280E+01 SP= 0.00E+00 SK= 0.00E+00
    559 T=   580. E= -.21583065E+03 F= -.22564516E+03 E0= -.22564516E+03  EK= 0.98145E+01 SP= 0.00E+00 SK= 0.00E+00
    560 T=   576. E= -.21595694E+03 F= -.22571481E+03 E0= -.22571481E+03  EK= 0.97579E+01 SP= 0.00E+00 SK= 0.00E+00
    561 T=   566. E= -.21618032E+03 F= -.22576035E+03 E0= -.22576035E+03  EK= 0.95800E+01 SP= 0.00E+00 SK= 0.00E+00
    562 T=   557. E= -.21636441E+03 F= -.22580436E+03 E0= -.22580436E+03  EK= 0.94400E+01 SP= 0.00E+00 SK= 0.00E+00
    563 T=   556. E= -.21642564E+03 F= -.22584310E+03 E0= -.22584310E+03  EK= 0.94175E+01 SP= 0.00E+00 SK= 0.00E+00
    564 T=   564. E= -.21633108E+03 F= -.22587715E+03 E0= -.22587715E+03  EK= 0.95461E+01 SP= 0.00E+00 SK= 0.00E+00
    565 T=   572. E= -.21622371E+03 F= -.22590870E+03 E0= -.22590870E+03  EK= 0.96850E+01 SP= 0.00E+00 SK= 0.00E+00
    566 T=   578. E= -.21614335E+03 F= -.22592874E+03 E0= -.22592874E+03  EK= 0.97854E+01 SP= 0.00E+00 SK= 0.00E+00
    567 T=   580. E= -.21612138E+03 F= -.22593999E+03 E0= -.22593999E+03  EK= 0.98186E+01 SP= 0.00E+00 SK= 0.00E+00
    568 T=   577. E= -.21616676E+03 F= -.22594236E+03 E0= -.22594236E+03  EK= 0.97756E+01 SP= 0.00E+00 SK= 0.00E+00
    569 T=   569. E= -.21631221E+03 F= -.22594715E+03 E0= -.22594715E+03  EK= 0.96349E+01 SP= 0.00E+00 SK= 0.00E+00
    570 T=   558. E= -.21649552E+03 F= -.22594930E+03 E0= -.22594930E+03  EK= 0.94538E+01 SP= 0.00E+00 SK= 0.00E+00
    571 T=   557. E= -.21650712E+03 F= -.22593599E+03 E0= -.22593599E+03  EK= 0.94289E+01 SP= 0.00E+00 SK= 0.00E+00
    572 T=   558. E= -.21648668E+03 F= -.22592769E+03 E0= -.22592769E+03  EK= 0.94410E+01 SP= 0.00E+00 SK= 0.00E+00
    573 T=   558. E= -.21646722E+03 F= -.22591319E+03 E0= -.22591319E+03  EK= 0.94460E+01 SP= 0.00E+00 SK= 0.00E+00
       N       E                     dE             d eps       ncg     rms          rms(c)
RMM:   1    -0.231690049268E+03    0.44165E+00   -0.37381E+02   129   0.213E+01
RMM:   2    -0.234860996908E+03   -0.31709E+01   -0.28629E+01   129   0.544E+00
RMM:   3    -0.235393197671E+03   -0.53220E+00   -0.47041E+00   129   0.210E+00
RMM:   4    -0.235506400050E+03   -0.11320E+00   -0.10816E+00   266   0.100E+00
RMM:   5    -0.235551354671E+03   -0.44955E-01   -0.44104E-01   278   0.559E-01    0.499E+00
RMM:   6    -0.233593216342E+03    0.19581E+01   -0.33565E+00   290   0.121E+00    0.289E+00
RMM:   7    -0.233428510672E+03    0.16471E+00   -0.19070E+00   260   0.107E+00    0.167E+00
RMM:   8    -0.233463437111E+03   -0.34926E-01   -0.96891E-01   258   0.811E-01    0.941E-01
RMM:   9    -0.233565430385E+03   -0.10199E+00   -0.30631E-01   258   0.532E-01    0.600E-01
RMM:  10    -0.233604278730E+03   -0.38848E-01   -0.11611E-01   258   0.341E-01    0.421E-01
RMM:  11    -0.233634482650E+03   -0.30204E-01   -0.90146E-02   258   0.318E-01    0.227E-01
RMM:  12    -0.233645805342E+03   -0.11323E-01   -0.36305E-02   258   0.205E-01    0.146E-01
RMM:  13    -0.233650013201E+03   -0.42079E-02   -0.14925E-02   243   0.131E-01
    574 T=   564. E= -.22409344E+03 F= -.23365001E+03 E0= -.23362961E+03  EK= 0.95566E+01 SP= 0.00E+00 SK= 0.00E+00
    575 T=   571. E= -.21635688E+03 F= -.22601887E+03 E0= -.22601887E+03  EK= 0.96620E+01 SP= 0.00E+00 SK= 0.00E+00
    576 T=   567. E= -.21638645E+03 F= -.22599259E+03 E0= -.22599259E+03  EK= 0.96061E+01 SP= 0.00E+00 SK= 0.00E+00
    577 T=   571. E= -.21629744E+03 F= -.22597066E+03 E0= -.22597066E+03  EK= 0.96732E+01 SP= 0.00E+00 SK= 0.00E+00
    578 T=   560. E= -.21649301E+03 F= -.22596972E+03 E0= -.22596972E+03  EK= 0.94767E+01 SP= 0.00E+00 SK= 0.00E+00
    579 T=   547. E= -.21669565E+03 F= -.22595235E+03 E0= -.22595235E+03  EK= 0.92567E+01 SP= 0.00E+00 SK= 0.00E+00
    580 T=   548. E= -.21665938E+03 F= -.22593508E+03 E0= -.22593508E+03  EK= 0.92757E+01 SP= 0.00E+00 SK= 0.00E+00
    581 T=   555. E= -.21652683E+03 F= -.22591756E+03 E0= -.22591756E+03  EK= 0.93907E+01 SP= 0.00E+00 SK= 0.00E+00
    582 T=   567. E= -.21633363E+03 F= -.22593361E+03 E0= -.22593361E+03  EK= 0.96000E+01 SP= 0.00E+00 SK= 0.00E+00
    583 T=   570. E= -.21624975E+03 F= -.22590233E+03 E0= -.22590233E+03  EK= 0.96526E+01 SP= 0.00E+00 SK= 0.00E+00
       N       E                     dE             d eps       ncg     rms          rms(c)
RMM:   1    -0.236044368351E+03   -0.23986E+01   -0.68601E+01   129   0.941E+00
RMM:   2    -0.236540327096E+03   -0.49596E+00   -0.46249E+00   129   0.228E+00
RMM:   3    -0.236613772631E+03   -0.73446E-01   -0.70994E-01   129   0.840E-01
RMM:   4    -0.236628591553E+03   -0.14819E-01   -0.14590E-01   258   0.374E-01
RMM:   5    -0.236633460280E+03   -0.48687E-02   -0.48355E-02   263   0.197E-01    0.244E+00
RMM:   6    -0.236256393188E+03    0.37707E+00   -0.80229E-01   308   0.635E-01    0.148E+00
RMM:   7    -0.236215478288E+03    0.40915E-01   -0.38564E-01   266   0.509E-01    0.946E-01
RMM:   8    -0.236186146161E+03    0.29332E-01   -0.23349E-01   258   0.421E-01    0.519E-01
RMM:   9    -0.236202795040E+03   -0.16649E-01   -0.99724E-02   258   0.300E-01    0.325E-01
RMM:  10    -0.236209337359E+03   -0.65423E-02   -0.39635E-02   258   0.202E-01    0.219E-01
RMM:  11    -0.236216725105E+03   -0.73877E-02   -0.28907E-02   258   0.180E-01    0.114E-01
RMM:  12    -0.236219934454E+03   -0.32093E-02   -0.10569E-02   209   0.109E-01
    584 T=   563. E= -.22668614E+03 F= -.23621993E+03 E0= -.23620417E+03  EK= 0.95338E+01 SP= 0.00E+00 SK= 0.00E+00
    585 T=   559. E= -.21644061E+03 F= -.22589930E+03 E0= -.22589930E+03  EK= 0.94587E+01 SP= 0.00E+00 SK= 0.00E+00
    586 T=   544. E= -.21670248E+03 F= -.22591432E+03 E0= -.22591432E+03  EK= 0.92118E+01 SP= 0.00E+00 SK= 0.00E+00
    587 T=   531. E= -.21693621E+03 F= -.22592321E+03 E0= -.22592321E+03  EK= 0.89870E+01 SP= 0.00E+00 SK= 0.00E+00
    588 T=   514. E= -.21721046E+03 F= -.22591471E+03 E0= -.22591471E+03  EK= 0.87042E+01 SP= 0.00E+00 SK= 0.00E+00
    589 T=   508. E= -.21728630E+03 F= -.22588274E+03 E0= -.22588274E+03  EK= 0.85964E+01 SP= 0.00E+00 SK= 0.00E+00
    590 T=   510. E= -.21728495E+03 F= -.22591547E+03 E0= -.22591547E+03  EK= 0.86305E+01 SP= 0.00E+00 SK= 0.00E+00
    591 T=   518. E= -.21714317E+03 F= -.22590719E+03 E0= -.22590719E+03  EK= 0.87640E+01 SP= 0.00E+00 SK= 0.00E+00
    592 T=   524. E= -.21703718E+03 F= -.22591311E+03 E0= -.22591311E+03  EK= 0.88759E+01 SP= 0.00E+00 SK= 0.00E+00
    593 T=   528. E= -.21696777E+03 F= -.22590305E+03 E0= -.22590305E+03  EK= 0.89353E+01 SP= 0.00E+00 SK= 0.00E+00
    594 T=   528. E= -.21693795E+03 F= -.22588468E+03 E0= -.22588468E+03  EK= 0.89467E+01 SP= 0.00E+00 SK= 0.00E+00
    595 T=   525. E= -.21692819E+03 F= -.22582609E+03 E0= -.22582609E+03  EK= 0.88979E+01 SP= 0.00E+00 SK= 0.00E+00
    596 T=   525. E= -.21693100E+03 F= -.22582826E+03 E0= -.22582826E+03  EK= 0.88973E+01 SP= 0.00E+00 SK= 0.00E+00
    597 T=   524. E= -.21695030E+03 F= -.22581589E+03 E0= -.22581589E+03  EK= 0.88656E+01 SP= 0.00E+00 SK= 0.00E+00
    598 T=   523. E= -.21695945E+03 F= -.22581808E+03 E0= -.22581808E+03  EK= 0.88586E+01 SP= 0.00E+00 SK= 0.00E+00
    599 T=   536. E= -.21675081E+03 F= -.22583468E+03 E0= -.22583468E+03  EK= 0.90839E+01 SP= 0.00E+00 SK= 0.00E+00
    600 T=   559. E= -.21640213E+03 F= -.22586622E+03 E0= -.22586622E+03  EK= 0.94641E+01 SP= 0.00E+00 SK= 0.00E+00
    601 T=   575. E= -.21615586E+03 F= -.22589861E+03 E0= -.22589861E+03  EK= 0.97428E+01 SP= 0.00E+00 SK= 0.00E+00
    602 T=   578. E= -.21613215E+03 F= -.22592779E+03 E0= -.22592779E+03  EK= 0.97956E+01 SP= 0.00E+00 SK= 0.00E+00
    603 T=   581. E= -.21612550E+03 F= -.22597199E+03 E0= -.22597199E+03  EK= 0.98465E+01 SP= 0.00E+00 SK= 0.00E+00
    604 T=   585. E= -.21607312E+03 F= -.22597414E+03 E0= -.22597414E+03  EK= 0.99010E+01 SP= 0.00E+00 SK= 0.00E+00
    605 T=   592. E= -.21599843E+03 F= -.22603066E+03 E0= -.22603066E+03  EK= 0.10032E+02 SP= 0.00E+00 SK= 0.00E+00
    606 T=   588. E= -.21608281E+03 F= -.22603712E+03 E0= -.22603712E+03  EK= 0.99543E+01 SP= 0.00E+00 SK= 0.00E+00
    607 T=   579. E= -.21623112E+03 F= -.22604226E+03 E0= -.22604226E+03  EK= 0.98111E+01 SP= 0.00E+00 SK= 0.00E+00
    608 T=   583. E= -.21616489E+03 F= -.22604355E+03 E0= -.22604355E+03  EK= 0.98787E+01 SP= 0.00E+00 SK= 0.00E+00
    609 T=   575. E= -.21630597E+03 F= -.22604923E+03 E0= -.22604923E+03  EK= 0.97433E+01 SP= 0.00E+00 SK= 0.00E+00
    610 T=   563. E= -.21651131E+03 F= -.22605123E+03 E0= -.22605123E+03  EK= 0.95399E+01 SP= 0.00E+00 SK= 0.00E+00
    611 T=   565. E= -.21647393E+03 F= -.22604783E+03 E0= -.22604783E+03  EK= 0.95739E+01 SP= 0.00E+00 SK= 0.00E+00
    612 T=   570. E= -.21638464E+03 F= -.22604373E+03 E0= -.22604373E+03  EK= 0.96591E+01 SP= 0.00E+00 SK= 0.00E+00
    613 T=   569. E= -.21641287E+03 F= -.22603991E+03 E0= -.22603991E+03  EK= 0.96270E+01 SP= 0.00E+00 SK= 0.00E+00
    614 T=   570. E= -.21635542E+03 F= -.22600141E+03 E0= -.22600141E+03  EK= 0.96460E+01 SP= 0.00E+00 SK= 0.00E+00
    615 T=   566. E= -.21639875E+03 F= -.22598770E+03 E0= -.22598770E+03  EK= 0.95890E+01 SP= 0.00E+00 SK= 0.00E+00
    616 T=   544. E= -.21677790E+03 F= -.22599775E+03 E0= -.22599775E+03  EK= 0.92199E+01 SP= 0.00E+00 SK= 0.00E+00
    617 T=   536. E= -.21693299E+03 F= -.22601587E+03 E0= -.22601587E+03  EK= 0.90829E+01 SP= 0.00E+00 SK= 0.00E+00
    618 T=   550. E= -.21673597E+03 F= -.22605716E+03 E0= -.22605716E+03  EK= 0.93212E+01 SP= 0.00E+00 SK= 0.00E+00
    619 T=   569. E= -.21644501E+03 F= -.22607351E+03 E0= -.22607351E+03  EK= 0.96285E+01 SP= 0.00E+00 SK= 0.00E+00
    620 T=   576. E= -.21631952E+03 F= -.22607992E+03 E0= -.22607992E+03  EK= 0.97604E+01 SP= 0.00E+00 SK= 0.00E+00
    621 T=   573. E= -.21637971E+03 F= -.22607976E+03 E0= -.22607976E+03  EK= 0.97001E+01 SP= 0.00E+00 SK= 0.00E+00
    622 T=   575. E= -.21634869E+03 F= -.22608506E+03 E0= -.22608506E+03  EK= 0.97364E+01 SP= 0.00E+00 SK= 0.00E+00
    623 T=   573. E= -.21635384E+03 F= -.22606363E+03 E0= -.22606363E+03  EK= 0.97098E+01 SP= 0.00E+00 SK= 0.00E+00
    624 T=   577. E= -.21624373E+03 F= -.22600757E+03 E0= -.22600757E+03  EK= 0.97638E+01 SP= 0.00E+00 SK= 0.00E+00
    625 T=   579. E= -.21616423E+03 F= -.22596513E+03 E0= -.22596513E+03  EK= 0.98009E+01 SP= 0.00E+00 SK= 0.00E+00
    626 T=   573. E= -.21623902E+03 F= -.22593916E+03 E0= -.22593916E+03  EK= 0.97001E+01 SP= 0.00E+00 SK= 0.00E+00
    627 T=   574. E= -.21617165E+03 F= -.22589269E+03 E0= -.22589269E+03  EK= 0.97210E+01 SP= 0.00E+00 SK= 0.00E+00
    628 T=   572. E= -.21614442E+03 F= -.22582268E+03 E0= -.22582268E+03  EK= 0.96783E+01 SP= 0.00E+00 SK= 0.00E+00
    629 T=   567. E= -.21617113E+03 F= -.22577747E+03 E0= -.22577747E+03  EK= 0.96063E+01 SP= 0.00E+00 SK= 0.00E+00
    630 T=   568. E= -.21612871E+03 F= -.22573872E+03 E0= -.22573872E+03  EK= 0.96100E+01 SP= 0.00E+00 SK= 0.00E+00
    631 T=   577. E= -.21593964E+03 F= -.22571356E+03 E0= -.22571356E+03  EK= 0.97739E+01 SP= 0.00E+00 SK= 0.00E+00
       N       E                     dE             d eps       ncg     rms          rms(c)
RMM:   1    -0.235329679884E+03    0.88705E+00   -0.52273E+02   129   0.238E+01
RMM:   2    -0.240291895293E+03   -0.49622E+01   -0.46253E+01   129   0.644E+00
RMM:   3    -0.241325922069E+03   -0.10340E+01   -0.88342E+00   129   0.272E+00
RMM:   4    -0.241603286678E+03   -0.27736E+00   -0.26259E+00   280   0.139E+00
RMM:   5    -0.241696693115E+03   -0.93406E-01   -0.88752E-01   297   0.725E-01    0.581E+00
RMM:   6    -0.240080793765E+03    0.16159E+01   -0.55277E+00   294   0.153E+00    0.352E+00
RMM:   7    -0.240003018345E+03    0.77775E-01   -0.19635E+00   259   0.108E+00    0.253E+00
RMM:   8    -0.239959930887E+03    0.43087E-01   -0.16984E+00   258   0.105E+00    0.130E+00
RMM:   9    -0.240148659441E+03   -0.18873E+00   -0.75913E-01   258   0.755E-01    0.805E-01
RMM:  10    -0.240206841740E+03   -0.58182E-01   -0.20478E-01   258   0.429E-01    0.567E-01
RMM:  11    -0.240255100095E+03   -0.48258E-01   -0.13810E-01   258   0.381E-01    0.316E-01
RMM:  12    -0.240274154964E+03   -0.19055E-01   -0.62568E-02   258   0.260E-01    0.197E-01
RMM:  13    -0.240281219414E+03   -0.70645E-02   -0.25622E-02   258   0.169E-01    0.122E-01
RMM:  14    -0.240284915644E+03   -0.36962E-02   -0.13493E-02   236   0.123E-01
    632 T=   589. E= -.23030569E+03 F= -.24028492E+03 E0= -.24028317E+03  EK= 0.99792E+01 SP= 0.00E+00 SK= 0.00E+00
    633 T=   606. E= -.21539210E+03 F= -.22565881E+03 E0= -.22565881E+03  EK= 0.10267E+02 SP= 0.00E+00 SK= 0.00E+00
    634 T=   606. E= -.21536867E+03 F= -.22562941E+03 E0= -.22562941E+03  EK= 0.10261E+02 SP= 0.00E+00 SK= 0.00E+00
    635 T=   616. E= -.21519251E+03 F= -.22562073E+03 E0= -.22562073E+03  EK= 0.10428E+02 SP= 0.00E+00 SK= 0.00E+00
    636 T=   637. E= -.21482415E+03 F= -.22561185E+03 E0= -.22561185E+03  EK= 0.10788E+02 SP= 0.00E+00 SK= 0.00E+00
    637 T=   658. E= -.21444241E+03 F= -.22558085E+03 E0= -.22558085E+03  EK= 0.11138E+02 SP= 0.00E+00 SK= 0.00E+00
    638 T=   664. E= -.21434398E+03 F= -.22558055E+03 E0= -.22558055E+03  EK= 0.11237E+02 SP= 0.00E+00 SK= 0.00E+00
    639 T=   656. E= -.21446753E+03 F= -.22557538E+03 E0= -.22557538E+03  EK= 0.11108E+02 SP= 0.00E+00 SK= 0.00E+00
    640 T=   643. E= -.21460488E+03 F= -.22549443E+03 E0= -.22549443E+03  EK= 0.10890E+02 SP= 0.00E+00 SK= 0.00E+00
    641 T=   646. E= -.21455238E+03 F= -.22549317E+03 E0= -.22549317E+03  EK= 0.10941E+02 SP= 0.00E+00 SK= 0.00E+00
       N       E                     dE             d eps       ncg     rms          rms(c)
RMM:   1    -0.243042116900E+03   -0.27609E+01   -0.80778E+01   129   0.963E+00
RMM:   2    -0.243690949567E+03   -0.64883E+00   -0.59505E+00   129   0.245E+00
RMM:   3    -0.243798450675E+03   -0.10750E+00   -0.10375E+00   129   0.948E-01
RMM:   4    -0.243822917971E+03   -0.24467E-01   -0.23955E-01   259   0.460E-01
RMM:   5    -0.243833073086E+03   -0.10155E-01   -0.10091E-01   278   0.258E-01    0.292E+00
RMM:   6    -0.243201791962E+03    0.63128E+00   -0.13282E+00   314   0.766E-01    0.180E+00
RMM:   7    -0.243119312378E+03    0.82480E-01   -0.43713E-01   273   0.507E-01    0.132E+00
RMM:   8    -0.242995860660E+03    0.12345E+00   -0.44888E-01   258   0.544E-01    0.655E-01
RMM:   9    -0.243013081369E+03   -0.17221E-01   -0.18656E-01   258   0.384E-01    0.426E-01
RMM:  10    -0.243020111906E+03   -0.70305E-02   -0.67460E-02   258   0.252E-01    0.268E-01
RMM:  11    -0.243030915456E+03   -0.10804E-01   -0.44298E-02   258   0.218E-01    0.161E-01
RMM:  12    -0.243035599501E+03   -0.46840E-02   -0.18819E-02   256   0.144E-01
    642 T=   655. E= -.23194306E+03 F= -.24303560E+03 E0= -.24302932E+03  EK= 0.11093E+02 SP= 0.00E+00 SK= 0.00E+00
    643 T=   676. E= -.21404219E+03 F= -.22548671E+03 E0= -.22548671E+03  EK= 0.11445E+02 SP= 0.00E+00 SK= 0.00E+00
    644 T=   674. E= -.21407407E+03 F= -.22549417E+03 E0= -.22549417E+03  EK= 0.11420E+02 SP= 0.00E+00 SK= 0.00E+00
    645 T=   666. E= -.21419638E+03 F= -.22547944E+03 E0= -.22547944E+03  EK= 0.11283E+02 SP= 0.00E+00 SK= 0.00E+00
    646 T=   659. E= -.21431062E+03 F= -.22547710E+03 E0= -.22547710E+03  EK= 0.11166E+02 SP= 0.00E+00 SK= 0.00E+00
    647 T=   651. E= -.21443146E+03 F= -.22545036E+03 E0= -.22545036E+03  EK= 0.11019E+02 SP= 0.00E+00 SK= 0.00E+00
    648 T=   650. E= -.21444373E+03 F= -.22545304E+03 E0= -.22545304E+03  EK= 0.11009E+02 SP= 0.00E+00 SK= 0.00E+00
    649 T=   648. E= -.21450061E+03 F= -.22547600E+03 E0= -.22547600E+03  EK= 0.10975E+02 SP= 0.00E+00 SK= 0.00E+00
    650 T=   650. E= -.21448005E+03 F= -.22548698E+03 E0= -.22548698E+03  EK= 0.11007E+02 SP= 0.00E+00 SK= 0.00E+00
    651 T=   670. E= -.21420515E+03 F= -.22554629E+03 E0= -.22554629E+03  EK= 0.11341E+02 SP= 0.00E+00 SK= 0.00E+00
    652 T=   688. E= -.21392241E+03 F= -.22557178E+03 E0= -.22557178E+03  EK= 0.11649E+02 SP= 0.00E+00 SK= 0.00E+00
    653 T=   685. E= -.21400927E+03 F= -.22560270E+03 E0= -.22560270E+03  EK= 0.11593E+02 SP= 0.00E+00 SK= 0.00E+00
    654 T=   675. E= -.21420004E+03 F= -.22563817E+03 E0= -.22563817E+03  EK= 0.11438E+02 SP= 0.00E+00 SK= 0.00E+00
    655 T=   663. E= -.21442552E+03 F= -.22565128E+03 E0= -.22565128E+03  EK= 0.11226E+02 SP= 0.00E+00 SK= 0.00E+00
    656 T=   640. E= -.21486263E+03 F= -.22569328E+03 E0= -.22569328E+03  EK= 0.10831E+02 SP= 0.00E+00 SK= 0.00E+00
    657 T=   630. E= -.21507209E+03 F= -.22574208E+03 E0= -.22574208E+03  EK= 0.10670E+02 SP= 0.00E+00 SK= 0.00E+00
    658 T=   631. E= -.21508788E+03 F= -.22578011E+03 E0= -.22578011E+03  EK= 0.10692E+02 SP= 0.00E+00 SK= 0.00E+00
    659 T=   640. E= -.21500449E+03 F= -.22583476E+03 E0= -.22583476E+03  EK= 0.10830E+02 SP= 0.00E+00 SK= 0.00E+00
    660 T=   643. E= -.21499847E+03 F= -.22588696E+03 E0= -.22588696E+03  EK= 0.10888E+02 SP= 0.00E+00 SK= 0.00E+00
    661 T=   639. E= -.21509781E+03 F= -.22591079E+03 E0= -.22591079E+03  EK= 0.10813E+02 SP= 0.00E+00 SK= 0.00E+00
    662 T=   631. E= -.21527444E+03 F= -.22595111E+03 E0= -.22595111E+03  EK= 0.10677E+02 SP= 0.00E+00 SK= 0.00E+00
    663 T=   622. E= -.21541813E+03 F= -.22594345E+03 E0= -.22594345E+03  EK= 0.10525E+02 SP= 0.00E+00 SK= 0.00E+00
    664 T=   621. E= -.21545712E+03 F= -.22596863E+03 E0= -.22596863E+03  EK= 0.10512E+02 SP= 0.00E+00 SK= 0.00E+00
    665 T=   624. E= -.21538420E+03 F= -.22594888E+03 E0= -.22594888E+03  EK= 0.10565E+02 SP= 0.00E+00 SK= 0.00E+00
    666 T=   622. E= -.21544397E+03 F= -.22596926E+03 E0= -.22596926E+03  EK= 0.10525E+02 SP= 0.00E+00 SK= 0.00E+00
    667 T=   619. E= -.21551982E+03 F= -.22600576E+03 E0= -.22600576E+03  EK= 0.10486E+02 SP= 0.00E+00 SK= 0.00E+00
    668 T=   623. E= -.21546311E+03 F= -.22600855E+03 E0= -.22600855E+03  EK= 0.10545E+02 SP= 0.00E+00 SK= 0.00E+00
    669 T=   615. E= -.21557123E+03 F= -.22599038E+03 E0= -.22599038E+03  EK= 0.10419E+02 SP= 0.00E+00 SK= 0.00E+00
    670 T=   612. E= -.21565808E+03 F= -.22601640E+03 E0= -.22601640E+03  EK= 0.10358E+02 SP= 0.00E+00 SK= 0.00E+00
    671 T=   624. E= -.21553026E+03 F= -.22609182E+03 E0= -.22609182E+03  EK= 0.10562E+02 SP= 0.00E+00 SK= 0.00E+00
    672 T=   640. E= -.21525382E+03 F= -.22609190E+03 E0= -.22609190E+03  EK= 0.10838E+02 SP= 0.00E+00 SK= 0.00E+00
    673 T=   644. E= -.21518400E+03 F= -.22609260E+03 E0= -.22609260E+03  EK= 0.10909E+02 SP= 0.00E+00 SK= 0.00E+00
    674 T=   633. E= -.21539485E+03 F= -.22610515E+03 E0= -.22610515E+03  EK= 0.10710E+02 SP= 0.00E+00 SK= 0.00E+00
    675 T=   623. E= -.21555730E+03 F= -.22609860E+03 E0= -.22609860E+03  EK= 0.10541E+02 SP= 0.00E+00 SK= 0.00E+00
    676 T=   630. E= -.21542946E+03 F= -.22609414E+03 E0= -.22609414E+03  EK= 0.10665E+02 SP= 0.00E+00 SK= 0.00E+00
    677 T=   627. E= -.21551839E+03 F= -.22612968E+03 E0= -.22612968E+03  EK= 0.10611E+02 SP= 0.00E+00 SK= 0.00E+00
    678 T=   623. E= -.21559143E+03 F= -.22614676E+03 E0= -.22614676E+03  EK= 0.10555E+02 SP= 0.00E+00 SK= 0.00E+00
    679 T=   622. E= -.21562343E+03 F= -.22616021E+03 E0= -.22616021E+03  EK= 0.10537E+02 SP= 0.00E+00 SK= 0.00E+00
    680 T=   614. E= -.21579805E+03 F= -.22619590E+03 E0= -.22619590E+03  EK= 0.10398E+02 SP= 0.00E+00 SK= 0.00E+00
    681 T=   607. E= -.21593288E+03 F= -.22621341E+03 E0= -.22621341E+03  EK= 0.10281E+02 SP= 0.00E+00 SK= 0.00E+00
    682 T=   600. E= -.21607762E+03 F= -.22623237E+03 E0= -.22623237E+03  EK= 0.10155E+02 SP= 0.00E+00 SK= 0.00E+00
    683 T=   595. E= -.21618070E+03 F= -.22624850E+03 E0= -.22624850E+03  EK= 0.10068E+02 SP= 0.00E+00 SK= 0.00E+00
    684 T=   592. E= -.21626700E+03 F= -.22628769E+03 E0= -.22628769E+03  EK= 0.10021E+02 SP= 0.00E+00 SK= 0.00E+00
    685 T=   600. E= -.21615604E+03 F= -.22632006E+03 E0= -.22632006E+03  EK= 0.10164E+02 SP= 0.00E+00 SK= 0.00E+00
    686 T=   609. E= -.21599220E+03 F= -.22629995E+03 E0= -.22629995E+03  EK= 0.10308E+02 SP= 0.00E+00 SK= 0.00E+00
    687 T=   620. E= -.21579903E+03 F= -.22629459E+03 E0= -.22629459E+03  EK= 0.10496E+02 SP= 0.00E+00 SK= 0.00E+00
    688 T=   628. E= -.21565917E+03 F= -.22629120E+03 E0= -.22629120E+03  EK= 0.10632E+02 SP= 0.00E+00 SK= 0.00E+00
    689 T=   625. E= -.21569309E+03 F= -.22627935E+03 E0= -.22627935E+03  EK= 0.10586E+02 SP= 0.00E+00 SK= 0.00E+00
    690 T=   632. E= -.21558150E+03 F= -.22627756E+03 E0= -.22627756E+03  EK= 0.10696E+02 SP= 0.00E+00 SK= 0.00E+00
    691 T=   638. E= -.21544883E+03 F= -.22625019E+03 E0= -.22625019E+03  EK= 0.10801E+02 SP= 0.00E+00 SK= 0.00E+00
    692 T=   638. E= -.21544507E+03 F= -.22624239E+03 E0= -.22624239E+03  EK= 0.10797E+02 SP= 0.00E+00 SK= 0.00E+00
    693 T=   636. E= -.21546603E+03 F= -.22624240E+03 E0= -.22624240E+03  EK= 0.10776E+02 SP= 0.00E+00 SK= 0.00E+00
    694 T=   626. E= -.21562078E+03 F= -.22622008E+03 E0= -.22622008E+03  EK= 0.10599E+02 SP= 0.00E+00 SK= 0.00E+00
    695 T=   627. E= -.21559064E+03 F= -.22621167E+03 E0= -.22621167E+03  EK= 0.10621E+02 SP= 0.00E+00 SK= 0.00E+00
    696 T=   638. E= -.21538268E+03 F= -.22619342E+03 E0= -.22619342E+03  EK= 0.10811E+02 SP= 0.00E+00 SK= 0.00E+00
    697 T=   645. E= -.21522660E+03 F= -.22614402E+03 E0= -.22614402E+03  EK= 0.10917E+02 SP= 0.00E+00 SK= 0.00E+00
    698 T=   643. E= -.21521911E+03 F= -.22610612E+03 E0= -.22610612E+03  EK= 0.10887E+02 SP= 0.00E+00 SK= 0.00E+00
    699 T=   629. E= -.21540125E+03 F= -.22605465E+03 E0= -.22605465E+03  EK= 0.10653E+02 SP= 0.00E+00 SK= 0.00E+00
    700 T=   622. E= -.21551105E+03 F= -.22604874E+03 E0= -.22604874E+03  EK= 0.10538E+02 SP= 0.00E+00 SK= 0.00E+00
    701 T=   623. E= -.21548942E+03 F= -.22604420E+03 E0= -.22604420E+03  EK= 0.10555E+02 SP= 0.00E+00 SK= 0.00E+00
    702 T=   625. E= -.21545659E+03 F= -.22604801E+03 E0= -.22604801E+03  EK= 0.10591E+02 SP= 0.00E+00 SK= 0.00E+00
    703 T=   634. E= -.21524820E+03 F= -.22597612E+03 E0= -.22597612E+03  EK= 0.10728E+02 SP= 0.00E+00 SK= 0.00E+00
    704 T=   637. E= -.21517186E+03 F= -.22596365E+03 E0= -.22596365E+03  EK= 0.10792E+02 SP= 0.00E+00 SK= 0.00E+00
    705 T=   642. E= -.21509190E+03 F= -.22595799E+03 E0= -.22595799E+03  EK= 0.10866E+02 SP= 0.00E+00 SK= 0.00E+00
    706 T=   651. E= -.21495231E+03 F= -.22597464E+03 E0= -.22597464E+03  EK= 0.11022E+02 SP= 0.00E+00 SK= 0.00E+00
    707 T=   655. E= -.21492950E+03 F= -.22602304E+03 E0= -.22602304E+03  EK= 0.11094E+02 SP= 0.00E+00 SK= 0.00E+00
    708 T=   661. E= -.21487923E+03 F= -.22607009E+03 E0= -.22607009E+03  EK= 0.11191E+02 SP= 0.00E+00 SK= 0.00E+00
    709 T=   664. E= -.21481344E+03 F= -.22606195E+03 E0= -.22606195E+03  EK= 0.11249E+02 SP= 0.00E+00 SK= 0.00E+00
    710 T=   657. E= -.21494307E+03 F= -.22607453E+03 E0= -.22607453E+03  EK= 0.11131E+02 SP= 0.00E+00 SK= 0.00E+00
    711 T=   655. E= -.21500171E+03 F= -.22609902E+03 E0= -.22609902E+03  EK= 0.11097E+02 SP= 0.00E+00 SK= 0.00E+00
    712 T=   655. E= -.21500963E+03 F= -.22609508E+03 E0= -.22609508E+03  EK= 0.11085E+02 SP= 0.00E+00 SK= 0.00E+00
    713 T=   653. E= -.21500758E+03 F= -.22606262E+03 E0= -.22606262E+03  EK= 0.11055E+02 SP= 0.00E+00 SK= 0.00E+00
    714 T=   657. E= -.21493153E+03 F= -.22604993E+03 E0= -.22604993E+03  EK= 0.11118E+02 SP= 0.00E+00 SK= 0.00E+00
    715 T=   646. E= -.21510609E+03 F= -.22605114E+03 E0= -.22605114E+03  EK= 0.10945E+02 SP= 0.00E+00 SK= 0.00E+00
    716 T=   636. E= -.21525001E+03 F= -.22602181E+03 E0= -.22602181E+03  EK= 0.10772E+02 SP= 0.00E+00 SK= 0.00E+00
    717 T=   624. E= -.21539428E+03 F= -.22596479E+03 E0= -.22596479E+03  EK= 0.10571E+02 SP= 0.00E+00 SK= 0.00E+00
    718 T=   615. E= -.21545127E+03 F= -.22585805E+03 E0= -.22585805E+03  EK= 0.10407E+02 SP= 0.00E+00 SK= 0.00E+00
    719 T=   606. E= -.21555761E+03 F= -.22581654E+03 E0= -.22581654E+03  EK= 0.10259E+02 SP= 0.00E+00 SK= 0.00E+00
    720 T=   601. E= -.21560073E+03 F= -.22577856E+03 E0= -.22577856E+03  EK= 0.10178E+02 SP= 0.00E+00 SK= 0.00E+00
    721 T=   598. E= -.21562826E+03 F= -.22575412E+03 E0= -.22575412E+03  EK= 0.10126E+02 SP= 0.00E+00 SK= 0.00E+00
    722 T=   605. E= -.21551944E+03 F= -.22576119E+03 E0= -.22576119E+03  EK= 0.10242E+02 SP= 0.00E+00 SK= 0.00E+00
    723 T=   605. E= -.21553368E+03 F= -.22578008E+03 E0= -.22578008E+03  EK= 0.10246E+02 SP= 0.00E+00 SK= 0.00E+00
    724 T=   593. E= -.21573888E+03 F= -.22578749E+03 E0= -.22578749E+03  EK= 0.10049E+02 SP= 0.00E+00 SK= 0.00E+00
    725 T=   595. E= -.21573445E+03 F= -.22580196E+03 E0= -.22580196E+03  EK= 0.10068E+02 SP= 0.00E+00 SK= 0.00E+00
    726 T=   601. E= -.21563524E+03 F= -.22580472E+03 E0= -.22580472E+03  EK= 0.10169E+02 SP= 0.00E+00 SK= 0.00E+00
    727 T=   597. E= -.21575469E+03 F= -.22586892E+03 E0= -.22586892E+03  EK= 0.10114E+02 SP= 0.00E+00 SK= 0.00E+00
    728 T=   589. E= -.21596607E+03 F= -.22593226E+03 E0= -.22593226E+03  EK= 0.99662E+01 SP= 0.00E+00 SK= 0.00E+00
    729 T=   592. E= -.21592911E+03 F= -.22595979E+03 E0= -.22595979E+03  EK= 0.10031E+02 SP= 0.00E+00 SK= 0.00E+00
    730 T=   593. E= -.21596687E+03 F= -.22600171E+03 E0= -.22600171E+03  EK= 0.10035E+02 SP= 0.00E+00 SK= 0.00E+00
    731 T=   592. E= -.21602335E+03 F= -.22604745E+03 E0= -.22604745E+03  EK= 0.10024E+02 SP= 0.00E+00 SK= 0.00E+00
    732 T=   597. E= -.21601036E+03 F= -.22612668E+03 E0= -.22612668E+03  EK= 0.10116E+02 SP= 0.00E+00 SK= 0.00E+00
    733 T=   601. E= -.21598720E+03 F= -.22616023E+03 E0= -.22616023E+03  EK= 0.10173E+02 SP= 0.00E+00 SK= 0.00E+00
    734 T=   594. E= -.21610484E+03 F= -.22616143E+03 E0= -.22616143E+03  EK= 0.10057E+02 SP= 0.00E+00 SK= 0.00E+00
    735 T=   591. E= -.21621369E+03 F= -.22622315E+03 E0= -.22622315E+03  EK= 0.10009E+02 SP= 0.00E+00 SK= 0.00E+00
    736 T=   604. E= -.21600510E+03 F= -.22623654E+03 E0= -.22623654E+03  EK= 0.10231E+02 SP= 0.00E+00 SK= 0.00E+00
    737 T=   608. E= -.21590473E+03 F= -.22620627E+03 E0= -.22620627E+03  EK= 0.10302E+02 SP= 0.00E+00 SK= 0.00E+00
    738 T=   597. E= -.21609847E+03 F= -.22621374E+03 E0= -.22621374E+03  EK= 0.10115E+02 SP= 0.00E+00 SK= 0.00E+00
    739 T=   592. E= -.21618818E+03 F= -.22621339E+03 E0= -.22621339E+03  EK= 0.10025E+02 SP= 0.00E+00 SK= 0.00E+00
    740 T=   591. E= -.21619267E+03 F= -.22620724E+03 E0= -.22620724E+03  EK= 0.10015E+02 SP= 0.00E+00 SK= 0.00E+00
    741 T=   592. E= -.21617318E+03 F= -.22619847E+03 E0= -.22619847E+03  EK= 0.10025E+02 SP= 0.00E+00 SK= 0.00E+00
    742 T=   597. E= -.21608801E+03 F= -.22620546E+03 E0= -.22620546E+03  EK= 0.10117E+02 SP= 0.00E+00 SK= 0.00E+00
    743 T=   605. E= -.21592756E+03 F= -.22616528E+03 E0= -.22616528E+03  EK= 0.10238E+02 SP= 0.00E+00 SK= 0.00E+00
    744 T=   601. E= -.21596497E+03 F= -.22614070E+03 E0= -.22614070E+03  EK= 0.10176E+02 SP= 0.00E+00 SK= 0.00E+00
    745 T=   604. E= -.21590796E+03 F= -.22613745E+03 E0= -.22613745E+03  EK= 0.10229E+02 SP= 0.00E+00 SK= 0.00E+00
    746 T=   615. E= -.21567875E+03 F= -.22609630E+03 E0= -.22609630E+03  EK= 0.10418E+02 SP= 0.00E+00 SK= 0.00E+00
    747 T=   612. E= -.21571550E+03 F= -.22608382E+03 E0= -.22608382E+03  EK= 0.10368E+02 SP= 0.00E+00 SK= 0.00E+00
    748 T=   611. E= -.21575717E+03 F= -.22609504E+03 E0= -.22609504E+03  EK= 0.10338E+02 SP= 0.00E+00 SK= 0.00E+00
    749 T=   608. E= -.21580003E+03 F= -.22608882E+03 E0= -.22608882E+03  EK= 0.10289E+02 SP= 0.00E+00 SK= 0.00E+00
    750 T=   601. E= -.21591166E+03 F= -.22608377E+03 E0= -.22608377E+03  EK= 0.10172E+02 SP= 0.00E+00 SK= 0.00E+00
    751 T=   594. E= -.21602369E+03 F= -.22608147E+03 E0= -.22608147E+03  EK= 0.10058E+02 SP= 0.00E+00 SK= 0.00E+00
    752 T=   601. E= -.21590495E+03 F= -.22608670E+03 E0= -.22608670E+03  EK= 0.10182E+02 SP= 0.00E+00 SK= 0.00E+00
    753 T=   606. E= -.21583221E+03 F= -.22609312E+03 E0= -.22609312E+03  EK= 0.10261E+02 SP= 0.00E+00 SK= 0.00E+00
    754 T=   599. E= -.21593763E+03 F= -.22607597E+03 E0= -.22607597E+03  EK= 0.10138E+02 SP= 0.00E+00 SK= 0.00E+00
    755 T=   597. E= -.21600235E+03 F= -.22611459E+03 E0= -.22611459E+03  EK= 0.10112E+02 SP= 0.00E+00 SK= 0.00E+00
    756 T=   605. E= -.21588918E+03 F= -.22612985E+03 E0= -.22612985E+03  EK= 0.10241E+02 SP= 0.00E+00 SK= 0.00E+00
    757 T=   615. E= -.21571149E+03 F= -.22613353E+03 E0= -.22613353E+03  EK= 0.10422E+02 SP= 0.00E+00 SK= 0.00E+00
    758 T=   627. E= -.21549983E+03 F= -.22611646E+03 E0= -.22611646E+03  EK= 0.10617E+02 SP= 0.00E+00 SK= 0.00E+00
    759 T=   647. E= -.21516134E+03 F= -.22610878E+03 E0= -.22610878E+03  EK= 0.10947E+02 SP= 0.00E+00 SK= 0.00E+00
    760 T=   652. E= -.21505519E+03 F= -.22610029E+03 E0= -.22610029E+03  EK= 0.11045E+02 SP= 0.00E+00 SK= 0.00E+00
    761 T=   640. E= -.21524958E+03 F= -.22608918E+03 E0= -.22608918E+03  EK= 0.10840E+02 SP= 0.00E+00 SK= 0.00E+00
    762 T=   629. E= -.21541207E+03 F= -.22606054E+03 E0= -.22606054E+03  EK= 0.10648E+02 SP= 0.00E+00 SK= 0.00E+00
    763 T=   621. E= -.21552625E+03 F= -.22604688E+03 E0= -.22604688E+03  EK= 0.10521E+02 SP= 0.00E+00 SK= 0.00E+00
    764 T=   615. E= -.21562129E+03 F= -.22603325E+03 E0= -.22603325E+03  EK= 0.10412E+02 SP= 0.00E+00 SK= 0.00E+00
       N       E                     dE             d eps       ncg     rms          rms(c)
RMM:   1    -0.230441724890E+03    0.12589E+02   -0.87976E+02   129   0.250E+01
RMM:   2    -0.242006580064E+03   -0.11565E+02   -0.10604E+02   129   0.848E+00
RMM:   3    -0.244789312979E+03   -0.27827E+01   -0.22727E+01   129   0.409E+00
RMM:   4    -0.245767547287E+03   -0.97823E+00   -0.91853E+00   300   0.216E+00
RMM:   5    -0.245978956713E+03   -0.21141E+00   -0.17576E+00   306   0.928E-01    0.774E+00
RMM:   6    -0.244537023238E+03    0.14419E+01   -0.86467E+00   284   0.199E+00    0.487E+00
RMM:   7    -0.245774531169E+03   -0.12375E+01   -0.49408E+00   258   0.168E+00    0.333E+00
RMM:   8    -0.246716616307E+03   -0.94209E+00   -0.33581E+00   258   0.143E+00    0.203E+00
RMM:   9    -0.247346753671E+03   -0.63014E+00   -0.14701E+00   258   0.103E+00    0.132E+00
RMM:  10    -0.247640501918E+03   -0.29375E+00   -0.58254E-01   258   0.707E-01    0.839E-01
RMM:  11    -0.247772735890E+03   -0.13223E+00   -0.32779E-01   258   0.545E-01    0.486E-01
RMM:  12    -0.247819827507E+03   -0.47092E-01   -0.13234E-01   258   0.348E-01    0.319E-01
RMM:  13    -0.247836218506E+03   -0.16391E-01   -0.57945E-02   259   0.235E-01    0.203E-01
RMM:  14    -0.247844776245E+03   -0.85577E-02   -0.26951E-02   258   0.162E-01    0.135E-01
RMM:  15    -0.247849910002E+03   -0.51338E-02   -0.16598E-02   246   0.127E-01    0.944E-02
RMM:  16    -0.247853164361E+03   -0.32544E-02   -0.11276E-02   220   0.104E-01
    765 T=   616. E= -.23742863E+03 F= -.24785316E+03 E0= -.24783600E+03  EK= 0.10425E+02 SP= 0.00E+00 SK= 0.00E+00
    766 T=   654. E= -.21492644E+03 F= -.22599503E+03 E0= -.22599503E+03  EK= 0.11069E+02 SP= 0.00E+00 SK= 0.00E+00
    767 T=   658. E= -.21484121E+03 F= -.22597736E+03 E0= -.22597736E+03  EK= 0.11136E+02 SP= 0.00E+00 SK= 0.00E+00
    768 T=   647. E= -.21498676E+03 F= -.22595028E+03 E0= -.22595028E+03  EK= 0.10964E+02 SP= 0.00E+00 SK= 0.00E+00
    769 T=   644. E= -.21502328E+03 F= -.22592629E+03 E0= -.22592629E+03  EK= 0.10903E+02 SP= 0.00E+00 SK= 0.00E+00
    770 T=   654. E= -.21482284E+03 F= -.22589794E+03 E0= -.22589794E+03  EK= 0.11075E+02 SP= 0.00E+00 SK= 0.00E+00
    771 T=   661. E= -.21467165E+03 F= -.22586788E+03 E0= -.22586788E+03  EK= 0.11196E+02 SP= 0.00E+00 SK= 0.00E+00
    772 T=   669. E= -.21448687E+03 F= -.22581048E+03 E0= -.22581048E+03  EK= 0.11324E+02 SP= 0.00E+00 SK= 0.00E+00
    773 T=   667. E= -.21448818E+03 F= -.22578902E+03 E0= -.22578902E+03  EK= 0.11301E+02 SP= 0.00E+00 SK= 0.00E+00
    774 T=   655. E= -.21462069E+03 F= -.22572006E+03 E0= -.22572006E+03  EK= 0.11099E+02 SP= 0.00E+00 SK= 0.00E+00
       N       E                     dE             d eps       ncg     rms          rms(c)
RMM:   1    -0.252614657227E+03   -0.47647E+01   -0.74748E+01   129   0.846E+00
RMM:   2    -0.253207801212E+03   -0.59314E+00   -0.54977E+00   129   0.220E+00
RMM:   3    -0.253315219928E+03   -0.10742E+00   -0.10338E+00   129   0.860E-01
RMM:   4    -0.253340596932E+03   -0.25377E-01   -0.24865E-01   267   0.437E-01
RMM:   5    -0.253352365375E+03   -0.11768E-01   -0.11688E-01   285   0.247E-01    0.303E+00
RMM:   6    -0.252767611645E+03    0.58475E+00   -0.16901E+00   334   0.802E-01    0.190E+00
RMM:   7    -0.252578717312E+03    0.18889E+00   -0.40380E-01   277   0.450E-01    0.140E+00
RMM:   8    -0.252457671403E+03    0.12105E+00   -0.62954E-01   274   0.583E-01    0.669E-01
RMM:   9    -0.252480359662E+03   -0.22688E-01   -0.21581E-01   259   0.386E-01    0.460E-01
RMM:  10    -0.252486788889E+03   -0.64292E-02   -0.72132E-02   258   0.245E-01    0.317E-01
RMM:  11    -0.252496284414E+03   -0.94955E-02   -0.46006E-02   258   0.205E-01    0.200E-01
RMM:  12    -0.252506205203E+03   -0.99208E-02   -0.40022E-02   258   0.193E-01    0.134E-01
RMM:  13    -0.252508280764E+03   -0.20756E-02   -0.95508E-03   206   0.956E-02
    775 T=   641. E= -.24164862E+03 F= -.25250828E+03 E0= -.25248717E+03  EK= 0.10860E+02 SP= 0.00E+00 SK= 0.00E+00
    776 T=   670. E= -.21632076E+03 F= -.22767222E+03 E0= -.22767222E+03  EK= 0.11351E+02 SP= 0.00E+00 SK= 0.00E+00
    777 T=   661. E= -.21644588E+03 F= -.22764199E+03 E0= -.22764199E+03  EK= 0.11196E+02 SP= 0.00E+00 SK= 0.00E+00
    778 T=   647. E= -.21673384E+03 F= -.22769477E+03 E0= -.22769477E+03  EK= 0.10961E+02 SP= 0.00E+00 SK= 0.00E+00
    779 T=   647. E= -.21672010E+03 F= -.22768174E+03 E0= -.22768174E+03  EK= 0.10962E+02 SP= 0.00E+00 SK= 0.00E+00
    780 T=   653. E= -.21659796E+03 F= -.22764987E+03 E0= -.22764987E+03  EK= 0.11052E+02 SP= 0.00E+00 SK= 0.00E+00
    781 T=   666. E= -.21632227E+03 F= -.22760705E+03 E0= -.22760705E+03  EK= 0.11285E+02 SP= 0.00E+00 SK= 0.00E+00
    782 T=   678. E= -.21613658E+03 F= -.22761584E+03 E0= -.22761584E+03  EK= 0.11479E+02 SP= 0.00E+00 SK= 0.00E+00
    783 T=   674. E= -.21623692E+03 F= -.22764457E+03 E0= -.22764457E+03  EK= 0.11408E+02 SP= 0.00E+00 SK= 0.00E+00
    784 T=   667. E= -.21635413E+03 F= -.22765598E+03 E0= -.22765598E+03  EK= 0.11302E+02 SP= 0.00E+00 SK= 0.00E+00
    785 T=   658. E= -.21649574E+03 F= -.22763969E+03 E0= -.22763969E+03  EK= 0.11144E+02 SP= 0.00E+00 SK= 0.00E+00
    786 T=   650. E= -.21662580E+03 F= -.22762660E+03 E0= -.22762660E+03  EK= 0.11001E+02 SP= 0.00E+00 SK= 0.00E+00
    787 T=   648. E= -.21667225E+03 F= -.22764843E+03 E0= -.22764843E+03  EK= 0.10976E+02 SP= 0.00E+00 SK= 0.00E+00
    788 T=   645. E= -.21675288E+03 F= -.22767573E+03 E0= -.22767573E+03  EK= 0.10923E+02 SP= 0.00E+00 SK= 0.00E+00
    789 T=   647. E= -.21677695E+03 F= -.22773779E+03 E0= -.22773779E+03  EK= 0.10961E+02 SP= 0.00E+00 SK= 0.00E+00
    790 T=   655. E= -.21664766E+03 F= -.22773529E+03 E0= -.22773529E+03  EK= 0.11088E+02 SP= 0.00E+00 SK= 0.00E+00
    791 T=   665. E= -.21653406E+03 F= -.22779211E+03 E0= -.22779211E+03  EK= 0.11258E+02 SP= 0.00E+00 SK= 0.00E+00
    792 T=   659. E= -.21670217E+03 F= -.22785945E+03 E0= -.22785945E+03  EK= 0.11157E+02 SP= 0.00E+00 SK= 0.00E+00
    793 T=   630. E= -.21725202E+03 F= -.22792775E+03 E0= -.22792775E+03  EK= 0.10676E+02 SP= 0.00E+00 SK= 0.00E+00
    794 T=   618. E= -.21756416E+03 F= -.22803262E+03 E0= -.22803262E+03  EK= 0.10468E+02 SP= 0.00E+00 SK= 0.00E+00
    795 T=   622. E= -.21757331E+03 F= -.22810763E+03 E0= -.22810763E+03  EK= 0.10534E+02 SP= 0.00E+00 SK= 0.00E+00
    796 T=   634. E= -.21749120E+03 F= -.22823473E+03 E0= -.22823473E+03  EK= 0.10744E+02 SP= 0.00E+00 SK= 0.00E+00
    797 T=   646. E= -.21737610E+03 F= -.22831465E+03 E0= -.22831465E+03  EK= 0.10939E+02 SP= 0.00E+00 SK= 0.00E+00
    798 T=   651. E= -.21735402E+03 F= -.22838164E+03 E0= -.22838164E+03  EK= 0.11028E+02 SP= 0.00E+00 SK= 0.00E+00
    799 T=   659. E= -.21726873E+03 F= -.22843357E+03 E0= -.22843357E+03  EK= 0.11165E+02 SP= 0.00E+00 SK= 0.00E+00
    800 T=   667. E= -.21718201E+03 F= -.22847431E+03 E0= -.22847431E+03  EK= 0.11292E+02 SP= 0.00E+00 SK= 0.00E+00
    801 T=   667. E= -.21719536E+03 F= -.22848963E+03 E0= -.22848963E+03  EK= 0.11294E+02 SP= 0.00E+00 SK= 0.00E+00
    802 T=   664. E= -.21728039E+03 F= -.22852106E+03 E0= -.22852106E+03  EK= 0.11241E+02 SP= 0.00E+00 SK= 0.00E+00
    803 T=   676. E= -.21706240E+03 F= -.22851467E+03 E0= -.22851467E+03  EK= 0.11452E+02 SP= 0.00E+00 SK= 0.00E+00
    804 T=   685. E= -.21692737E+03 F= -.22851900E+03 E0= -.22851900E+03  EK= 0.11592E+02 SP= 0.00E+00 SK= 0.00E+00
    805 T=   680. E= -.21697452E+03 F= -.22849534E+03 E0= -.22849534E+03  EK= 0.11521E+02 SP= 0.00E+00 SK= 0.00E+00
    806 T=   681. E= -.21696604E+03 F= -.22849279E+03 E0= -.22849279E+03  EK= 0.11527E+02 SP= 0.00E+00 SK= 0.00E+00
    807 T=   691. E= -.21678999E+03 F= -.22848830E+03 E0= -.22848830E+03  EK= 0.11698E+02 SP= 0.00E+00 SK= 0.00E+00
    808 T=   702. E= -.21661225E+03 F= -.22850232E+03 E0= -.22850232E+03  EK= 0.11890E+02 SP= 0.00E+00 SK= 0.00E+00
    809 T=   694. E= -.21672495E+03 F= -.22848297E+03 E0= -.22848297E+03  EK= 0.11758E+02 SP= 0.00E+00 SK= 0.00E+00
    810 T=   680. E= -.21693729E+03 F= -.22844879E+03 E0= -.22844879E+03  EK= 0.11512E+02 SP= 0.00E+00 SK= 0.00E+00
    811 T=   681. E= -.21687273E+03 F= -.22840562E+03 E0= -.22840562E+03  EK= 0.11533E+02 SP= 0.00E+00 SK= 0.00E+00
    812 T=   676. E= -.21692898E+03 F= -.22838234E+03 E0= -.22838234E+03  EK= 0.11453E+02 SP= 0.00E+00 SK= 0.00E+00
    813 T=   665. E= -.21705148E+03 F= -.22830674E+03 E0= -.22830674E+03  EK= 0.11255E+02 SP= 0.00E+00 SK= 0.00E+00
    814 T=   669. E= -.21694889E+03 F= -.22827090E+03 E0= -.22827090E+03  EK= 0.11322E+02 SP= 0.00E+00 SK= 0.00E+00
    815 T=   669. E= -.21688167E+03 F= -.22821747E+03 E0= -.22821747E+03  EK= 0.11336E+02 SP= 0.00E+00 SK= 0.00E+00
    816 T=   655. E= -.21711037E+03 F= -.22819634E+03 E0= -.22819634E+03  EK= 0.11086E+02 SP= 0.00E+00 SK= 0.00E+00
    817 T=   655. E= -.21704765E+03 F= -.22813414E+03 E0= -.22813414E+03  EK= 0.11086E+02 SP= 0.00E+00 SK= 0.00E+00
    818 T=   663. E= -.21692475E+03 F= -.22814781E+03 E0= -.22814781E+03  EK= 0.11223E+02 SP= 0.00E+00 SK= 0.00E+00
    819 T=   670. E= -.21675748E+03 F= -.22811075E+03 E0= -.22811075E+03  EK= 0.11353E+02 SP= 0.00E+00 SK= 0.00E+00
    820 T=   678. E= -.21662089E+03 F= -.22810264E+03 E0= -.22810264E+03  EK= 0.11482E+02 SP= 0.00E+00 SK= 0.00E+00
    821 T=   680. E= -.21659564E+03 F= -.22810378E+03 E0= -.22810378E+03  EK= 0.11508E+02 SP= 0.00E+00 SK= 0.00E+00
    822 T=   673. E= -.21674610E+03 F= -.22813788E+03 E0= -.22813788E+03  EK= 0.11392E+02 SP= 0.00E+00 SK= 0.00E+00
    823 T=   667. E= -.21682836E+03 F= -.22813075E+03 E0= -.22813075E+03  EK= 0.11302E+02 SP= 0.00E+00 SK= 0.00E+00
    824 T=   658. E= -.21705790E+03 F= -.22819708E+03 E0= -.22819708E+03  EK= 0.11139E+02 SP= 0.00E+00 SK= 0.00E+00
    825 T=   644. E= -.21730226E+03 F= -.22820956E+03 E0= -.22820956E+03  EK= 0.10907E+02 SP= 0.00E+00 SK= 0.00E+00
    826 T=   634. E= -.21748335E+03 F= -.22821786E+03 E0= -.22821786E+03  EK= 0.10735E+02 SP= 0.00E+00 SK= 0.00E+00
    827 T=   627. E= -.21763661E+03 F= -.22825498E+03 E0= -.22825498E+03  EK= 0.10618E+02 SP= 0.00E+00 SK= 0.00E+00
    828 T=   634. E= -.21751091E+03 F= -.22825210E+03 E0= -.22825210E+03  EK= 0.10741E+02 SP= 0.00E+00 SK= 0.00E+00
    829 T=   648. E= -.21730073E+03 F= -.22826631E+03 E0= -.22826631E+03  EK= 0.10966E+02 SP= 0.00E+00 SK= 0.00E+00
    830 T=   654. E= -.21720619E+03 F= -.22828053E+03 E0= -.22828053E+03  EK= 0.11074E+02 SP= 0.00E+00 SK= 0.00E+00
    831 T=   664. E= -.21709818E+03 F= -.22833709E+03 E0= -.22833709E+03  EK= 0.11239E+02 SP= 0.00E+00 SK= 0.00E+00
    832 T=   679. E= -.21684166E+03 F= -.22834082E+03 E0= -.22834082E+03  EK= 0.11499E+02 SP= 0.00E+00 SK= 0.00E+00
    833 T=   686. E= -.21674460E+03 F= -.22836044E+03 E0= -.22836044E+03  EK= 0.11616E+02 SP= 0.00E+00 SK= 0.00E+00
    834 T=   680. E= -.21680303E+03 F= -.22831999E+03 E0= -.22831999E+03  EK= 0.11517E+02 SP= 0.00E+00 SK= 0.00E+00
    835 T=   677. E= -.21686341E+03 F= -.22832636E+03 E0= -.22832636E+03  EK= 0.11463E+02 SP= 0.00E+00 SK= 0.00E+00
    836 T=   682. E= -.21677935E+03 F= -.22833226E+03 E0= -.22833226E+03  EK= 0.11553E+02 SP= 0.00E+00 SK= 0.00E+00
    837 T=   679. E= -.21680448E+03 F= -.22830505E+03 E0= -.22830505E+03  EK= 0.11501E+02 SP= 0.00E+00 SK= 0.00E+00
    838 T=   674. E= -.21685426E+03 F= -.22827432E+03 E0= -.22827432E+03  EK= 0.11420E+02 SP= 0.00E+00 SK= 0.00E+00
    839 T=   676. E= -.21683906E+03 F= -.22828281E+03 E0= -.22828281E+03  EK= 0.11444E+02 SP= 0.00E+00 SK= 0.00E+00
    840 T=   664. E= -.21700064E+03 F= -.22823913E+03 E0= -.22823913E+03  EK= 0.11238E+02 SP= 0.00E+00 SK= 0.00E+00
    841 T=   634. E= -.21745812E+03 F= -.22818559E+03 E0= -.22818559E+03  EK= 0.10727E+02 SP= 0.00E+00 SK= 0.00E+00
    842 T=   605. E= -.21790498E+03 F= -.22814141E+03 E0= -.22814141E+03  EK= 0.10236E+02 SP= 0.00E+00 SK= 0.00E+00
    843 T=   596. E= -.21798425E+03 F= -.22807297E+03 E0= -.22807297E+03  EK= 0.10089E+02 SP= 0.00E+00 SK= 0.00E+00
    844 T=   604. E= -.21774738E+03 F= -.22797585E+03 E0= -.22797585E+03  EK= 0.10228E+02 SP= 0.00E+00 SK= 0.00E+00
       N       E                     dE             d eps       ncg     rms          rms(c)
RMM:   1    -0.246474251051E+03    0.60320E+01   -0.67841E+02   129   0.225E+01
RMM:   2    -0.254681312951E+03   -0.82071E+01   -0.74924E+01   129   0.711E+00
RMM:   3    -0.256724606208E+03   -0.20433E+01   -0.16743E+01   129   0.336E+00
RMM:   4    -0.257413708010E+03   -0.68910E+00   -0.64732E+00   290   0.180E+00
RMM:   5    -0.257574964187E+03   -0.16126E+00   -0.14160E+00   300   0.833E-01    0.697E+00
RMM:   6    -0.256685860418E+03    0.88910E+00   -0.68347E+00   284   0.179E+00    0.440E+00
RMM:   7    -0.257311260574E+03   -0.62540E+00   -0.32042E+00   258   0.138E+00    0.304E+00
RMM:   8    -0.257998092280E+03   -0.68683E+00   -0.26597E+00   258   0.129E+00    0.183E+00
RMM:   9    -0.258482386964E+03   -0.48429E+00   -0.14655E+00   258   0.100E+00    0.113E+00
RMM:  10    -0.258612341039E+03   -0.12995E+00   -0.41428E-01   258   0.561E-01    0.814E-01
RMM:  11    -0.258713956933E+03   -0.10162E+00   -0.26282E-01   258   0.469E-01    0.531E-01
RMM:  12    -0.258770082900E+03   -0.56126E-01   -0.17107E-01   258   0.385E-01    0.315E-01
RMM:  13    -0.258791820898E+03   -0.21738E-01   -0.61648E-02   258   0.236E-01    0.220E-01
RMM:  14    -0.258800018093E+03   -0.81972E-02   -0.29887E-02   258   0.163E-01    0.145E-01
RMM:  15    -0.258806171366E+03   -0.61533E-02   -0.19044E-02   253   0.133E-01    0.957E-02
RMM:  16    -0.258809569136E+03   -0.33978E-02   -0.11121E-02   213   0.991E-02
    845 T=   641. E= -.24795283E+03 F= -.25880957E+03 E0= -.25880141E+03  EK= 0.10857E+02 SP= 0.00E+00 SK= 0.00E+00
    846 T=   710. E= -.21577481E+03 F= -.22779949E+03 E0= -.22779949E+03  EK= 0.12025E+02 SP= 0.00E+00 SK= 0.00E+00
    847 T=   701. E= -.21587308E+03 F= -.22774551E+03 E0= -.22774551E+03  EK= 0.11872E+02 SP= 0.00E+00 SK= 0.00E+00
    848 T=   692. E= -.21598785E+03 F= -.22770301E+03 E0= -.22770301E+03  EK= 0.11715E+02 SP= 0.00E+00 SK= 0.00E+00
    849 T=   689. E= -.21600483E+03 F= -.22766941E+03 E0= -.22766941E+03  EK= 0.11665E+02 SP= 0.00E+00 SK= 0.00E+00
    850 T=   681. E= -.21609281E+03 F= -.22761840E+03 E0= -.22761840E+03  EK= 0.11526E+02 SP= 0.00E+00 SK= 0.00E+00
    851 T=   673. E= -.21618475E+03 F= -.22758690E+03 E0= -.22758690E+03  EK= 0.11402E+02 SP= 0.00E+00 SK= 0.00E+00
    852 T=   676. E= -.21611916E+03 F= -.22756523E+03 E0= -.22756523E+03  EK= 0.11446E+02 SP= 0.00E+00 SK= 0.00E+00
    853 T=   676. E= -.21609571E+03 F= -.22754810E+03 E0= -.22754810E+03  EK= 0.11452E+02 SP= 0.00E+00 SK= 0.00E+00
    854 T=   672. E= -.21618570E+03 F= -.22756880E+03 E0= -.22756880E+03  EK= 0.11383E+02 SP= 0.00E+00 SK= 0.00E+00
    855 T=   664. E= -.21632306E+03 F= -.22757020E+03 E0= -.22757020E+03  EK= 0.11247E+02 SP= 0.00E+00 SK= 0.00E+00
    856 T=   658. E= -.21648436E+03 F= -.22761918E+03 E0= -.22761918E+03  EK= 0.11135E+02 SP= 0.00E+00 SK= 0.00E+00
    857 T=   652. E= -.21658345E+03 F= -.22762899E+03 E0= -.22762899E+03  EK= 0.11046E+02 SP= 0.00E+00 SK= 0.00E+00
    858 T=   652. E= -.21660991E+03 F= -.22764529E+03 E0= -.22764529E+03  EK= 0.11035E+02 SP= 0.00E+00 SK= 0.00E+00
    859 T=   661. E= -.21647751E+03 F= -.22766556E+03 E0= -.22766556E+03  EK= 0.11188E+02 SP= 0.00E+00 SK= 0.00E+00
    860 T=   665. E= -.21644979E+03 F= -.22771809E+03 E0= -.22771809E+03  EK= 0.11268E+02 SP= 0.00E+00 SK= 0.00E+00
    861 T=   669. E= -.21643031E+03 F= -.22775703E+03 E0= -.22775703E+03  EK= 0.11327E+02 SP= 0.00E+00 SK= 0.00E+00
    862 T=   677. E= -.21632945E+03 F= -.22779853E+03 E0= -.22779853E+03  EK= 0.11469E+02 SP= 0.00E+00 SK= 0.00E+00
    863 T=   673. E= -.21643691E+03 F= -.22783282E+03 E0= -.22783282E+03  EK= 0.11396E+02 SP= 0.00E+00 SK= 0.00E+00
    864 T=   670. E= -.21652692E+03 F= -.22786877E+03 E0= -.22786877E+03  EK= 0.11342E+02 SP= 0.00E+00 SK= 0.00E+00
    865 T=   667. E= -.21660659E+03 F= -.22790245E+03 E0= -.22790245E+03  EK= 0.11296E+02 SP= 0.00E+00 SK= 0.00E+00
    866 T=   665. E= -.21664247E+03 F= -.22790109E+03 E0= -.22790109E+03  EK= 0.11259E+02 SP= 0.00E+00 SK= 0.00E+00
    867 T=   673. E= -.21654713E+03 F= -.22793889E+03 E0= -.22793889E+03  EK= 0.11392E+02 SP= 0.00E+00 SK= 0.00E+00
    868 T=   674. E= -.21653281E+03 F= -.22794583E+03 E0= -.22794583E+03  EK= 0.11413E+02 SP= 0.00E+00 SK= 0.00E+00
    869 T=   665. E= -.21668254E+03 F= -.22794502E+03 E0= -.22794502E+03  EK= 0.11262E+02 SP= 0.00E+00 SK= 0.00E+00
    870 T=   669. E= -.21660022E+03 F= -.22792938E+03 E0= -.22792938E+03  EK= 0.11329E+02 SP= 0.00E+00 SK= 0.00E+00
    871 T=   678. E= -.21640016E+03 F= -.22787910E+03 E0= -.22787910E+03  EK= 0.11479E+02 SP= 0.00E+00 SK= 0.00E+00
    872 T=   669. E= -.21649084E+03 F= -.22782469E+03 E0= -.22782469E+03  EK= 0.11334E+02 SP= 0.00E+00 SK= 0.00E+00
    873 T=   649. E= -.21682525E+03 F= -.22781797E+03 E0= -.22781797E+03  EK= 0.10993E+02 SP= 0.00E+00 SK= 0.00E+00
    874 T=   627. E= -.21716969E+03 F= -.22779401E+03 E0= -.22779401E+03  EK= 0.10624E+02 SP= 0.00E+00 SK= 0.00E+00
    875 T=   619. E= -.21732949E+03 F= -.22781466E+03 E0= -.22781466E+03  EK= 0.10485E+02 SP= 0.00E+00 SK= 0.00E+00
    876 T=   631. E= -.21707567E+03 F= -.22776442E+03 E0= -.22776442E+03  EK= 0.10689E+02 SP= 0.00E+00 SK= 0.00E+00
    877 T=   646. E= -.21678991E+03 F= -.22773170E+03 E0= -.22773170E+03  EK= 0.10942E+02 SP= 0.00E+00 SK= 0.00E+00
    878 T=   648. E= -.21672581E+03 F= -.22769941E+03 E0= -.22769941E+03  EK= 0.10974E+02 SP= 0.00E+00 SK= 0.00E+00
    879 T=   639. E= -.21690449E+03 F= -.22771729E+03 E0= -.22771729E+03  EK= 0.10813E+02 SP= 0.00E+00 SK= 0.00E+00
    880 T=   640. E= -.21685035E+03 F= -.22768576E+03 E0= -.22768576E+03  EK= 0.10835E+02 SP= 0.00E+00 SK= 0.00E+00
    881 T=   635. E= -.21687849E+03 F= -.22762602E+03 E0= -.22762602E+03  EK= 0.10748E+02 SP= 0.00E+00 SK= 0.00E+00
    882 T=   608. E= -.21727749E+03 F= -.22757251E+03 E0= -.22757251E+03  EK= 0.10295E+02 SP= 0.00E+00 SK= 0.00E+00
    883 T=   588. E= -.21760882E+03 F= -.22755953E+03 E0= -.22755953E+03  EK= 0.99507E+01 SP= 0.00E+00 SK= 0.00E+00
    884 T=   583. E= -.21767491E+03 F= -.22754810E+03 E0= -.22754810E+03  EK= 0.98732E+01 SP= 0.00E+00 SK= 0.00E+00
    885 T=   587. E= -.21757906E+03 F= -.22751561E+03 E0= -.22751561E+03  EK= 0.99365E+01 SP= 0.00E+00 SK= 0.00E+00
    886 T=   590. E= -.21757211E+03 F= -.22756521E+03 E0= -.22756521E+03  EK= 0.99931E+01 SP= 0.00E+00 SK= 0.00E+00
    887 T=   587. E= -.21770838E+03 F= -.22765098E+03 E0= -.22765098E+03  EK= 0.99426E+01 SP= 0.00E+00 SK= 0.00E+00
    888 T=   593. E= -.21766522E+03 F= -.22769929E+03 E0= -.22769929E+03  EK= 0.10034E+02 SP= 0.00E+00 SK= 0.00E+00
    889 T=   598. E= -.21760787E+03 F= -.22773600E+03 E0= -.22773600E+03  EK= 0.10128E+02 SP= 0.00E+00 SK= 0.00E+00
    890 T=   583. E= -.21789987E+03 F= -.22777327E+03 E0= -.22777327E+03  EK= 0.98734E+01 SP= 0.00E+00 SK= 0.00E+00
    891 T=   590. E= -.21781882E+03 F= -.22780335E+03 E0= -.22780335E+03  EK= 0.99845E+01 SP= 0.00E+00 SK= 0.00E+00
    892 T=   610. E= -.21751413E+03 F= -.22785033E+03 E0= -.22785033E+03  EK= 0.10336E+02 SP= 0.00E+00 SK= 0.00E+00
    893 T=   617. E= -.21741001E+03 F= -.22786489E+03 E0= -.22786489E+03  EK= 0.10455E+02 SP= 0.00E+00 SK= 0.00E+00
    894 T=   616. E= -.21747452E+03 F= -.22790070E+03 E0= -.22790070E+03  EK= 0.10426E+02 SP= 0.00E+00 SK= 0.00E+00
    895 T=   608. E= -.21762300E+03 F= -.22791672E+03 E0= -.22791672E+03  EK= 0.10294E+02 SP= 0.00E+00 SK= 0.00E+00
    896 T=   600. E= -.21778154E+03 F= -.22794028E+03 E0= -.22794028E+03  EK= 0.10159E+02 SP= 0.00E+00 SK= 0.00E+00
    897 T=   601. E= -.21779845E+03 F= -.22797008E+03 E0= -.22797008E+03  EK= 0.10172E+02 SP= 0.00E+00 SK= 0.00E+00
    898 T=   601. E= -.21782850E+03 F= -.22800761E+03 E0= -.22800761E+03  EK= 0.10179E+02 SP= 0.00E+00 SK= 0.00E+00
    899 T=   587. E= -.21813489E+03 F= -.22806729E+03 E0= -.22806729E+03  EK= 0.99324E+01 SP= 0.00E+00 SK= 0.00E+00
    900 T=   566. E= -.21850592E+03 F= -.22809283E+03 E0= -.22809283E+03  EK= 0.95869E+01 SP= 0.00E+00 SK= 0.00E+00
    901 T=   550. E= -.21880193E+03 F= -.22811090E+03 E0= -.22811090E+03  EK= 0.93090E+01 SP= 0.00E+00 SK= 0.00E+00
    902 T=   546. E= -.21886767E+03 F= -.22812042E+03 E0= -.22812042E+03  EK= 0.92528E+01 SP= 0.00E+00 SK= 0.00E+00
    903 T=   556. E= -.21873643E+03 F= -.22815588E+03 E0= -.22815588E+03  EK= 0.94194E+01 SP= 0.00E+00 SK= 0.00E+00
    904 T=   559. E= -.21870370E+03 F= -.22816838E+03 E0= -.22816838E+03  EK= 0.94647E+01 SP= 0.00E+00 SK= 0.00E+00
    905 T=   547. E= -.21892785E+03 F= -.22819858E+03 E0= -.22819858E+03  EK= 0.92707E+01 SP= 0.00E+00 SK= 0.00E+00
    906 T=   550. E= -.21886853E+03 F= -.22818718E+03 E0= -.22818718E+03  EK= 0.93186E+01 SP= 0.00E+00 SK= 0.00E+00
    907 T=   553. E= -.21884632E+03 F= -.22821271E+03 E0= -.22821271E+03  EK= 0.93664E+01 SP= 0.00E+00 SK= 0.00E+00
    908 T=   552. E= -.21888342E+03 F= -.22823451E+03 E0= -.22823451E+03  EK= 0.93511E+01 SP= 0.00E+00 SK= 0.00E+00
    909 T=   550. E= -.21889357E+03 F= -.22821311E+03 E0= -.22821311E+03  EK= 0.93195E+01 SP= 0.00E+00 SK= 0.00E+00
    910 T=   541. E= -.21908141E+03 F= -.22824060E+03 E0= -.22824060E+03  EK= 0.91592E+01 SP= 0.00E+00 SK= 0.00E+00
    911 T=   542. E= -.21911668E+03 F= -.22828645E+03 E0= -.22828645E+03  EK= 0.91698E+01 SP= 0.00E+00 SK= 0.00E+00
    912 T=   536. E= -.21923248E+03 F= -.22830219E+03 E0= -.22830219E+03  EK= 0.90697E+01 SP= 0.00E+00 SK= 0.00E+00
    913 T=   543. E= -.21912880E+03 F= -.22832191E+03 E0= -.22832191E+03  EK= 0.91931E+01 SP= 0.00E+00 SK= 0.00E+00
    914 T=   550. E= -.21900819E+03 F= -.22831525E+03 E0= -.22831525E+03  EK= 0.93071E+01 SP= 0.00E+00 SK= 0.00E+00
    915 T=   541. E= -.21917403E+03 F= -.22834030E+03 E0= -.22834030E+03  EK= 0.91663E+01 SP= 0.00E+00 SK= 0.00E+00
    916 T=   536. E= -.21928307E+03 F= -.22836720E+03 E0= -.22836720E+03  EK= 0.90841E+01 SP= 0.00E+00 SK= 0.00E+00
    917 T=   532. E= -.21941798E+03 F= -.22842249E+03 E0= -.22842249E+03  EK= 0.90045E+01 SP= 0.00E+00 SK= 0.00E+00
    918 T=   536. E= -.21938072E+03 F= -.22845165E+03 E0= -.22845165E+03  EK= 0.90709E+01 SP= 0.00E+00 SK= 0.00E+00
    919 T=   543. E= -.21927543E+03 F= -.22847359E+03 E0= -.22847359E+03  EK= 0.91982E+01 SP= 0.00E+00 SK= 0.00E+00
    920 T=   552. E= -.21916750E+03 F= -.22851289E+03 E0= -.22851289E+03  EK= 0.93454E+01 SP= 0.00E+00 SK= 0.00E+00
    921 T=   549. E= -.21921761E+03 F= -.22851758E+03 E0= -.22851758E+03  EK= 0.93000E+01 SP= 0.00E+00 SK= 0.00E+00
    922 T=   538. E= -.21939295E+03 F= -.22850503E+03 E0= -.22850503E+03  EK= 0.91121E+01 SP= 0.00E+00 SK= 0.00E+00
    923 T=   534. E= -.21949968E+03 F= -.22853564E+03 E0= -.22853564E+03  EK= 0.90360E+01 SP= 0.00E+00 SK= 0.00E+00
    924 T=   544. E= -.21931558E+03 F= -.22852110E+03 E0= -.22852110E+03  EK= 0.92055E+01 SP= 0.00E+00 SK= 0.00E+00
    925 T=   561. E= -.21900710E+03 F= -.22850400E+03 E0= -.22850400E+03  EK= 0.94969E+01 SP= 0.00E+00 SK= 0.00E+00
    926 T=   569. E= -.21885055E+03 F= -.22848235E+03 E0= -.22848235E+03  EK= 0.96318E+01 SP= 0.00E+00 SK= 0.00E+00
    927 T=   571. E= -.21878626E+03 F= -.22845290E+03 E0= -.22845290E+03  EK= 0.96666E+01 SP= 0.00E+00 SK= 0.00E+00
    928 T=   569. E= -.21881174E+03 F= -.22844681E+03 E0= -.22844681E+03  EK= 0.96351E+01 SP= 0.00E+00 SK= 0.00E+00
    929 T=   566. E= -.21882907E+03 F= -.22840738E+03 E0= -.22840738E+03  EK= 0.95783E+01 SP= 0.00E+00 SK= 0.00E+00
    930 T=   553. E= -.21900378E+03 F= -.22836445E+03 E0= -.22836445E+03  EK= 0.93607E+01 SP= 0.00E+00 SK= 0.00E+00
    931 T=   552. E= -.21894911E+03 F= -.22828983E+03 E0= -.22828983E+03  EK= 0.93407E+01 SP= 0.00E+00 SK= 0.00E+00
    932 T=   549. E= -.21886127E+03 F= -.22816362E+03 E0= -.22816362E+03  EK= 0.93024E+01 SP= 0.00E+00 SK= 0.00E+00
    933 T=   548. E= -.21883865E+03 F= -.22811275E+03 E0= -.22811275E+03  EK= 0.92741E+01 SP= 0.00E+00 SK= 0.00E+00
    934 T=   564. E= -.21855223E+03 F= -.22809637E+03 E0= -.22809637E+03  EK= 0.95441E+01 SP= 0.00E+00 SK= 0.00E+00
    935 T=   568. E= -.21846575E+03 F= -.22809121E+03 E0= -.22809121E+03  EK= 0.96255E+01 SP= 0.00E+00 SK= 0.00E+00
    936 T=   564. E= -.21852512E+03 F= -.22807720E+03 E0= -.22807720E+03  EK= 0.95521E+01 SP= 0.00E+00 SK= 0.00E+00
    937 T=   554. E= -.21865620E+03 F= -.22804332E+03 E0= -.22804332E+03  EK= 0.93871E+01 SP= 0.00E+00 SK= 0.00E+00
    938 T=   545. E= -.21882458E+03 F= -.22805272E+03 E0= -.22805272E+03  EK= 0.92281E+01 SP= 0.00E+00 SK= 0.00E+00
       N       E                     dE             d eps       ncg     rms          rms(c)
RMM:   1    -0.247644231122E+03    0.11162E+02   -0.71863E+02   129   0.216E+01
RMM:   2    -0.257533292426E+03   -0.98891E+01   -0.84053E+01   129   0.724E+00
RMM:   3    -0.259902027468E+03   -0.23687E+01   -0.19149E+01   129   0.349E+00
RMM:   4    -0.260673781518E+03   -0.77175E+00   -0.71675E+00   291   0.189E+00
RMM:   5    -0.260878142394E+03   -0.20436E+00   -0.17729E+00   303   0.881E-01    0.753E+00
RMM:   6    -0.259782514471E+03    0.10956E+01   -0.76338E+00   283   0.187E+00    0.471E+00
RMM:   7    -0.260446399814E+03   -0.66389E+00   -0.36368E+00   259   0.139E+00    0.355E+00
RMM:   8    -0.261138356570E+03   -0.69196E+00   -0.34689E+00   258   0.139E+00    0.208E+00
RMM:   9    -0.261638893204E+03   -0.50054E+00   -0.14573E+00   258   0.944E-01    0.145E+00
RMM:  10    -0.261846703220E+03   -0.20781E+00   -0.57228E-01   258   0.656E-01    0.964E-01
RMM:  11    -0.261995897992E+03   -0.14919E+00   -0.32507E-01   258   0.520E-01    0.623E-01
RMM:  12    -0.262061759601E+03   -0.65862E-01   -0.17556E-01   258   0.383E-01    0.404E-01
RMM:  13    -0.262083996552E+03   -0.22237E-01   -0.75405E-02   258   0.254E-01    0.264E-01
RMM:  14    -0.262095423988E+03   -0.11427E-01   -0.30933E-02   258   0.163E-01    0.198E-01
RMM:  15    -0.262102097659E+03   -0.66737E-02   -0.21957E-02   253   0.137E-01    0.136E-01
RMM:  16    -0.262106714411E+03   -0.46168E-02   -0.12536E-02   224   0.105E-01
    939 T=   583. E= -.25223107E+03 F= -.26210671E+03 E0= -.26208835E+03  EK= 0.98756E+01 SP= 0.00E+00 SK= 0.00E+00
    940 T=   672. E= -.21670237E+03 F= -.22807638E+03 E0= -.22807638E+03  EK= 0.11374E+02 SP= 0.00E+00 SK= 0.00E+00
    941 T=   672. E= -.21670873E+03 F= -.22809508E+03 E0= -.22809508E+03  EK= 0.11386E+02 SP= 0.00E+00 SK= 0.00E+00
    942 T=   674. E= -.21670783E+03 F= -.22811478E+03 E0= -.22811478E+03  EK= 0.11407E+02 SP= 0.00E+00 SK= 0.00E+00
    943 T=   675. E= -.21669005E+03 F= -.22812059E+03 E0= -.22812059E+03  EK= 0.11431E+02 SP= 0.00E+00 SK= 0.00E+00
    944 T=   680. E= -.21663296E+03 F= -.22813994E+03 E0= -.22813994E+03  EK= 0.11507E+02 SP= 0.00E+00 SK= 0.00E+00
    945 T=   695. E= -.21639267E+03 F= -.22815934E+03 E0= -.22815934E+03  EK= 0.11767E+02 SP= 0.00E+00 SK= 0.00E+00
    946 T=   717. E= -.21604944E+03 F= -.22819210E+03 E0= -.22819210E+03  EK= 0.12143E+02 SP= 0.00E+00 SK= 0.00E+00
    947 T=   729. E= -.21585117E+03 F= -.22818922E+03 E0= -.22818922E+03  EK= 0.12338E+02 SP= 0.00E+00 SK= 0.00E+00
    948 T=   732. E= -.21574788E+03 F= -.22814872E+03 E0= -.22814872E+03  EK= 0.12401E+02 SP= 0.00E+00 SK= 0.00E+00
    949 T=   736. E= -.21568388E+03 F= -.22814748E+03 E0= -.22814748E+03  EK= 0.12464E+02 SP= 0.00E+00 SK= 0.00E+00
    950 T=   729. E= -.21583045E+03 F= -.22816785E+03 E0= -.22816785E+03  EK= 0.12337E+02 SP= 0.00E+00 SK= 0.00E+00
    951 T=   723. E= -.21590010E+03 F= -.22814151E+03 E0= -.22814151E+03  EK= 0.12241E+02 SP= 0.00E+00 SK= 0.00E+00
    952 T=   731. E= -.21577663E+03 F= -.22816116E+03 E0= -.22816116E+03  EK= 0.12385E+02 SP= 0.00E+00 SK= 0.00E+00
    953 T=   730. E= -.21579363E+03 F= -.22815556E+03 E0= -.22815556E+03  EK= 0.12362E+02 SP= 0.00E+00 SK= 0.00E+00
    954 T=   727. E= -.21581701E+03 F= -.22813587E+03 E0= -.22813587E+03  EK= 0.12319E+02 SP= 0.00E+00 SK= 0.00E+00
    955 T=   723. E= -.21590332E+03 F= -.22814171E+03 E0= -.22814171E+03  EK= 0.12238E+02 SP= 0.00E+00 SK= 0.00E+00
    956 T=   708. E= -.21613694E+03 F= -.22812822E+03 E0= -.22812822E+03  EK= 0.11991E+02 SP= 0.00E+00 SK= 0.00E+00
    957 T=   701. E= -.21625089E+03 F= -.22812118E+03 E0= -.22812118E+03  EK= 0.11870E+02 SP= 0.00E+00 SK= 0.00E+00
    958 T=   702. E= -.21623956E+03 F= -.22812987E+03 E0= -.22812987E+03  EK= 0.11890E+02 SP= 0.00E+00 SK= 0.00E+00
    959 T=   701. E= -.21626012E+03 F= -.22812324E+03 E0= -.22812324E+03  EK= 0.11863E+02 SP= 0.00E+00 SK= 0.00E+00
    960 T=   693. E= -.21641785E+03 F= -.22814950E+03 E0= -.22814950E+03  EK= 0.11732E+02 SP= 0.00E+00 SK= 0.00E+00
    961 T=   685. E= -.21655017E+03 F= -.22814635E+03 E0= -.22814635E+03  EK= 0.11596E+02 SP= 0.00E+00 SK= 0.00E+00
    962 T=   682. E= -.21663405E+03 F= -.22817556E+03 E0= -.22817556E+03  EK= 0.11542E+02 SP= 0.00E+00 SK= 0.00E+00
    963 T=   681. E= -.21667458E+03 F= -.22820626E+03 E0= -.22820626E+03  EK= 0.11532E+02 SP= 0.00E+00 SK= 0.00E+00
    964 T=   671. E= -.21688246E+03 F= -.22824835E+03 E0= -.22824835E+03  EK= 0.11366E+02 SP= 0.00E+00 SK= 0.00E+00
    965 T=   662. E= -.21703070E+03 F= -.22824477E+03 E0= -.22824477E+03  EK= 0.11214E+02 SP= 0.00E+00 SK= 0.00E+00
    966 T=   674. E= -.21680945E+03 F= -.22822579E+03 E0= -.22822579E+03  EK= 0.11416E+02 SP= 0.00E+00 SK= 0.00E+00
    967 T=   684. E= -.21667555E+03 F= -.22826590E+03 E0= -.22826590E+03  EK= 0.11590E+02 SP= 0.00E+00 SK= 0.00E+00
    968 T=   692. E= -.21657978E+03 F= -.22829437E+03 E0= -.22829437E+03  EK= 0.11715E+02 SP= 0.00E+00 SK= 0.00E+00
    969 T=   709. E= -.21636332E+03 F= -.22836469E+03 E0= -.22836469E+03  EK= 0.12001E+02 SP= 0.00E+00 SK= 0.00E+00
    970 T=   708. E= -.21634868E+03 F= -.22833678E+03 E0= -.22833678E+03  EK= 0.11988E+02 SP= 0.00E+00 SK= 0.00E+00
    971 T=   695. E= -.21659882E+03 F= -.22836468E+03 E0= -.22836468E+03  EK= 0.11766E+02 SP= 0.00E+00 SK= 0.00E+00
    972 T=   671. E= -.21702392E+03 F= -.22838958E+03 E0= -.22838958E+03  EK= 0.11366E+02 SP= 0.00E+00 SK= 0.00E+00
    973 T=   654. E= -.21733616E+03 F= -.22840803E+03 E0= -.22840803E+03  EK= 0.11072E+02 SP= 0.00E+00 SK= 0.00E+00
    974 T=   652. E= -.21738045E+03 F= -.22841335E+03 E0= -.22841335E+03  EK= 0.11033E+02 SP= 0.00E+00 SK= 0.00E+00
    975 T=   649. E= -.21741159E+03 F= -.22840742E+03 E0= -.22840742E+03  EK= 0.10996E+02 SP= 0.00E+00 SK= 0.00E+00
    976 T=   649. E= -.21743569E+03 F= -.22842808E+03 E0= -.22842808E+03  EK= 0.10992E+02 SP= 0.00E+00 SK= 0.00E+00
    977 T=   646. E= -.21741847E+03 F= -.22836447E+03 E0= -.22836447E+03  EK= 0.10946E+02 SP= 0.00E+00 SK= 0.00E+00
    978 T=   644. E= -.21739892E+03 F= -.22830878E+03 E0= -.22830878E+03  EK= 0.10910E+02 SP= 0.00E+00 SK= 0.00E+00
    979 T=   655. E= -.21716809E+03 F= -.22825461E+03 E0= -.22825461E+03  EK= 0.11087E+02 SP= 0.00E+00 SK= 0.00E+00
    980 T=   665. E= -.21696681E+03 F= -.22821945E+03 E0= -.22821945E+03  EK= 0.11253E+02 SP= 0.00E+00 SK= 0.00E+00
    981 T=   664. E= -.21691550E+03 F= -.22815800E+03 E0= -.22815800E+03  EK= 0.11242E+02 SP= 0.00E+00 SK= 0.00E+00
       N       E                     dE             d eps       ncg     rms          rms(c)
RMM:   1    -0.259118675645E+03    0.29834E+01   -0.44214E+02   129   0.174E+01
RMM:   2    -0.264261983707E+03   -0.51433E+01   -0.46012E+01   129   0.553E+00
RMM:   3    -0.265521211468E+03   -0.12592E+01   -0.11030E+01   129   0.258E+00
RMM:   4    -0.265924149181E+03   -0.40294E+00   -0.37915E+00   286   0.144E+00
RMM:   5    -0.266058125377E+03   -0.13398E+00   -0.12446E+00   297   0.740E-01    0.655E+00
RMM:   6    -0.264099791736E+03    0.19583E+01   -0.74505E+00   312   0.172E+00    0.408E+00
RMM:   7    -0.263817579349E+03    0.28221E+00   -0.24886E+00   268   0.112E+00    0.305E+00
RMM:   8    -0.263722068631E+03    0.95511E-01   -0.25468E+00   258   0.117E+00    0.167E+00
RMM:   9    -0.263935838606E+03   -0.21377E+00   -0.10682E+00   258   0.798E-01    0.117E+00
RMM:  10    -0.264002014159E+03   -0.66176E-01   -0.38333E-01   258   0.510E-01    0.823E-01
RMM:  11    -0.264060554956E+03   -0.58541E-01   -0.20160E-01   258   0.392E-01    0.552E-01
RMM:  12    -0.264100615816E+03   -0.40061E-01   -0.11229E-01   258   0.299E-01    0.376E-01
RMM:  13    -0.264121230343E+03   -0.20615E-01   -0.64634E-02   258   0.230E-01    0.252E-01
RMM:  14    -0.264131172628E+03   -0.99423E-02   -0.33872E-02   258   0.170E-01    0.169E-01
RMM:  15    -0.264138780280E+03   -0.76077E-02   -0.20656E-02   255   0.135E-01    0.113E-01
RMM:  16    -0.264143856289E+03   -0.50760E-02   -0.17324E-02   235   0.121E-01    0.824E-02
RMM:  17    -0.264146160491E+03   -0.23042E-02   -0.80924E-03   185   0.819E-02
    982 T=   692. E= -.25243350E+03 F= -.26414616E+03 E0= -.26413459E+03  EK= 0.11713E+02 SP= 0.00E+00 SK= 0.00E+00
    983 T=   783. E= -.21481723E+03 F= -.22807936E+03 E0= -.22807936E+03  EK= 0.13262E+02 SP= 0.00E+00 SK= 0.00E+00
    984 T=   790. E= -.21462568E+03 F= -.22800323E+03 E0= -.22800323E+03  EK= 0.13378E+02 SP= 0.00E+00 SK= 0.00E+00
    985 T=   797. E= -.21438894E+03 F= -.22788675E+03 E0= -.22788675E+03  EK= 0.13498E+02 SP= 0.00E+00 SK= 0.00E+00
    986 T=   807. E= -.21417984E+03 F= -.22785104E+03 E0= -.22785104E+03  EK= 0.13671E+02 SP= 0.00E+00 SK= 0.00E+00
    987 T=   806. E= -.21417151E+03 F= -.22781892E+03 E0= -.22781892E+03  EK= 0.13647E+02 SP= 0.00E+00 SK= 0.00E+00
    988 T=   810. E= -.21409059E+03 F= -.22779933E+03 E0= -.22779933E+03  EK= 0.13709E+02 SP= 0.00E+00 SK= 0.00E+00
    989 T=   813. E= -.21411228E+03 F= -.22788053E+03 E0= -.22788053E+03  EK= 0.13768E+02 SP= 0.00E+00 SK= 0.00E+00
    990 T=   801. E= -.21431282E+03 F= -.22786995E+03 E0= -.22786995E+03  EK= 0.13557E+02 SP= 0.00E+00 SK= 0.00E+00
    991 T=   784. E= -.21455538E+03 F= -.22782782E+03 E0= -.22782782E+03  EK= 0.13272E+02 SP= 0.00E+00 SK= 0.00E+00
    992 T=   774. E= -.21469924E+03 F= -.22780286E+03 E0= -.22780286E+03  EK= 0.13104E+02 SP= 0.00E+00 SK= 0.00E+00
    993 T=   762. E= -.21491371E+03 F= -.22781316E+03 E0= -.22781316E+03  EK= 0.12899E+02 SP= 0.00E+00 SK= 0.00E+00
    994 T=   746. E= -.21516948E+03 F= -.22780418E+03 E0= -.22780418E+03  EK= 0.12635E+02 SP= 0.00E+00 SK= 0.00E+00
    995 T=   739. E= -.21529367E+03 F= -.22781341E+03 E0= -.22781341E+03  EK= 0.12520E+02 SP= 0.00E+00 SK= 0.00E+00
    996 T=   734. E= -.21538895E+03 F= -.22782491E+03 E0= -.22782491E+03  EK= 0.12436E+02 SP= 0.00E+00 SK= 0.00E+00
    997 T=   740. E= -.21530084E+03 F= -.22783569E+03 E0= -.22783569E+03  EK= 0.12535E+02 SP= 0.00E+00 SK= 0.00E+00
    998 T=   741. E= -.21540781E+03 F= -.22795129E+03 E0= -.22795129E+03  EK= 0.12543E+02 SP= 0.00E+00 SK= 0.00E+00
    999 T=   726. E= -.21573189E+03 F= -.22802107E+03 E0= -.22802107E+03  EK= 0.12289E+02 SP= 0.00E+00 SK= 0.00E+00
   1000 T=   709. E= -.21601593E+03 F= -.22802535E+03 E0= -.22802535E+03  EK= 0.12009E+02 SP= 0.00E+00 SK= 0.00E+00
   1001 T=   693. E= -.21626139E+03 F= -.22800081E+03 E0= -.22800081E+03  EK= 0.11739E+02 SP= 0.00E+00 SK= 0.00E+00
   1002 T=   683. E= -.21644192E+03 F= -.22800672E+03 E0= -.22800672E+03  EK= 0.11565E+02 SP= 0.00E+00 SK= 0.00E+00
   1003 T=   678. E= -.21652214E+03 F= -.22800871E+03 E0= -.22800871E+03  EK= 0.11487E+02 SP= 0.00E+00 SK= 0.00E+00
   1004 T=   674. E= -.21661596E+03 F= -.22803684E+03 E0= -.22803684E+03  EK= 0.11421E+02 SP= 0.00E+00 SK= 0.00E+00
   1005 T=   659. E= -.21689968E+03 F= -.22805494E+03 E0= -.22805494E+03  EK= 0.11155E+02 SP= 0.00E+00 SK= 0.00E+00
   1006 T=   642. E= -.21720095E+03 F= -.22807140E+03 E0= -.22807140E+03  EK= 0.10870E+02 SP= 0.00E+00 SK= 0.00E+00
   1007 T=   643. E= -.21720743E+03 F= -.22808818E+03 E0= -.22808818E+03  EK= 0.10881E+02 SP= 0.00E+00 SK= 0.00E+00
   1008 T=   648. E= -.21713444E+03 F= -.22810621E+03 E0= -.22810621E+03  EK= 0.10972E+02 SP= 0.00E+00 SK= 0.00E+00
   1009 T=   657. E= -.21701173E+03 F= -.22813061E+03 E0= -.22813061E+03  EK= 0.11119E+02 SP= 0.00E+00 SK= 0.00E+00
   1010 T=   672. E= -.21686753E+03 F= -.22824785E+03 E0= -.22824785E+03  EK= 0.11380E+02 SP= 0.00E+00 SK= 0.00E+00
   1011 T=   685. E= -.21666416E+03 F= -.22827166E+03 E0= -.22827166E+03  EK= 0.11607E+02 SP= 0.00E+00 SK= 0.00E+00
   1012 T=   701. E= -.21641818E+03 F= -.22829159E+03 E0= -.22829159E+03  EK= 0.11873E+02 SP= 0.00E+00 SK= 0.00E+00
   1013 T=   704. E= -.21638694E+03 F= -.22830527E+03 E0= -.22830527E+03  EK= 0.11918E+02 SP= 0.00E+00 SK= 0.00E+00
   1014 T=   704. E= -.21639145E+03 F= -.22831954E+03 E0= -.22831954E+03  EK= 0.11928E+02 SP= 0.00E+00 SK= 0.00E+00
   1015 T=   708. E= -.21637842E+03 F= -.22835980E+03 E0= -.22835980E+03  EK= 0.11981E+02 SP= 0.00E+00 SK= 0.00E+00
   1016 T=   689. E= -.21674116E+03 F= -.22841100E+03 E0= -.22841100E+03  EK= 0.11670E+02 SP= 0.00E+00 SK= 0.00E+00
   1017 T=   670. E= -.21706963E+03 F= -.22840664E+03 E0= -.22840664E+03  EK= 0.11337E+02 SP= 0.00E+00 SK= 0.00E+00
   1018 T=   656. E= -.21728623E+03 F= -.22839402E+03 E0= -.22839402E+03  EK= 0.11108E+02 SP= 0.00E+00 SK= 0.00E+00
   1019 T=   643. E= -.21744014E+03 F= -.22833013E+03 E0= -.22833013E+03  EK= 0.10890E+02 SP= 0.00E+00 SK= 0.00E+00
   1020 T=   636. E= -.21756440E+03 F= -.22833159E+03 E0= -.22833159E+03  EK= 0.10767E+02 SP= 0.00E+00 SK= 0.00E+00
   1021 T=   628. E= -.21767149E+03 F= -.22830686E+03 E0= -.22830686E+03  EK= 0.10635E+02 SP= 0.00E+00 SK= 0.00E+00
   1022 T=   619. E= -.21784923E+03 F= -.22833228E+03 E0= -.22833228E+03  EK= 0.10483E+02 SP= 0.00E+00 SK= 0.00E+00
   1023 T=   614. E= -.21795159E+03 F= -.22834223E+03 E0= -.22834223E+03  EK= 0.10391E+02 SP= 0.00E+00 SK= 0.00E+00
   1024 T=   613. E= -.21794668E+03 F= -.22833354E+03 E0= -.22833354E+03  EK= 0.10387E+02 SP= 0.00E+00 SK= 0.00E+00
   1025 T=   619. E= -.21782486E+03 F= -.22830561E+03 E0= -.22830561E+03  EK= 0.10481E+02 SP= 0.00E+00 SK= 0.00E+00
   1026 T=   621. E= -.21780972E+03 F= -.22832892E+03 E0= -.22832892E+03  EK= 0.10519E+02 SP= 0.00E+00 SK= 0.00E+00
   1027 T=   616. E= -.21788891E+03 F= -.22831673E+03 E0= -.22831673E+03  EK= 0.10428E+02 SP= 0.00E+00 SK= 0.00E+00
   1028 T=   609. E= -.21801887E+03 F= -.22833166E+03 E0= -.22833166E+03  EK= 0.10313E+02 SP= 0.00E+00 SK= 0.00E+00
   1029 T=   608. E= -.21805827E+03 F= -.22835724E+03 E0= -.22835724E+03  EK= 0.10299E+02 SP= 0.00E+00 SK= 0.00E+00
   1030 T=   621. E= -.21790014E+03 F= -.22841463E+03 E0= -.22841463E+03  EK= 0.10514E+02 SP= 0.00E+00 SK= 0.00E+00
   1031 T=   646. E= -.21752803E+03 F= -.22847154E+03 E0= -.22847154E+03  EK= 0.10944E+02 SP= 0.00E+00 SK= 0.00E+00
   1032 T=   670. E= -.21717231E+03 F= -.22851164E+03 E0= -.22851164E+03  EK= 0.11339E+02 SP= 0.00E+00 SK= 0.00E+00
   1033 T=   687. E= -.21691881E+03 F= -.22854969E+03 E0= -.22854969E+03  EK= 0.11631E+02 SP= 0.00E+00 SK= 0.00E+00
   1034 T=   712. E= -.21652483E+03 F= -.22858126E+03 E0= -.22858126E+03  EK= 0.12056E+02 SP= 0.00E+00 SK= 0.00E+00
   1035 T=   730. E= -.21624485E+03 F= -.22860948E+03 E0= -.22860948E+03  EK= 0.12365E+02 SP= 0.00E+00 SK= 0.00E+00
   1036 T=   729. E= -.21631026E+03 F= -.22865535E+03 E0= -.22865535E+03  EK= 0.12345E+02 SP= 0.00E+00 SK= 0.00E+00
   1037 T=   719. E= -.21649287E+03 F= -.22867412E+03 E0= -.22867412E+03  EK= 0.12181E+02 SP= 0.00E+00 SK= 0.00E+00
   1038 T=   722. E= -.21646922E+03 F= -.22868905E+03 E0= -.22868905E+03  EK= 0.12220E+02 SP= 0.00E+00 SK= 0.00E+00
   1039 T=   716. E= -.21654735E+03 F= -.22867502E+03 E0= -.22867502E+03  EK= 0.12128E+02 SP= 0.00E+00 SK= 0.00E+00
   1040 T=   696. E= -.21689820E+03 F= -.22868789E+03 E0= -.22868789E+03  EK= 0.11790E+02 SP= 0.00E+00 SK= 0.00E+00
   1041 T=   681. E= -.21718046E+03 F= -.22871682E+03 E0= -.22871682E+03  EK= 0.11536E+02 SP= 0.00E+00 SK= 0.00E+00
   1042 T=   669. E= -.21735806E+03 F= -.22869162E+03 E0= -.22869162E+03  EK= 0.11334E+02 SP= 0.00E+00 SK= 0.00E+00
   1043 T=   671. E= -.21725011E+03 F= -.22862068E+03 E0= -.22862068E+03  EK= 0.11371E+02 SP= 0.00E+00 SK= 0.00E+00
   1044 T=   689. E= -.21698387E+03 F= -.22864704E+03 E0= -.22864704E+03  EK= 0.11663E+02 SP= 0.00E+00 SK= 0.00E+00
   1045 T=   690. E= -.21697095E+03 F= -.22864785E+03 E0= -.22864785E+03  EK= 0.11677E+02 SP= 0.00E+00 SK= 0.00E+00
   1046 T=   686. E= -.21701083E+03 F= -.22861982E+03 E0= -.22861982E+03  EK= 0.11609E+02 SP= 0.00E+00 SK= 0.00E+00
   1047 T=   690. E= -.21696607E+03 F= -.22865704E+03 E0= -.22865704E+03  EK= 0.11691E+02 SP= 0.00E+00 SK= 0.00E+00
   1048 T=   692. E= -.21692509E+03 F= -.22864444E+03 E0= -.22864444E+03  EK= 0.11719E+02 SP= 0.00E+00 SK= 0.00E+00
   1049 T=   696. E= -.21683828E+03 F= -.22862351E+03 E0= -.22862351E+03  EK= 0.11785E+02 SP= 0.00E+00 SK= 0.00E+00
   1050 T=   694. E= -.21684274E+03 F= -.22859168E+03 E0= -.22859168E+03  EK= 0.11749E+02 SP= 0.00E+00 SK= 0.00E+00
   1051 T=   671. E= -.21728591E+03 F= -.22865176E+03 E0= -.22865176E+03  EK= 0.11366E+02 SP= 0.00E+00 SK= 0.00E+00
   1052 T=   651. E= -.21761625E+03 F= -.22864050E+03 E0= -.22864050E+03  EK= 0.11024E+02 SP= 0.00E+00 SK= 0.00E+00
   1053 T=   642. E= -.21771154E+03 F= -.22859013E+03 E0= -.22859013E+03  EK= 0.10879E+02 SP= 0.00E+00 SK= 0.00E+00
   1054 T=   621. E= -.21809487E+03 F= -.22861421E+03 E0= -.22861421E+03  EK= 0.10519E+02 SP= 0.00E+00 SK= 0.00E+00
   1055 T=   606. E= -.21829385E+03 F= -.22854726E+03 E0= -.22854726E+03  EK= 0.10253E+02 SP= 0.00E+00 SK= 0.00E+00
   1056 T=   613. E= -.21815087E+03 F= -.22852665E+03 E0= -.22852665E+03  EK= 0.10376E+02 SP= 0.00E+00 SK= 0.00E+00
   1057 T=   629. E= -.21785417E+03 F= -.22851080E+03 E0= -.22851080E+03  EK= 0.10657E+02 SP= 0.00E+00 SK= 0.00E+00
   1058 T=   624. E= -.21791849E+03 F= -.22848830E+03 E0= -.22848830E+03  EK= 0.10570E+02 SP= 0.00E+00 SK= 0.00E+00
   1059 T=   614. E= -.21799879E+03 F= -.22840062E+03 E0= -.22840062E+03  EK= 0.10402E+02 SP= 0.00E+00 SK= 0.00E+00
   1060 T=   620. E= -.21788209E+03 F= -.22838438E+03 E0= -.22838438E+03  EK= 0.10502E+02 SP= 0.00E+00 SK= 0.00E+00
   1061 T=   632. E= -.21770938E+03 F= -.22840729E+03 E0= -.22840729E+03  EK= 0.10698E+02 SP= 0.00E+00 SK= 0.00E+00
   1062 T=   639. E= -.21759597E+03 F= -.22841056E+03 E0= -.22841056E+03  EK= 0.10815E+02 SP= 0.00E+00 SK= 0.00E+00
   1063 T=   642. E= -.21754554E+03 F= -.22842010E+03 E0= -.22842010E+03  EK= 0.10875E+02 SP= 0.00E+00 SK= 0.00E+00
   1064 T=   639. E= -.21761909E+03 F= -.22844573E+03 E0= -.22844573E+03  EK= 0.10827E+02 SP= 0.00E+00 SK= 0.00E+00
   1065 T=   623. E= -.21791012E+03 F= -.22846189E+03 E0= -.22846189E+03  EK= 0.10552E+02 SP= 0.00E+00 SK= 0.00E+00
   1066 T=   618. E= -.21798627E+03 F= -.22845044E+03 E0= -.22845044E+03  EK= 0.10464E+02 SP= 0.00E+00 SK= 0.00E+00
   1067 T=   632. E= -.21774571E+03 F= -.22844058E+03 E0= -.22844058E+03  EK= 0.10695E+02 SP= 0.00E+00 SK= 0.00E+00
   1068 T=   627. E= -.21778763E+03 F= -.22840949E+03 E0= -.22840949E+03  EK= 0.10622E+02 SP= 0.00E+00 SK= 0.00E+00
   1069 T=   604. E= -.21818820E+03 F= -.22841121E+03 E0= -.22841121E+03  EK= 0.10223E+02 SP= 0.00E+00 SK= 0.00E+00
   1070 T=   590. E= -.21843151E+03 F= -.22841397E+03 E0= -.22841397E+03  EK= 0.99825E+01 SP= 0.00E+00 SK= 0.00E+00
   1071 T=   588. E= -.21845555E+03 F= -.22841449E+03 E0= -.22841449E+03  EK= 0.99589E+01 SP= 0.00E+00 SK= 0.00E+00
   1072 T=   597. E= -.21823848E+03 F= -.22834861E+03 E0= -.22834861E+03  EK= 0.10110E+02 SP= 0.00E+00 SK= 0.00E+00
   1073 T=   605. E= -.21812469E+03 F= -.22836213E+03 E0= -.22836213E+03  EK= 0.10237E+02 SP= 0.00E+00 SK= 0.00E+00
   1074 T=   602. E= -.21818376E+03 F= -.22838113E+03 E0= -.22838113E+03  EK= 0.10197E+02 SP= 0.00E+00 SK= 0.00E+00
   1075 T=   600. E= -.21827117E+03 F= -.22842439E+03 E0= -.22842439E+03  EK= 0.10153E+02 SP= 0.00E+00 SK= 0.00E+00
   1076 T=   610. E= -.21810536E+03 F= -.22843980E+03 E0= -.22843980E+03  EK= 0.10334E+02 SP= 0.00E+00 SK= 0.00E+00
   1077 T=   627. E= -.21784679E+03 F= -.22845661E+03 E0= -.22845661E+03  EK= 0.10610E+02 SP= 0.00E+00 SK= 0.00E+00
   1078 T=   623. E= -.21791531E+03 F= -.22847313E+03 E0= -.22847313E+03  EK= 0.10558E+02 SP= 0.00E+00 SK= 0.00E+00
   1079 T=   614. E= -.21809812E+03 F= -.22848843E+03 E0= -.22848843E+03  EK= 0.10390E+02 SP= 0.00E+00 SK= 0.00E+00
   1080 T=   609. E= -.21819005E+03 F= -.22850981E+03 E0= -.22850981E+03  EK= 0.10320E+02 SP= 0.00E+00 SK= 0.00E+00
   1081 T=   602. E= -.21832863E+03 F= -.22852848E+03 E0= -.22852848E+03  EK= 0.10200E+02 SP= 0.00E+00 SK= 0.00E+00
   1082 T=   616. E= -.21809251E+03 F= -.22852459E+03 E0= -.22852459E+03  EK= 0.10432E+02 SP= 0.00E+00 SK= 0.00E+00
   1083 T=   629. E= -.21788064E+03 F= -.22853884E+03 E0= -.22853884E+03  EK= 0.10658E+02 SP= 0.00E+00 SK= 0.00E+00
   1084 T=   637. E= -.21776900E+03 F= -.22855748E+03 E0= -.22855748E+03  EK= 0.10788E+02 SP= 0.00E+00 SK= 0.00E+00
   1085 T=   644. E= -.21765593E+03 F= -.22856350E+03 E0= -.22856350E+03  EK= 0.10908E+02 SP= 0.00E+00 SK= 0.00E+00
   1086 T=   644. E= -.21761168E+03 F= -.22852264E+03 E0= -.22852264E+03  EK= 0.10911E+02 SP= 0.00E+00 SK= 0.00E+00
   1087 T=   635. E= -.21777247E+03 F= -.22852351E+03 E0= -.22852351E+03  EK= 0.10751E+02 SP= 0.00E+00 SK= 0.00E+00
   1088 T=   616. E= -.21808450E+03 F= -.22852240E+03 E0= -.22852240E+03  EK= 0.10438E+02 SP= 0.00E+00 SK= 0.00E+00
   1089 T=   602. E= -.21832299E+03 F= -.22851482E+03 E0= -.22851482E+03  EK= 0.10192E+02 SP= 0.00E+00 SK= 0.00E+00
   1090 T=   585. E= -.21859939E+03 F= -.22850494E+03 E0= -.22850494E+03  EK= 0.99056E+01 SP= 0.00E+00 SK= 0.00E+00
   1091 T=   571. E= -.21877918E+03 F= -.22845394E+03 E0= -.22845394E+03  EK= 0.96748E+01 SP= 0.00E+00 SK= 0.00E+00
   1092 T=   574. E= -.21873640E+03 F= -.22845409E+03 E0= -.22845409E+03  EK= 0.97177E+01 SP= 0.00E+00 SK= 0.00E+00
   1093 T=   583. E= -.21855969E+03 F= -.22842634E+03 E0= -.22842634E+03  EK= 0.98667E+01 SP= 0.00E+00 SK= 0.00E+00
   1094 T=   590. E= -.21843588E+03 F= -.22842226E+03 E0= -.22842226E+03  EK= 0.99864E+01 SP= 0.00E+00 SK= 0.00E+00
   1095 T=   593. E= -.21837458E+03 F= -.22841817E+03 E0= -.22841817E+03  EK= 0.10044E+02 SP= 0.00E+00 SK= 0.00E+00
   1096 T=   588. E= -.21842619E+03 F= -.22838576E+03 E0= -.22838576E+03  EK= 0.99596E+01 SP= 0.00E+00 SK= 0.00E+00
   1097 T=   574. E= -.21867293E+03 F= -.22839155E+03 E0= -.22839155E+03  EK= 0.97186E+01 SP= 0.00E+00 SK= 0.00E+00
   1098 T=   553. E= -.21900698E+03 F= -.22837057E+03 E0= -.22837057E+03  EK= 0.93636E+01 SP= 0.00E+00 SK= 0.00E+00
   1099 T=   545. E= -.21911462E+03 F= -.22834885E+03 E0= -.22834885E+03  EK= 0.92342E+01 SP= 0.00E+00 SK= 0.00E+00
   1100 T=   554. E= -.21894222E+03 F= -.22832813E+03 E0= -.22832813E+03  EK= 0.93859E+01 SP= 0.00E+00 SK= 0.00E+00
   1101 T=   559. E= -.21883215E+03 F= -.22829960E+03 E0= -.22829960E+03  EK= 0.94675E+01 SP= 0.00E+00 SK= 0.00E+00
   1102 T=   551. E= -.21893740E+03 F= -.22826616E+03 E0= -.22826616E+03  EK= 0.93288E+01 SP= 0.00E+00 SK= 0.00E+00
   1103 T=   546. E= -.21905948E+03 F= -.22831158E+03 E0= -.22831158E+03  EK= 0.92521E+01 SP= 0.00E+00 SK= 0.00E+00
   1104 T=   558. E= -.21884512E+03 F= -.22829880E+03 E0= -.22829880E+03  EK= 0.94537E+01 SP= 0.00E+00 SK= 0.00E+00
   1105 T=   563. E= -.21875499E+03 F= -.22829539E+03 E0= -.22829539E+03  EK= 0.95404E+01 SP= 0.00E+00 SK= 0.00E+00
   1106 T=   563. E= -.21875414E+03 F= -.22828700E+03 E0= -.22828700E+03  EK= 0.95329E+01 SP= 0.00E+00 SK= 0.00E+00
   1107 T=   560. E= -.21879608E+03 F= -.22828235E+03 E0= -.22828235E+03  EK= 0.94863E+01 SP= 0.00E+00 SK= 0.00E+00
   1108 T=   560. E= -.21879856E+03 F= -.22828040E+03 E0= -.22828040E+03  EK= 0.94818E+01 SP= 0.00E+00 SK= 0.00E+00
   1109 T=   568. E= -.21866402E+03 F= -.22828860E+03 E0= -.22828860E+03  EK= 0.96246E+01 SP= 0.00E+00 SK= 0.00E+00
   1110 T=   563. E= -.21879902E+03 F= -.22832441E+03 E0= -.22832441E+03  EK= 0.95254E+01 SP= 0.00E+00 SK= 0.00E+00
   1111 T=   563. E= -.21880215E+03 F= -.22834070E+03 E0= -.22834070E+03  EK= 0.95385E+01 SP= 0.00E+00 SK= 0.00E+00
   1112 T=   572. E= -.21867127E+03 F= -.22836273E+03 E0= -.22836273E+03  EK= 0.96915E+01 SP= 0.00E+00 SK= 0.00E+00
   1113 T=   567. E= -.21880343E+03 F= -.22839722E+03 E0= -.22839722E+03  EK= 0.95938E+01 SP= 0.00E+00 SK= 0.00E+00
   1114 T=   562. E= -.21889333E+03 F= -.22840350E+03 E0= -.22840350E+03  EK= 0.95102E+01 SP= 0.00E+00 SK= 0.00E+00
   1115 T=   568. E= -.21871902E+03 F= -.22833147E+03 E0= -.22833147E+03  EK= 0.96124E+01 SP= 0.00E+00 SK= 0.00E+00
   1116 T=   577. E= -.21853386E+03 F= -.22831036E+03 E0= -.22831036E+03  EK= 0.97765E+01 SP= 0.00E+00 SK= 0.00E+00
   1117 T=   572. E= -.21857390E+03 F= -.22826355E+03 E0= -.22826355E+03  EK= 0.96897E+01 SP= 0.00E+00 SK= 0.00E+00
   1118 T=   575. E= -.21852753E+03 F= -.22825794E+03 E0= -.22825794E+03  EK= 0.97304E+01 SP= 0.00E+00 SK= 0.00E+00
   1119 T=   592. E= -.21826265E+03 F= -.22828099E+03 E0= -.22828099E+03  EK= 0.10018E+02 SP= 0.00E+00 SK= 0.00E+00
   1120 T=   591. E= -.21826723E+03 F= -.22827574E+03 E0= -.22827574E+03  EK= 0.10009E+02 SP= 0.00E+00 SK= 0.00E+00
   1121 T=   582. E= -.21842479E+03 F= -.22827273E+03 E0= -.22827273E+03  EK= 0.98479E+01 SP= 0.00E+00 SK= 0.00E+00
   1122 T=   590. E= -.21830063E+03 F= -.22828320E+03 E0= -.22828320E+03  EK= 0.99826E+01 SP= 0.00E+00 SK= 0.00E+00
   1123 T=   598. E= -.21819782E+03 F= -.22832031E+03 E0= -.22832031E+03  EK= 0.10122E+02 SP= 0.00E+00 SK= 0.00E+00
   1124 T=   590. E= -.21834358E+03 F= -.22833676E+03 E0= -.22833676E+03  EK= 0.99932E+01 SP= 0.00E+00 SK= 0.00E+00
   1125 T=   587. E= -.21845645E+03 F= -.22839744E+03 E0= -.22839744E+03  EK= 0.99410E+01 SP= 0.00E+00 SK= 0.00E+00
   1126 T=   591. E= -.21841033E+03 F= -.22841078E+03 E0= -.22841078E+03  EK= 0.10000E+02 SP= 0.00E+00 SK= 0.00E+00
   1127 T=   595. E= -.21835179E+03 F= -.22842208E+03 E0= -.22842208E+03  EK= 0.10070E+02 SP= 0.00E+00 SK= 0.00E+00
   1128 T=   597. E= -.21830967E+03 F= -.22842666E+03 E0= -.22842666E+03  EK= 0.10117E+02 SP= 0.00E+00 SK= 0.00E+00
   1129 T=   597. E= -.21833593E+03 F= -.22845304E+03 E0= -.22845304E+03  EK= 0.10117E+02 SP= 0.00E+00 SK= 0.00E+00
   1130 T=   592. E= -.21842611E+03 F= -.22845078E+03 E0= -.22845078E+03  EK= 0.10025E+02 SP= 0.00E+00 SK= 0.00E+00
   1131 T=   575. E= -.21870279E+03 F= -.22844051E+03 E0= -.22844051E+03  EK= 0.97377E+01 SP= 0.00E+00 SK= 0.00E+00
   1132 T=   563. E= -.21892275E+03 F= -.22845861E+03 E0= -.22845861E+03  EK= 0.95359E+01 SP= 0.00E+00 SK= 0.00E+00
   1133 T=   557. E= -.21903174E+03 F= -.22846317E+03 E0= -.22846317E+03  EK= 0.94314E+01 SP= 0.00E+00 SK= 0.00E+00
   1134 T=   558. E= -.21901514E+03 F= -.22846751E+03 E0= -.22846751E+03  EK= 0.94524E+01 SP= 0.00E+00 SK= 0.00E+00
   1135 T=   562. E= -.21895363E+03 F= -.22847153E+03 E0= -.22847153E+03  EK= 0.95179E+01 SP= 0.00E+00 SK= 0.00E+00
   1136 T=   566. E= -.21892454E+03 F= -.22850383E+03 E0= -.22850383E+03  EK= 0.95793E+01 SP= 0.00E+00 SK= 0.00E+00
   1137 T=   577. E= -.21874931E+03 F= -.22851157E+03 E0= -.22851157E+03  EK= 0.97623E+01 SP= 0.00E+00 SK= 0.00E+00
   1138 T=   582. E= -.21867207E+03 F= -.22852530E+03 E0= -.22852530E+03  EK= 0.98532E+01 SP= 0.00E+00 SK= 0.00E+00
   1139 T=   585. E= -.21864369E+03 F= -.22854291E+03 E0= -.22854291E+03  EK= 0.98992E+01 SP= 0.00E+00 SK= 0.00E+00
   1140 T=   584. E= -.21865877E+03 F= -.22855478E+03 E0= -.22855478E+03  EK= 0.98960E+01 SP= 0.00E+00 SK= 0.00E+00
   1141 T=   589. E= -.21854931E+03 F= -.22851474E+03 E0= -.22851474E+03  EK= 0.99654E+01 SP= 0.00E+00 SK= 0.00E+00
   1142 T=   603. E= -.21830977E+03 F= -.22852063E+03 E0= -.22852063E+03  EK= 0.10211E+02 SP= 0.00E+00 SK= 0.00E+00
   1143 T=   608. E= -.21825816E+03 F= -.22854803E+03 E0= -.22854803E+03  EK= 0.10290E+02 SP= 0.00E+00 SK= 0.00E+00
   1144 T=   610. E= -.21821357E+03 F= -.22854467E+03 E0= -.22854467E+03  EK= 0.10331E+02 SP= 0.00E+00 SK= 0.00E+00
   1145 T=   612. E= -.21813882E+03 F= -.22850956E+03 E0= -.22850956E+03  EK= 0.10371E+02 SP= 0.00E+00 SK= 0.00E+00
   1146 T=   610. E= -.21815943E+03 F= -.22849431E+03 E0= -.22849431E+03  EK= 0.10335E+02 SP= 0.00E+00 SK= 0.00E+00
   1147 T=   611. E= -.21811992E+03 F= -.22847335E+03 E0= -.22847335E+03  EK= 0.10353E+02 SP= 0.00E+00 SK= 0.00E+00
   1148 T=   597. E= -.21830627E+03 F= -.22842153E+03 E0= -.22842153E+03  EK= 0.10115E+02 SP= 0.00E+00 SK= 0.00E+00
   1149 T=   572. E= -.21871817E+03 F= -.22839923E+03 E0= -.22839923E+03  EK= 0.96811E+01 SP= 0.00E+00 SK= 0.00E+00
   1150 T=   554. E= -.21898052E+03 F= -.22835507E+03 E0= -.22835507E+03  EK= 0.93746E+01 SP= 0.00E+00 SK= 0.00E+00
   1151 T=   544. E= -.21912669E+03 F= -.22833023E+03 E0= -.22833023E+03  EK= 0.92035E+01 SP= 0.00E+00 SK= 0.00E+00
   1152 T=   537. E= -.21921588E+03 F= -.22830334E+03 E0= -.22830334E+03  EK= 0.90875E+01 SP= 0.00E+00 SK= 0.00E+00
   1153 T=   541. E= -.21913030E+03 F= -.22828736E+03 E0= -.22828736E+03  EK= 0.91571E+01 SP= 0.00E+00 SK= 0.00E+00
   1154 T=   556. E= -.21886300E+03 F= -.22828027E+03 E0= -.22828027E+03  EK= 0.94173E+01 SP= 0.00E+00 SK= 0.00E+00
   1155 T=   559. E= -.21886142E+03 F= -.22833450E+03 E0= -.22833450E+03  EK= 0.94731E+01 SP= 0.00E+00 SK= 0.00E+00
   1156 T=   553. E= -.21896266E+03 F= -.22833273E+03 E0= -.22833273E+03  EK= 0.93701E+01 SP= 0.00E+00 SK= 0.00E+00
   1157 T=   556. E= -.21894131E+03 F= -.22836297E+03 E0= -.22836297E+03  EK= 0.94217E+01 SP= 0.00E+00 SK= 0.00E+00
   1158 T=   561. E= -.21890590E+03 F= -.22840029E+03 E0= -.22840029E+03  EK= 0.94944E+01 SP= 0.00E+00 SK= 0.00E+00
   1159 T=   557. E= -.21901215E+03 F= -.22843960E+03 E0= -.22843960E+03  EK= 0.94274E+01 SP= 0.00E+00 SK= 0.00E+00
   1160 T=   542. E= -.21925871E+03 F= -.22843231E+03 E0= -.22843231E+03  EK= 0.91736E+01 SP= 0.00E+00 SK= 0.00E+00
   1161 T=   544. E= -.21920916E+03 F= -.22841903E+03 E0= -.22841903E+03  EK= 0.92099E+01 SP= 0.00E+00 SK= 0.00E+00
   1162 T=   559. E= -.21896121E+03 F= -.22843495E+03 E0= -.22843495E+03  EK= 0.94737E+01 SP= 0.00E+00 SK= 0.00E+00
   1163 T=   561. E= -.21896251E+03 F= -.22846520E+03 E0= -.22846520E+03  EK= 0.95027E+01 SP= 0.00E+00 SK= 0.00E+00
   1164 T=   564. E= -.21900830E+03 F= -.22856554E+03 E0= -.22856554E+03  EK= 0.95572E+01 SP= 0.00E+00 SK= 0.00E+00
   1165 T=   572. E= -.21892134E+03 F= -.22861302E+03 E0= -.22861302E+03  EK= 0.96917E+01 SP= 0.00E+00 SK= 0.00E+00
   1166 T=   575. E= -.21890829E+03 F= -.22864071E+03 E0= -.22864071E+03  EK= 0.97324E+01 SP= 0.00E+00 SK= 0.00E+00
   1167 T=   585. E= -.21878268E+03 F= -.22868633E+03 E0= -.22868633E+03  EK= 0.99037E+01 SP= 0.00E+00 SK= 0.00E+00
   1168 T=   592. E= -.21872743E+03 F= -.22875363E+03 E0= -.22875363E+03  EK= 0.10026E+02 SP= 0.00E+00 SK= 0.00E+00
   1169 T=   598. E= -.21855875E+03 F= -.22869162E+03 E0= -.22869162E+03  EK= 0.10133E+02 SP= 0.00E+00 SK= 0.00E+00
   1170 T=   607. E= -.21844636E+03 F= -.22872178E+03 E0= -.22872178E+03  EK= 0.10275E+02 SP= 0.00E+00 SK= 0.00E+00
   1171 T=   602. E= -.21853140E+03 F= -.22871871E+03 E0= -.22871871E+03  EK= 0.10187E+02 SP= 0.00E+00 SK= 0.00E+00
   1172 T=   586. E= -.21878571E+03 F= -.22871683E+03 E0= -.22871683E+03  EK= 0.99311E+01 SP= 0.00E+00 SK= 0.00E+00
   1173 T=   581. E= -.21888773E+03 F= -.22871782E+03 E0= -.22871782E+03  EK= 0.98301E+01 SP= 0.00E+00 SK= 0.00E+00
   1174 T=   591. E= -.21873835E+03 F= -.22874083E+03 E0= -.22874083E+03  EK= 0.10002E+02 SP= 0.00E+00 SK= 0.00E+00
   1175 T=   590. E= -.21874431E+03 F= -.22873550E+03 E0= -.22873550E+03  EK= 0.99912E+01 SP= 0.00E+00 SK= 0.00E+00
   1176 T=   581. E= -.21886905E+03 F= -.22871319E+03 E0= -.22871319E+03  EK= 0.98441E+01 SP= 0.00E+00 SK= 0.00E+00
   1177 T=   578. E= -.21889878E+03 F= -.22869458E+03 E0= -.22869458E+03  EK= 0.97958E+01 SP= 0.00E+00 SK= 0.00E+00
   1178 T=   574. E= -.21897650E+03 F= -.22869609E+03 E0= -.22869609E+03  EK= 0.97196E+01 SP= 0.00E+00 SK= 0.00E+00
   1179 T=   574. E= -.21891078E+03 F= -.22862701E+03 E0= -.22862701E+03  EK= 0.97162E+01 SP= 0.00E+00 SK= 0.00E+00
   1180 T=   579. E= -.21888191E+03 F= -.22868942E+03 E0= -.22868942E+03  EK= 0.98075E+01 SP= 0.00E+00 SK= 0.00E+00
   1181 T=   582. E= -.21884839E+03 F= -.22870023E+03 E0= -.22870023E+03  EK= 0.98518E+01 SP= 0.00E+00 SK= 0.00E+00
   1182 T=   597. E= -.21859180E+03 F= -.22869940E+03 E0= -.22869940E+03  EK= 0.10108E+02 SP= 0.00E+00 SK= 0.00E+00
   1183 T=   619. E= -.21821733E+03 F= -.22870181E+03 E0= -.22870181E+03  EK= 0.10484E+02 SP= 0.00E+00 SK= 0.00E+00
   1184 T=   631. E= -.21800967E+03 F= -.22869874E+03 E0= -.22869874E+03  EK= 0.10689E+02 SP= 0.00E+00 SK= 0.00E+00
   1185 T=   640. E= -.21785843E+03 F= -.22869211E+03 E0= -.22869211E+03  EK= 0.10834E+02 SP= 0.00E+00 SK= 0.00E+00
   1186 T=   645. E= -.21773074E+03 F= -.22865555E+03 E0= -.22865555E+03  EK= 0.10925E+02 SP= 0.00E+00 SK= 0.00E+00
   1187 T=   648. E= -.21767061E+03 F= -.22863500E+03 E0= -.22863500E+03  EK= 0.10964E+02 SP= 0.00E+00 SK= 0.00E+00
   1188 T=   657. E= -.21750105E+03 F= -.22863373E+03 E0= -.22863373E+03  EK= 0.11133E+02 SP= 0.00E+00 SK= 0.00E+00
   1189 T=   672. E= -.21722739E+03 F= -.22860577E+03 E0= -.22860577E+03  EK= 0.11378E+02 SP= 0.00E+00 SK= 0.00E+00
   1190 T=   680. E= -.21707696E+03 F= -.22859938E+03 E0= -.22859938E+03  EK= 0.11522E+02 SP= 0.00E+00 SK= 0.00E+00
   1191 T=   672. E= -.21719771E+03 F= -.22857040E+03 E0= -.22857040E+03  EK= 0.11373E+02 SP= 0.00E+00 SK= 0.00E+00
   1192 T=   675. E= -.21707972E+03 F= -.22850203E+03 E0= -.22850203E+03  EK= 0.11422E+02 SP= 0.00E+00 SK= 0.00E+00
   1193 T=   681. E= -.21689331E+03 F= -.22842686E+03 E0= -.22842686E+03  EK= 0.11534E+02 SP= 0.00E+00 SK= 0.00E+00
   1194 T=   675. E= -.21696246E+03 F= -.22839936E+03 E0= -.22839936E+03  EK= 0.11437E+02 SP= 0.00E+00 SK= 0.00E+00
   1195 T=   665. E= -.21711043E+03 F= -.22836505E+03 E0= -.22836505E+03  EK= 0.11255E+02 SP= 0.00E+00 SK= 0.00E+00
   1196 T=   656. E= -.21718841E+03 F= -.22829108E+03 E0= -.22829108E+03  EK= 0.11103E+02 SP= 0.00E+00 SK= 0.00E+00
   1197 T=   659. E= -.21713696E+03 F= -.22829070E+03 E0= -.22829070E+03  EK= 0.11154E+02 SP= 0.00E+00 SK= 0.00E+00
   1198 T=   668. E= -.21691264E+03 F= -.22822540E+03 E0= -.22822540E+03  EK= 0.11313E+02 SP= 0.00E+00 SK= 0.00E+00
   1199 T=   664. E= -.21696307E+03 F= -.22820731E+03 E0= -.22820731E+03  EK= 0.11244E+02 SP= 0.00E+00 SK= 0.00E+00
   1200 T=   653. E= -.21715783E+03 F= -.22822312E+03 E0= -.22822312E+03  EK= 0.11065E+02 SP= 0.00E+00 SK= 0.00E+00
   1201 T=   649. E= -.21719077E+03 F= -.22817975E+03 E0= -.22817975E+03  EK= 0.10989E+02 SP= 0.00E+00 SK= 0.00E+00
   1202 T=   645. E= -.21729513E+03 F= -.22821782E+03 E0= -.22821782E+03  EK= 0.10923E+02 SP= 0.00E+00 SK= 0.00E+00
   1203 T=   638. E= -.21743780E+03 F= -.22823713E+03 E0= -.22823713E+03  EK= 0.10799E+02 SP= 0.00E+00 SK= 0.00E+00
   1204 T=   628. E= -.21762347E+03 F= -.22825898E+03 E0= -.22825898E+03  EK= 0.10636E+02 SP= 0.00E+00 SK= 0.00E+00
   1205 T=   622. E= -.21774819E+03 F= -.22828042E+03 E0= -.22828042E+03  EK= 0.10532E+02 SP= 0.00E+00 SK= 0.00E+00
   1206 T=   628. E= -.21762128E+03 F= -.22825301E+03 E0= -.22825301E+03  EK= 0.10632E+02 SP= 0.00E+00 SK= 0.00E+00
   1207 T=   625. E= -.21768532E+03 F= -.22826918E+03 E0= -.22826918E+03  EK= 0.10584E+02 SP= 0.00E+00 SK= 0.00E+00
   1208 T=   617. E= -.21781469E+03 F= -.22825689E+03 E0= -.22825689E+03  EK= 0.10442E+02 SP= 0.00E+00 SK= 0.00E+00
   1209 T=   609. E= -.21798253E+03 F= -.22828705E+03 E0= -.22828705E+03  EK= 0.10305E+02 SP= 0.00E+00 SK= 0.00E+00
   1210 T=   589. E= -.21833534E+03 F= -.22831635E+03 E0= -.22831635E+03  EK= 0.99810E+01 SP= 0.00E+00 SK= 0.00E+00
   1211 T=   583. E= -.21844409E+03 F= -.22831633E+03 E0= -.22831633E+03  EK= 0.98722E+01 SP= 0.00E+00 SK= 0.00E+00
   1212 T=   581. E= -.21844733E+03 F= -.22829124E+03 E0= -.22829124E+03  EK= 0.98439E+01 SP= 0.00E+00 SK= 0.00E+00
   1213 T=   574. E= -.21852854E+03 F= -.22824548E+03 E0= -.22824548E+03  EK= 0.97169E+01 SP= 0.00E+00 SK= 0.00E+00
   1214 T=   573. E= -.21851470E+03 F= -.22821353E+03 E0= -.22821353E+03  EK= 0.96988E+01 SP= 0.00E+00 SK= 0.00E+00
   1215 T=   579. E= -.21839723E+03 F= -.22819885E+03 E0= -.22819885E+03  EK= 0.98016E+01 SP= 0.00E+00 SK= 0.00E+00
   1216 T=   579. E= -.21836744E+03 F= -.22816478E+03 E0= -.22816478E+03  EK= 0.97973E+01 SP= 0.00E+00 SK= 0.00E+00
   1217 T=   565. E= -.21856065E+03 F= -.22812079E+03 E0= -.22812079E+03  EK= 0.95601E+01 SP= 0.00E+00 SK= 0.00E+00
   1218 T=   553. E= -.21870322E+03 F= -.22807063E+03 E0= -.22807063E+03  EK= 0.93674E+01 SP= 0.00E+00 SK= 0.00E+00
   1219 T=   553. E= -.21865477E+03 F= -.22801566E+03 E0= -.22801566E+03  EK= 0.93609E+01 SP= 0.00E+00 SK= 0.00E+00
       N       E                     dE             d eps       ncg     rms          rms(c)
RMM:   1    -0.246017289258E+03    0.18127E+02   -0.12402E+03   129   0.223E+01
RMM:   2    -0.268913455535E+03   -0.22896E+02   -0.20089E+02   129   0.914E+00
RMM:   3    -0.274562620342E+03   -0.56492E+01   -0.45096E+01   129   0.506E+00
RMM:   4    -0.276380076810E+03   -0.18175E+01   -0.16817E+01   291   0.269E+00
RMM:   5    -0.276910604027E+03   -0.53053E+00   -0.46531E+00   304   0.132E+00    0.854E+00
RMM:   6    -0.274993196110E+03    0.19174E+01   -0.92407E+00   275   0.195E+00    0.561E+00
RMM:   7    -0.275471563433E+03   -0.47837E+00   -0.58229E+00   258   0.166E+00    0.388E+00
RMM:   8    -0.276906036538E+03   -0.14345E+01   -0.61241E+00   259   0.173E+00    0.208E+00
RMM:   9    -0.277555956758E+03   -0.64992E+00   -0.17587E+00   264   0.102E+00    0.148E+00
RMM:  10    -0.277835056565E+03   -0.27910E+00   -0.62920E-01   259   0.651E-01    0.101E+00
RMM:  11    -0.278070605219E+03   -0.23555E+00   -0.46708E-01   258   0.586E-01    0.595E-01
RMM:  12    -0.278190082568E+03   -0.11948E+00   -0.24837E-01   258   0.430E-01    0.408E-01
RMM:  13    -0.278220214545E+03   -0.30132E-01   -0.85228E-02   258   0.253E-01    0.274E-01
RMM:  14    -0.278240654187E+03   -0.20440E-01   -0.52225E-02   258   0.200E-01    0.192E-01
RMM:  15    -0.278252119270E+03   -0.11465E-01   -0.31466E-02   258   0.157E-01    0.133E-01
RMM:  16    -0.278257297587E+03   -0.51783E-02   -0.17249E-02   242   0.117E-01    0.919E-02
RMM:  17    -0.278261031545E+03   -0.37340E-02   -0.13407E-02   215   0.101E-01
   1220 T=   582. E= -.26841214E+03 F= -.27826103E+03 E0= -.27826995E+03  EK= 0.98489E+01 SP= 0.00E+00 SK= 0.00E+00
   1221 T=   658. E= -.21688660E+03 F= -.22802722E+03 E0= -.22802722E+03  EK= 0.11141E+02 SP= 0.00E+00 SK= 0.00E+00
   1222 T=   656. E= -.21687540E+03 F= -.22798012E+03 E0= -.22798012E+03  EK= 0.11105E+02 SP= 0.00E+00 SK= 0.00E+00
   1223 T=   649. E= -.21698978E+03 F= -.22798035E+03 E0= -.22798035E+03  EK= 0.10991E+02 SP= 0.00E+00 SK= 0.00E+00
   1224 T=   639. E= -.21713895E+03 F= -.22795388E+03 E0= -.22795388E+03  EK= 0.10815E+02 SP= 0.00E+00 SK= 0.00E+00
   1225 T=   619. E= -.21744627E+03 F= -.22792210E+03 E0= -.22792210E+03  EK= 0.10476E+02 SP= 0.00E+00 SK= 0.00E+00
   1226 T=   603. E= -.21770947E+03 F= -.22791517E+03 E0= -.22791517E+03  EK= 0.10206E+02 SP= 0.00E+00 SK= 0.00E+00
   1227 T=   589. E= -.21787429E+03 F= -.22785372E+03 E0= -.22785372E+03  EK= 0.99794E+01 SP= 0.00E+00 SK= 0.00E+00
   1228 T=   586. E= -.21786718E+03 F= -.22779277E+03 E0= -.22779277E+03  EK= 0.99256E+01 SP= 0.00E+00 SK= 0.00E+00
   1229 T=   588. E= -.21779410E+03 F= -.22775734E+03 E0= -.22775734E+03  EK= 0.99632E+01 SP= 0.00E+00 SK= 0.00E+00
       N       E                     dE             d eps       ncg     rms          rms(c)
RMM:   1    -0.293095637629E+03   -0.14838E+02   -0.81850E+01   129   0.774E+00
RMM:   2    -0.293822359126E+03   -0.72672E+00   -0.67524E+00   129   0.217E+00
RMM:   3    -0.293964903509E+03   -0.14254E+00   -0.13724E+00   129   0.895E-01
RMM:   4    -0.293999883693E+03   -0.34980E-01   -0.34268E-01   267   0.464E-01
RMM:   5    -0.294016500408E+03   -0.16617E-01   -0.16486E-01   283   0.261E-01    0.417E+00
RMM:   6    -0.292423864121E+03    0.15926E+01   -0.37115E+00   369   0.104E+00    0.240E+00
RMM:   7    -0.291989470565E+03    0.43439E+00   -0.77114E-01   292   0.491E-01    0.183E+00
RMM:   8    -0.291686101478E+03    0.30337E+00   -0.56719E-01   264   0.526E-01    0.106E+00
RMM:   9    -0.291626622418E+03    0.59479E-01   -0.35511E-01   258   0.426E-01    0.639E-01
RMM:  10    -0.291641344165E+03   -0.14722E-01   -0.20673E-01   258   0.355E-01    0.391E-01
RMM:  11    -0.291653269401E+03   -0.11925E-01   -0.80165E-02   258   0.235E-01    0.279E-01
RMM:  12    -0.291663881724E+03   -0.10612E-01   -0.51816E-02   258   0.195E-01    0.208E-01
RMM:  13    -0.291669902318E+03   -0.60206E-02   -0.28420E-02   256   0.147E-01    0.144E-01
RMM:  14    -0.291674916141E+03   -0.50138E-02   -0.18212E-02   237   0.121E-01    0.107E-01
RMM:  15    -0.291678865688E+03   -0.39495E-02   -0.15398E-02   231   0.106E-01
   1230 T=   615. E= -.28126532E+03 F= -.29167887E+03 E0= -.29168814E+03  EK= 0.10414E+02 SP= 0.00E+00 SK= 0.00E+00
   1231 T=   712. E= -.21876270E+03 F= -.23081324E+03 E0= -.23081324E+03  EK= 0.12051E+02 SP= 0.00E+00 SK= 0.00E+00
   1232 T=   722. E= -.21855467E+03 F= -.23077859E+03 E0= -.23077859E+03  EK= 0.12224E+02 SP= 0.00E+00 SK= 0.00E+00
   1233 T=   702. E= -.21889735E+03 F= -.23078172E+03 E0= -.23078172E+03  EK= 0.11884E+02 SP= 0.00E+00 SK= 0.00E+00
   1234 T=   679. E= -.21929134E+03 F= -.23079518E+03 E0= -.23079518E+03  EK= 0.11504E+02 SP= 0.00E+00 SK= 0.00E+00
   1235 T=   676. E= -.21937593E+03 F= -.23081741E+03 E0= -.23081741E+03  EK= 0.11441E+02 SP= 0.00E+00 SK= 0.00E+00
   1236 T=   672. E= -.21946600E+03 F= -.23084861E+03 E0= -.23084861E+03  EK= 0.11383E+02 SP= 0.00E+00 SK= 0.00E+00
   1237 T=   665. E= -.21961480E+03 F= -.23088261E+03 E0= -.23088261E+03  EK= 0.11268E+02 SP= 0.00E+00 SK= 0.00E+00
   1238 T=   680. E= -.21940953E+03 F= -.23092074E+03 E0= -.23092074E+03  EK= 0.11511E+02 SP= 0.00E+00 SK= 0.00E+00
   1239 T=   691. E= -.21924037E+03 F= -.23093294E+03 E0= -.23093294E+03  EK= 0.11693E+02 SP= 0.00E+00 SK= 0.00E+00
   1240 T=   682. E= -.21940654E+03 F= -.23095573E+03 E0= -.23095573E+03  EK= 0.11549E+02 SP= 0.00E+00 SK= 0.00E+00
   1241 T=   682. E= -.21941946E+03 F= -.23096064E+03 E0= -.23096064E+03  EK= 0.11541E+02 SP= 0.00E+00 SK= 0.00E+00
   1242 T=   680. E= -.21944713E+03 F= -.23096329E+03 E0= -.23096329E+03  EK= 0.11516E+02 SP= 0.00E+00 SK= 0.00E+00
   1243 T=   666. E= -.21970192E+03 F= -.23098513E+03 E0= -.23098513E+03  EK= 0.11283E+02 SP= 0.00E+00 SK= 0.00E+00
   1244 T=   656. E= -.21988126E+03 F= -.23098240E+03 E0= -.23098240E+03  EK= 0.11101E+02 SP= 0.00E+00 SK= 0.00E+00
   1245 T=   646. E= -.22003309E+03 F= -.23097199E+03 E0= -.23097199E+03  EK= 0.10939E+02 SP= 0.00E+00 SK= 0.00E+00
   1246 T=   655. E= -.21986663E+03 F= -.23095463E+03 E0= -.23095463E+03  EK= 0.11088E+02 SP= 0.00E+00 SK= 0.00E+00
   1247 T=   669. E= -.21960478E+03 F= -.23093184E+03 E0= -.23093184E+03  EK= 0.11327E+02 SP= 0.00E+00 SK= 0.00E+00
   1248 T=   676. E= -.21948353E+03 F= -.23092414E+03 E0= -.23092414E+03  EK= 0.11441E+02 SP= 0.00E+00 SK= 0.00E+00
   1249 T=   685. E= -.21928902E+03 F= -.23088672E+03 E0= -.23088672E+03  EK= 0.11598E+02 SP= 0.00E+00 SK= 0.00E+00
   1250 T=   686. E= -.21924281E+03 F= -.23085943E+03 E0= -.23085943E+03  EK= 0.11617E+02 SP= 0.00E+00 SK= 0.00E+00
   1251 T=   666. E= -.21960475E+03 F= -.23088840E+03 E0= -.23088840E+03  EK= 0.11284E+02 SP= 0.00E+00 SK= 0.00E+00
   1252 T=   643. E= -.21995846E+03 F= -.23084504E+03 E0= -.23084504E+03  EK= 0.10887E+02 SP= 0.00E+00 SK= 0.00E+00
       N       E                     dE             d eps       ncg     rms          rms(c)
RMM:   1    -0.280584548593E+03    0.11090E+02   -0.22589E+02   129   0.119E+01
RMM:   2    -0.282849788261E+03   -0.22652E+01   -0.19983E+01   129   0.360E+00
RMM:   3    -0.283327070186E+03   -0.47728E+00   -0.44174E+00   129   0.156E+00
RMM:   4    -0.283448958692E+03   -0.12189E+00   -0.11703E+00   270   0.851E-01
RMM:   5    -0.283510808878E+03   -0.61850E-01   -0.60821E-01   288   0.486E-01    0.633E+00
RMM:   6    -0.280212343414E+03    0.32985E+01   -0.70697E+00   354   0.157E+00    0.339E+00
RMM:   7    -0.279808610435E+03    0.40373E+00   -0.17503E+00   275   0.891E-01    0.227E+00
RMM:   8    -0.279542014920E+03    0.26660E+00   -0.12590E+00   259   0.770E-01    0.136E+00
RMM:   9    -0.279603315212E+03   -0.61300E-01   -0.73031E-01   258   0.622E-01    0.965E-01
RMM:  10    -0.279577984074E+03    0.25331E-01   -0.29102E-01   258   0.406E-01    0.646E-01
RMM:  11    -0.279605032055E+03   -0.27048E-01   -0.12039E-01   258   0.282E-01    0.522E-01
RMM:  12    -0.279610957546E+03   -0.59255E-02   -0.66013E-02   258   0.214E-01    0.325E-01
RMM:  13    -0.279626499987E+03   -0.15542E-01   -0.66043E-02   258   0.219E-01    0.210E-01
RMM:  14    -0.279634818289E+03   -0.83183E-02   -0.29923E-02   258   0.152E-01    0.148E-01
RMM:  15    -0.279638473392E+03   -0.36551E-02   -0.12694E-02   216   0.972E-02
   1253 T=   639. E= -.26882458E+03 F= -.27963847E+03 E0= -.27964383E+03  EK= 0.10814E+02 SP= 0.00E+00 SK= 0.00E+00
   1254 T=   683. E= -.21927703E+03 F= -.23084240E+03 E0= -.23084240E+03  EK= 0.11565E+02 SP= 0.00E+00 SK= 0.00E+00
   1255 T=   670. E= -.21950907E+03 F= -.23085262E+03 E0= -.23085262E+03  EK= 0.11344E+02 SP= 0.00E+00 SK= 0.00E+00
   1256 T=   673. E= -.21946245E+03 F= -.23086179E+03 E0= -.23086179E+03  EK= 0.11399E+02 SP= 0.00E+00 SK= 0.00E+00
   1257 T=   675. E= -.21950932E+03 F= -.23093377E+03 E0= -.23093377E+03  EK= 0.11424E+02 SP= 0.00E+00 SK= 0.00E+00
   1258 T=   674. E= -.21962137E+03 F= -.23103135E+03 E0= -.23103135E+03  EK= 0.11410E+02 SP= 0.00E+00 SK= 0.00E+00
   1259 T=   683. E= -.21953514E+03 F= -.23109353E+03 E0= -.23109353E+03  EK= 0.11558E+02 SP= 0.00E+00 SK= 0.00E+00
   1260 T=   670. E= -.21980344E+03 F= -.23114862E+03 E0= -.23114862E+03  EK= 0.11345E+02 SP= 0.00E+00 SK= 0.00E+00
   1261 T=   668. E= -.21990008E+03 F= -.23121260E+03 E0= -.23121260E+03  EK= 0.11313E+02 SP= 0.00E+00 SK= 0.00E+00
   1262 T=   683. E= -.21971972E+03 F= -.23127935E+03 E0= -.23127935E+03  EK= 0.11560E+02 SP= 0.00E+00 SK= 0.00E+00
   1263 T=   691. E= -.21961057E+03 F= -.23131494E+03 E0= -.23131494E+03  EK= 0.11704E+02 SP= 0.00E+00 SK= 0.00E+00
   1264 T=   697. E= -.21958079E+03 F= -.23138593E+03 E0= -.23138593E+03  EK= 0.11805E+02 SP= 0.00E+00 SK= 0.00E+00
   1265 T=   695. E= -.21967160E+03 F= -.23143581E+03 E0= -.23143581E+03  EK= 0.11764E+02 SP= 0.00E+00 SK= 0.00E+00
   1266 T=   700. E= -.21963347E+03 F= -.23148578E+03 E0= -.23148578E+03  EK= 0.11852E+02 SP= 0.00E+00 SK= 0.00E+00
   1267 T=   697. E= -.21975686E+03 F= -.23156577E+03 E0= -.23156577E+03  EK= 0.11809E+02 SP= 0.00E+00 SK= 0.00E+00
   1268 T=   687. E= -.22000822E+03 F= -.23164262E+03 E0= -.23164262E+03  EK= 0.11634E+02 SP= 0.00E+00 SK= 0.00E+00
   1269 T=   687. E= -.22005294E+03 F= -.23168725E+03 E0= -.23168725E+03  EK= 0.11634E+02 SP= 0.00E+00 SK= 0.00E+00
   1270 T=   693. E= -.21998762E+03 F= -.23172978E+03 E0= -.23172978E+03  EK= 0.11742E+02 SP= 0.00E+00 SK= 0.00E+00
   1271 T=   695. E= -.22000183E+03 F= -.23177649E+03 E0= -.23177649E+03  EK= 0.11775E+02 SP= 0.00E+00 SK= 0.00E+00
   1272 T=   691. E= -.22010899E+03 F= -.23180240E+03 E0= -.23180240E+03  EK= 0.11693E+02 SP= 0.00E+00 SK= 0.00E+00
   1273 T=   687. E= -.22019312E+03 F= -.23182647E+03 E0= -.23182647E+03  EK= 0.11633E+02 SP= 0.00E+00 SK= 0.00E+00
   1274 T=   689. E= -.22017634E+03 F= -.23184104E+03 E0= -.23184104E+03  EK= 0.11665E+02 SP= 0.00E+00 SK= 0.00E+00
   1275 T=   687. E= -.22020995E+03 F= -.23184177E+03 E0= -.23184177E+03  EK= 0.11632E+02 SP= 0.00E+00 SK= 0.00E+00
   1276 T=   672. E= -.22049494E+03 F= -.23186625E+03 E0= -.23186625E+03  EK= 0.11371E+02 SP= 0.00E+00 SK= 0.00E+00
       N       E                     dE             d eps       ncg     rms          rms(c)
RMM:   1    -0.279525212132E+03    0.10961E+00   -0.23413E+02   129   0.119E+01
RMM:   2    -0.282035856595E+03   -0.25106E+01   -0.20752E+01   129   0.361E+00
RMM:   3    -0.282515764190E+03   -0.47991E+00   -0.44226E+00   129   0.154E+00
RMM:   4    -0.282638235791E+03   -0.12247E+00   -0.11785E+00   270   0.826E-01
RMM:   5    -0.282692319853E+03   -0.54084E-01   -0.53089E-01   285   0.454E-01    0.620E+00
RMM:   6    -0.279267995438E+03    0.34243E+01   -0.75468E+00   354   0.152E+00    0.340E+00
RMM:   7    -0.278978675801E+03    0.28932E+00   -0.17025E+00   278   0.810E-01    0.268E+00
RMM:   8    -0.278300677829E+03    0.67800E+00   -0.11139E+00   259   0.720E-01    0.161E+00
RMM:   9    -0.278335548053E+03   -0.34870E-01   -0.79426E-01   258   0.643E-01    0.105E+00
RMM:  10    -0.278342390728E+03   -0.68427E-02   -0.37489E-01   258   0.461E-01    0.683E-01
RMM:  11    -0.278370467402E+03   -0.28077E-01   -0.17637E-01   258   0.337E-01    0.452E-01
RMM:  12    -0.278389820401E+03   -0.19353E-01   -0.97162E-02   258   0.254E-01    0.316E-01
RMM:  13    -0.278401583686E+03   -0.11763E-01   -0.57889E-02   258   0.201E-01    0.215E-01
RMM:  14    -0.278410733662E+03   -0.91500E-02   -0.30508E-02   257   0.150E-01    0.164E-01
RMM:  15    -0.278414751589E+03   -0.40179E-02   -0.15234E-02   234   0.107E-01
   1277 T=   698. E= -.26659305E+03 F= -.27841475E+03 E0= -.27840399E+03  EK= 0.11822E+02 SP= 0.00E+00 SK= 0.00E+00
   1278 T=   774. E= -.21877139E+03 F= -.23187843E+03 E0= -.23187843E+03  EK= 0.13107E+02 SP= 0.00E+00 SK= 0.00E+00
   1279 T=   762. E= -.21897382E+03 F= -.23188313E+03 E0= -.23188313E+03  EK= 0.12909E+02 SP= 0.00E+00 SK= 0.00E+00
   1280 T=   758. E= -.21905659E+03 F= -.23188939E+03 E0= -.23188939E+03  EK= 0.12833E+02 SP= 0.00E+00 SK= 0.00E+00
   1281 T=   758. E= -.21908315E+03 F= -.23191067E+03 E0= -.23191067E+03  EK= 0.12828E+02 SP= 0.00E+00 SK= 0.00E+00
   1282 T=   764. E= -.21897143E+03 F= -.23191395E+03 E0= -.23191395E+03  EK= 0.12943E+02 SP= 0.00E+00 SK= 0.00E+00
   1283 T=   760. E= -.21908103E+03 F= -.23194920E+03 E0= -.23194920E+03  EK= 0.12868E+02 SP= 0.00E+00 SK= 0.00E+00
   1284 T=   748. E= -.21929597E+03 F= -.23195475E+03 E0= -.23195475E+03  EK= 0.12659E+02 SP= 0.00E+00 SK= 0.00E+00
   1285 T=   740. E= -.21943170E+03 F= -.23195890E+03 E0= -.23195890E+03  EK= 0.12527E+02 SP= 0.00E+00 SK= 0.00E+00
   1286 T=   711. E= -.21992353E+03 F= -.23195670E+03 E0= -.23195670E+03  EK= 0.12033E+02 SP= 0.00E+00 SK= 0.00E+00
   1287 T=   700. E= -.22009422E+03 F= -.23195195E+03 E0= -.23195195E+03  EK= 0.11858E+02 SP= 0.00E+00 SK= 0.00E+00
   1288 T=   710. E= -.21994800E+03 F= -.23196748E+03 E0= -.23196748E+03  EK= 0.12019E+02 SP= 0.00E+00 SK= 0.00E+00
   1289 T=   710. E= -.21993590E+03 F= -.23195723E+03 E0= -.23195723E+03  EK= 0.12021E+02 SP= 0.00E+00 SK= 0.00E+00
   1290 T=   705. E= -.22003044E+03 F= -.23196042E+03 E0= -.23196042E+03  EK= 0.11930E+02 SP= 0.00E+00 SK= 0.00E+00
   1291 T=   686. E= -.22034619E+03 F= -.23196879E+03 E0= -.23196879E+03  EK= 0.11623E+02 SP= 0.00E+00 SK= 0.00E+00
   1292 T=   671. E= -.22058526E+03 F= -.23195117E+03 E0= -.23195117E+03  EK= 0.11366E+02 SP= 0.00E+00 SK= 0.00E+00
   1293 T=   667. E= -.22065259E+03 F= -.23193878E+03 E0= -.23193878E+03  EK= 0.11286E+02 SP= 0.00E+00 SK= 0.00E+00
   1294 T=   653. E= -.22085601E+03 F= -.23191898E+03 E0= -.23191898E+03  EK= 0.11063E+02 SP= 0.00E+00 SK= 0.00E+00
   1295 T=   651. E= -.22088697E+03 F= -.23191835E+03 E0= -.23191835E+03  EK= 0.11031E+02 SP= 0.00E+00 SK= 0.00E+00
   1296 T=   659. E= -.22077552E+03 F= -.23193102E+03 E0= -.23193102E+03  EK= 0.11156E+02 SP= 0.00E+00 SK= 0.00E+00
   1297 T=   656. E= -.22084729E+03 F= -.23195014E+03 E0= -.23195014E+03  EK= 0.11103E+02 SP= 0.00E+00 SK= 0.00E+00
   1298 T=   647. E= -.22100725E+03 F= -.23196548E+03 E0= -.23196548E+03  EK= 0.10958E+02 SP= 0.00E+00 SK= 0.00E+00
   1299 T=   639. E= -.22113042E+03 F= -.23195437E+03 E0= -.23195437E+03  EK= 0.10824E+02 SP= 0.00E+00 SK= 0.00E+00
   1300 T=   631. E= -.22131790E+03 F= -.23199626E+03 E0= -.23199626E+03  EK= 0.10678E+02 SP= 0.00E+00 SK= 0.00E+00
   1301 T=   622. E= -.22146917E+03 F= -.23199684E+03 E0= -.23199684E+03  EK= 0.10528E+02 SP= 0.00E+00 SK= 0.00E+00
   1302 T=   612. E= -.22163419E+03 F= -.23200429E+03 E0= -.23200429E+03  EK= 0.10370E+02 SP= 0.00E+00 SK= 0.00E+00
   1303 T=   606. E= -.22174305E+03 F= -.23200693E+03 E0= -.23200693E+03  EK= 0.10264E+02 SP= 0.00E+00 SK= 0.00E+00
   1304 T=   608. E= -.22170684E+03 F= -.23200724E+03 E0= -.23200724E+03  EK= 0.10300E+02 SP= 0.00E+00 SK= 0.00E+00
   1305 T=   601. E= -.22185168E+03 F= -.23202095E+03 E0= -.23202095E+03  EK= 0.10169E+02 SP= 0.00E+00 SK= 0.00E+00
   1306 T=   608. E= -.22170600E+03 F= -.23200332E+03 E0= -.23200332E+03  EK= 0.10297E+02 SP= 0.00E+00 SK= 0.00E+00
   1307 T=   617. E= -.22151173E+03 F= -.23196613E+03 E0= -.23196613E+03  EK= 0.10454E+02 SP= 0.00E+00 SK= 0.00E+00
   1308 T=   614. E= -.22154838E+03 F= -.23195173E+03 E0= -.23195173E+03  EK= 0.10403E+02 SP= 0.00E+00 SK= 0.00E+00
   1309 T=   622. E= -.22138278E+03 F= -.23192292E+03 E0= -.23192292E+03  EK= 0.10540E+02 SP= 0.00E+00 SK= 0.00E+00
   1310 T=   632. E= -.22118961E+03 F= -.23189493E+03 E0= -.23189493E+03  EK= 0.10705E+02 SP= 0.00E+00 SK= 0.00E+00
   1311 T=   631. E= -.22119526E+03 F= -.23187827E+03 E0= -.23187827E+03  EK= 0.10683E+02 SP= 0.00E+00 SK= 0.00E+00
   1312 T=   618. E= -.22135920E+03 F= -.23182908E+03 E0= -.23182908E+03  EK= 0.10470E+02 SP= 0.00E+00 SK= 0.00E+00
   1313 T=   621. E= -.22130030E+03 F= -.23180830E+03 E0= -.23180830E+03  EK= 0.10508E+02 SP= 0.00E+00 SK= 0.00E+00
   1314 T=   624. E= -.22124659E+03 F= -.23180507E+03 E0= -.23180507E+03  EK= 0.10558E+02 SP= 0.00E+00 SK= 0.00E+00
   1315 T=   618. E= -.22132778E+03 F= -.23179685E+03 E0= -.23179685E+03  EK= 0.10469E+02 SP= 0.00E+00 SK= 0.00E+00
   1316 T=   619. E= -.22130008E+03 F= -.23178939E+03 E0= -.23178939E+03  EK= 0.10489E+02 SP= 0.00E+00 SK= 0.00E+00
   1317 T=   625. E= -.22123403E+03 F= -.23181915E+03 E0= -.23181915E+03  EK= 0.10585E+02 SP= 0.00E+00 SK= 0.00E+00
   1318 T=   621. E= -.22129471E+03 F= -.23181404E+03 E0= -.23181404E+03  EK= 0.10519E+02 SP= 0.00E+00 SK= 0.00E+00
   1319 T=   612. E= -.22144063E+03 F= -.23180068E+03 E0= -.23180068E+03  EK= 0.10360E+02 SP= 0.00E+00 SK= 0.00E+00
   1320 T=   616. E= -.22137126E+03 F= -.23180136E+03 E0= -.23180136E+03  EK= 0.10430E+02 SP= 0.00E+00 SK= 0.00E+00
   1321 T=   613. E= -.22140510E+03 F= -.23179174E+03 E0= -.23179174E+03  EK= 0.10387E+02 SP= 0.00E+00 SK= 0.00E+00
   1322 T=   612. E= -.22142956E+03 F= -.23178650E+03 E0= -.23178650E+03  EK= 0.10357E+02 SP= 0.00E+00 SK= 0.00E+00
   1323 T=   617. E= -.22137462E+03 F= -.23182474E+03 E0= -.23182474E+03  EK= 0.10450E+02 SP= 0.00E+00 SK= 0.00E+00
   1324 T=   621. E= -.22130449E+03 F= -.23182038E+03 E0= -.23182038E+03  EK= 0.10516E+02 SP= 0.00E+00 SK= 0.00E+00
   1325 T=   629. E= -.22115885E+03 F= -.23180463E+03 E0= -.23180463E+03  EK= 0.10646E+02 SP= 0.00E+00 SK= 0.00E+00
   1326 T=   632. E= -.22107313E+03 F= -.23177451E+03 E0= -.23177451E+03  EK= 0.10701E+02 SP= 0.00E+00 SK= 0.00E+00
   1327 T=   630. E= -.22110933E+03 F= -.23177508E+03 E0= -.23177508E+03  EK= 0.10666E+02 SP= 0.00E+00 SK= 0.00E+00
   1328 T=   638. E= -.22096116E+03 F= -.23177083E+03 E0= -.23177083E+03  EK= 0.10810E+02 SP= 0.00E+00 SK= 0.00E+00
   1329 T=   646. E= -.22082147E+03 F= -.23175421E+03 E0= -.23175421E+03  EK= 0.10933E+02 SP= 0.00E+00 SK= 0.00E+00
   1330 T=   652. E= -.22071618E+03 F= -.23176424E+03 E0= -.23176424E+03  EK= 0.11048E+02 SP= 0.00E+00 SK= 0.00E+00
   1331 T=   651. E= -.22073226E+03 F= -.23176239E+03 E0= -.23176239E+03  EK= 0.11030E+02 SP= 0.00E+00 SK= 0.00E+00
   1332 T=   647. E= -.22078218E+03 F= -.23174469E+03 E0= -.23174469E+03  EK= 0.10963E+02 SP= 0.00E+00 SK= 0.00E+00
   1333 T=   638. E= -.22094064E+03 F= -.23174875E+03 E0= -.23174875E+03  EK= 0.10808E+02 SP= 0.00E+00 SK= 0.00E+00
   1334 T=   638. E= -.22090947E+03 F= -.23170903E+03 E0= -.23170903E+03  EK= 0.10800E+02 SP= 0.00E+00 SK= 0.00E+00
   1335 T=   652. E= -.22066432E+03 F= -.23170948E+03 E0= -.23170948E+03  EK= 0.11045E+02 SP= 0.00E+00 SK= 0.00E+00
   1336 T=   662. E= -.22050073E+03 F= -.23170900E+03 E0= -.23170900E+03  EK= 0.11208E+02 SP= 0.00E+00 SK= 0.00E+00
   1337 T=   664. E= -.22046564E+03 F= -.23170213E+03 E0= -.23170213E+03  EK= 0.11236E+02 SP= 0.00E+00 SK= 0.00E+00
   1338 T=   651. E= -.22066124E+03 F= -.23169318E+03 E0= -.23169318E+03  EK= 0.11032E+02 SP= 0.00E+00 SK= 0.00E+00
   1339 T=   640. E= -.22083809E+03 F= -.23167061E+03 E0= -.23167061E+03  EK= 0.10833E+02 SP= 0.00E+00 SK= 0.00E+00
   1340 T=   636. E= -.22087347E+03 F= -.23164941E+03 E0= -.23164941E+03  EK= 0.10776E+02 SP= 0.00E+00 SK= 0.00E+00
   1341 T=   644. E= -.22072636E+03 F= -.23163007E+03 E0= -.23163007E+03  EK= 0.10904E+02 SP= 0.00E+00 SK= 0.00E+00
   1342 T=   647. E= -.22066501E+03 F= -.23161261E+03 E0= -.23161261E+03  EK= 0.10948E+02 SP= 0.00E+00 SK= 0.00E+00
   1343 T=   645. E= -.22067204E+03 F= -.23159697E+03 E0= -.23159697E+03  EK= 0.10925E+02 SP= 0.00E+00 SK= 0.00E+00
   1344 T=   640. E= -.22074500E+03 F= -.23158625E+03 E0= -.23158625E+03  EK= 0.10841E+02 SP= 0.00E+00 SK= 0.00E+00
   1345 T=   648. E= -.22060777E+03 F= -.23157333E+03 E0= -.23157333E+03  EK= 0.10966E+02 SP= 0.00E+00 SK= 0.00E+00
   1346 T=   656. E= -.22045548E+03 F= -.23155830E+03 E0= -.23155830E+03  EK= 0.11103E+02 SP= 0.00E+00 SK= 0.00E+00
   1347 T=   652. E= -.22051421E+03 F= -.23155984E+03 E0= -.23155984E+03  EK= 0.11046E+02 SP= 0.00E+00 SK= 0.00E+00
   1348 T=   659. E= -.22040400E+03 F= -.23156094E+03 E0= -.23156094E+03  EK= 0.11157E+02 SP= 0.00E+00 SK= 0.00E+00
   1349 T=   667. E= -.22025333E+03 F= -.23153940E+03 E0= -.23153940E+03  EK= 0.11286E+02 SP= 0.00E+00 SK= 0.00E+00
   1350 T=   669. E= -.22026487E+03 F= -.23158592E+03 E0= -.23158592E+03  EK= 0.11321E+02 SP= 0.00E+00 SK= 0.00E+00
   1351 T=   663. E= -.22033112E+03 F= -.23155312E+03 E0= -.23155312E+03  EK= 0.11222E+02 SP= 0.00E+00 SK= 0.00E+00
   1352 T=   655. E= -.22046182E+03 F= -.23155215E+03 E0= -.23155215E+03  EK= 0.11090E+02 SP= 0.00E+00 SK= 0.00E+00
   1353 T=   651. E= -.22054110E+03 F= -.23156363E+03 E0= -.23156363E+03  EK= 0.11023E+02 SP= 0.00E+00 SK= 0.00E+00
   1354 T=   644. E= -.22068700E+03 F= -.23159992E+03 E0= -.23159992E+03  EK= 0.10913E+02 SP= 0.00E+00 SK= 0.00E+00
   1355 T=   641. E= -.22074482E+03 F= -.23159682E+03 E0= -.23159682E+03  EK= 0.10852E+02 SP= 0.00E+00 SK= 0.00E+00
   1356 T=   637. E= -.22082920E+03 F= -.23161758E+03 E0= -.23161758E+03  EK= 0.10788E+02 SP= 0.00E+00 SK= 0.00E+00
   1357 T=   625. E= -.22106019E+03 F= -.23164596E+03 E0= -.23164596E+03  EK= 0.10586E+02 SP= 0.00E+00 SK= 0.00E+00
   1358 T=   620. E= -.22115411E+03 F= -.23165876E+03 E0= -.23165876E+03  EK= 0.10505E+02 SP= 0.00E+00 SK= 0.00E+00
   1359 T=   628. E= -.22104758E+03 F= -.23168802E+03 E0= -.23168802E+03  EK= 0.10640E+02 SP= 0.00E+00 SK= 0.00E+00
   1360 T=   638. E= -.22087516E+03 F= -.23168652E+03 E0= -.23168652E+03  EK= 0.10811E+02 SP= 0.00E+00 SK= 0.00E+00
   1361 T=   639. E= -.22088654E+03 F= -.23170859E+03 E0= -.23170859E+03  EK= 0.10822E+02 SP= 0.00E+00 SK= 0.00E+00
   1362 T=   640. E= -.22087178E+03 F= -.23171328E+03 E0= -.23171328E+03  EK= 0.10841E+02 SP= 0.00E+00 SK= 0.00E+00
   1363 T=   656. E= -.22064093E+03 F= -.23174301E+03 E0= -.23174301E+03  EK= 0.11102E+02 SP= 0.00E+00 SK= 0.00E+00
   1364 T=   661. E= -.22053004E+03 F= -.23172655E+03 E0= -.23172655E+03  EK= 0.11197E+02 SP= 0.00E+00 SK= 0.00E+00
   1365 T=   662. E= -.22052561E+03 F= -.23173673E+03 E0= -.23173673E+03  EK= 0.11211E+02 SP= 0.00E+00 SK= 0.00E+00
   1366 T=   668. E= -.22043014E+03 F= -.23174364E+03 E0= -.23174364E+03  EK= 0.11314E+02 SP= 0.00E+00 SK= 0.00E+00
   1367 T=   666. E= -.22046158E+03 F= -.23174718E+03 E0= -.23174718E+03  EK= 0.11286E+02 SP= 0.00E+00 SK= 0.00E+00
   1368 T=   667. E= -.22046223E+03 F= -.23174847E+03 E0= -.23174847E+03  EK= 0.11286E+02 SP= 0.00E+00 SK= 0.00E+00
   1369 T=   664. E= -.22049401E+03 F= -.23174516E+03 E0= -.23174516E+03  EK= 0.11251E+02 SP= 0.00E+00 SK= 0.00E+00
   1370 T=   662. E= -.22055802E+03 F= -.23176650E+03 E0= -.23176650E+03  EK= 0.11208E+02 SP= 0.00E+00 SK= 0.00E+00
   1371 T=   663. E= -.22053478E+03 F= -.23176101E+03 E0= -.23176101E+03  EK= 0.11226E+02 SP= 0.00E+00 SK= 0.00E+00
   1372 T=   663. E= -.22055371E+03 F= -.23177517E+03 E0= -.23177517E+03  EK= 0.11221E+02 SP= 0.00E+00 SK= 0.00E+00
   1373 T=   667. E= -.22044719E+03 F= -.23174871E+03 E0= -.23174871E+03  EK= 0.11302E+02 SP= 0.00E+00 SK= 0.00E+00
   1374 T=   666. E= -.22045926E+03 F= -.23174481E+03 E0= -.23174481E+03  EK= 0.11286E+02 SP= 0.00E+00 SK= 0.00E+00
   1375 T=   669. E= -.22037980E+03 F= -.23171065E+03 E0= -.23171065E+03  EK= 0.11331E+02 SP= 0.00E+00 SK= 0.00E+00
   1376 T=   682. E= -.22013267E+03 F= -.23168342E+03 E0= -.23168342E+03  EK= 0.11551E+02 SP= 0.00E+00 SK= 0.00E+00
       N       E                     dE             d eps       ncg     rms          rms(c)
RMM:   1    -0.266239597623E+03    0.12171E+02   -0.78471E+02   129   0.187E+01
RMM:   2    -0.279991666305E+03   -0.13752E+02   -0.11156E+02   129   0.723E+00
RMM:   3    -0.283327125876E+03   -0.33355E+01   -0.25894E+01   129   0.367E+00
RMM:   4    -0.284277917506E+03   -0.95079E+00   -0.87491E+00   282   0.201E+00
RMM:   5    -0.284625827389E+03   -0.34791E+00   -0.31988E+00   302   0.105E+00    0.854E+00
RMM:   6    -0.281782883715E+03    0.28429E+01   -0.11190E+01   301   0.197E+00    0.523E+00
RMM:   7    -0.281602724780E+03    0.18016E+00   -0.37030E+00   261   0.125E+00    0.418E+00
RMM:   8    -0.281089446656E+03    0.51328E+00   -0.30609E+00   259   0.115E+00    0.272E+00
RMM:   9    -0.281441010612E+03   -0.35156E+00   -0.23511E+00   258   0.106E+00    0.161E+00
RMM:  10    -0.281678626728E+03   -0.23762E+00   -0.72220E-01   259   0.638E-01    0.127E+00
RMM:  11    -0.281792030656E+03   -0.11340E+00   -0.39403E-01   258   0.491E-01    0.898E-01
RMM:  12    -0.281878141453E+03   -0.86111E-01   -0.24659E-01   258   0.410E-01    0.621E-01
RMM:  13    -0.281922381903E+03   -0.44240E-01   -0.14350E-01   258   0.309E-01    0.427E-01
RMM:  14    -0.281951489011E+03   -0.29107E-01   -0.89130E-02   258   0.250E-01    0.289E-01
RMM:  15    -0.281961785696E+03   -0.10297E-01   -0.32834E-02   257   0.151E-01    0.205E-01
RMM:  16    -0.281971967545E+03   -0.10182E-01   -0.24160E-02   255   0.133E-01    0.154E-01
RMM:  17    -0.281978056424E+03   -0.60889E-02   -0.18703E-02   242   0.115E-01    0.110E-01
RMM:  18    -0.281983106675E+03   -0.50503E-02   -0.15595E-02   225   0.104E-01    0.854E-02
RMM:  19    -0.281984471071E+03   -0.13644E-02   -0.46539E-03   176   0.582E-02
   1377 T=   704. E= -.27006871E+03 F= -.28198447E+03 E0= -.28198114E+03  EK= 0.11916E+02 SP= 0.00E+00 SK= 0.00E+00
   1378 T=   767. E= -.21862374E+03 F= -.23161666E+03 E0= -.23161666E+03  EK= 0.12993E+02 SP= 0.00E+00 SK= 0.00E+00
   1379 T=   758. E= -.21874559E+03 F= -.23158402E+03 E0= -.23158402E+03  EK= 0.12838E+02 SP= 0.00E+00 SK= 0.00E+00
   1380 T=   746. E= -.21892579E+03 F= -.23155662E+03 E0= -.23155662E+03  EK= 0.12631E+02 SP= 0.00E+00 SK= 0.00E+00
   1381 T=   744. E= -.21893594E+03 F= -.23152810E+03 E0= -.23152810E+03  EK= 0.12592E+02 SP= 0.00E+00 SK= 0.00E+00
   1382 T=   741. E= -.21896697E+03 F= -.23150828E+03 E0= -.23150828E+03  EK= 0.12541E+02 SP= 0.00E+00 SK= 0.00E+00
   1383 T=   738. E= -.21895642E+03 F= -.23146078E+03 E0= -.23146078E+03  EK= 0.12504E+02 SP= 0.00E+00 SK= 0.00E+00
   1384 T=   741. E= -.21888323E+03 F= -.23142812E+03 E0= -.23142812E+03  EK= 0.12545E+02 SP= 0.00E+00 SK= 0.00E+00
   1385 T=   734. E= -.21894012E+03 F= -.23136872E+03 E0= -.23136872E+03  EK= 0.12429E+02 SP= 0.00E+00 SK= 0.00E+00
   1386 T=   711. E= -.21938852E+03 F= -.23142411E+03 E0= -.23142411E+03  EK= 0.12036E+02 SP= 0.00E+00 SK= 0.00E+00
   1387 T=   690. E= -.21972219E+03 F= -.23139904E+03 E0= -.23139904E+03  EK= 0.11677E+02 SP= 0.00E+00 SK= 0.00E+00
   1388 T=   686. E= -.21976232E+03 F= -.23137859E+03 E0= -.23137859E+03  EK= 0.11616E+02 SP= 0.00E+00 SK= 0.00E+00
   1389 T=   696. E= -.21958196E+03 F= -.23137069E+03 E0= -.23137069E+03  EK= 0.11789E+02 SP= 0.00E+00 SK= 0.00E+00
   1390 T=   713. E= -.21928467E+03 F= -.23136154E+03 E0= -.23136154E+03  EK= 0.12077E+02 SP= 0.00E+00 SK= 0.00E+00
   1391 T=   712. E= -.21930967E+03 F= -.23136816E+03 E0= -.23136816E+03  EK= 0.12058E+02 SP= 0.00E+00 SK= 0.00E+00
   1392 T=   719. E= -.21919617E+03 F= -.23137341E+03 E0= -.23137341E+03  EK= 0.12177E+02 SP= 0.00E+00 SK= 0.00E+00
       N       E                     dE             d eps       ncg     rms          rms(c)
RMM:   1    -0.290558086346E+03   -0.85750E+01   -0.18340E+02   129   0.103E+01
RMM:   2    -0.292474171273E+03   -0.19161E+01   -0.16427E+01   129   0.322E+00
RMM:   3    -0.292835401400E+03   -0.36123E+00   -0.33981E+00   129   0.135E+00
RMM:   4    -0.292924678011E+03   -0.89277E-01   -0.86619E-01   267   0.715E-01
RMM:   5    -0.292967289893E+03   -0.42612E-01   -0.42139E-01   288   0.399E-01    0.725E+00
RMM:   6    -0.287819908107E+03    0.51474E+01   -0.92234E+00   376   0.167E+00    0.397E+00
RMM:   7    -0.286902447929E+03    0.91746E+00   -0.24434E+00   305   0.815E-01    0.314E+00
RMM:   8    -0.285875939840E+03    0.10265E+01   -0.12965E+00   274   0.709E-01    0.194E+00
RMM:   9    -0.285622841622E+03    0.25310E+00   -0.70830E-01   260   0.564E-01    0.121E+00
RMM:  10    -0.285628481612E+03   -0.56400E-02   -0.33719E-01   258   0.418E-01    0.889E-01
RMM:  11    -0.285617877799E+03    0.10604E-01   -0.20322E-01   258   0.346E-01    0.544E-01
RMM:  12    -0.285640146814E+03   -0.22269E-01   -0.13113E-01   258   0.289E-01    0.368E-01
RMM:  13    -0.285647946437E+03   -0.77996E-02   -0.54958E-02   258   0.193E-01    0.251E-01
RMM:  14    -0.285656872852E+03   -0.89264E-02   -0.29643E-02   258   0.144E-01    0.192E-01
RMM:  15    -0.285661696545E+03   -0.48237E-02   -0.19644E-02   248   0.117E-01
   1393 T=   736. E= -.27319445E+03 F= -.28566170E+03 E0= -.28565419E+03  EK= 0.12467E+02 SP= 0.00E+00 SK= 0.00E+00
   1394 T=   779. E= -.21821178E+03 F= -.23139749E+03 E0= -.23139749E+03  EK= 0.13186E+02 SP= 0.00E+00 SK= 0.00E+00
   1395 T=   776. E= -.21829373E+03 F= -.23144000E+03 E0= -.23144000E+03  EK= 0.13146E+02 SP= 0.00E+00 SK= 0.00E+00
   1396 T=   773. E= -.21835022E+03 F= -.23143957E+03 E0= -.23143957E+03  EK= 0.13089E+02 SP= 0.00E+00 SK= 0.00E+00
   1397 T=   759. E= -.21859396E+03 F= -.23145354E+03 E0= -.23145354E+03  EK= 0.12860E+02 SP= 0.00E+00 SK= 0.00E+00
   1398 T=   741. E= -.21897075E+03 F= -.23151615E+03 E0= -.23151615E+03  EK= 0.12545E+02 SP= 0.00E+00 SK= 0.00E+00
   1399 T=   722. E= -.21930673E+03 F= -.23153639E+03 E0= -.23153639E+03  EK= 0.12230E+02 SP= 0.00E+00 SK= 0.00E+00
   1400 T=   720. E= -.21936066E+03 F= -.23155567E+03 E0= -.23155567E+03  EK= 0.12195E+02 SP= 0.00E+00 SK= 0.00E+00
   1401 T=   718. E= -.21939811E+03 F= -.23155818E+03 E0= -.23155818E+03  EK= 0.12160E+02 SP= 0.00E+00 SK= 0.00E+00
   1402 T=   712. E= -.21953326E+03 F= -.23159275E+03 E0= -.23159275E+03  EK= 0.12059E+02 SP= 0.00E+00 SK= 0.00E+00
       N       E                     dE             d eps       ncg     rms          rms(c)
RMM:   1    -0.294326654352E+03   -0.86698E+01   -0.10821E+02   129   0.807E+00
RMM:   2    -0.295480106167E+03   -0.11535E+01   -0.10291E+01   129   0.258E+00
RMM:   3    -0.295706794213E+03   -0.22669E+00   -0.21713E+00   129   0.108E+00
RMM:   4    -0.295763671770E+03   -0.56878E-01   -0.55460E-01   265   0.574E-01
RMM:   5    -0.295788049662E+03   -0.24378E-01   -0.24119E-01   278   0.314E-01    0.595E+00
RMM:   6    -0.293238941267E+03    0.25491E+01   -0.50589E+00   367   0.126E+00    0.375E+00
RMM:   7    -0.291804622356E+03    0.14343E+01   -0.15887E+00   306   0.643E-01    0.261E+00
RMM:   8    -0.291115124071E+03    0.68950E+00   -0.10166E+00   275   0.669E-01    0.151E+00
RMM:   9    -0.291061613796E+03    0.53510E-01   -0.52965E-01   259   0.497E-01    0.114E+00
RMM:  10    -0.290992124296E+03    0.69489E-01   -0.25530E-01   258   0.365E-01    0.682E-01
RMM:  11    -0.290988269479E+03    0.38548E-02   -0.11365E-01   258   0.256E-01    0.477E-01
RMM:  12    -0.290998647766E+03   -0.10378E-01   -0.90992E-02   258   0.237E-01    0.315E-01
RMM:  13    -0.291002954158E+03   -0.43064E-02   -0.38246E-02   258   0.155E-01
   1403 T=   682. E= -.27944662E+03 F= -.29100295E+03 E0= -.29100106E+03  EK= 0.11556E+02 SP= 0.00E+00 SK= 0.00E+00
   1404 T=   689. E= -.22320371E+03 F= -.23486931E+03 E0= -.23486931E+03  EK= 0.11666E+02 SP= 0.00E+00 SK= 0.00E+00
   1405 T=   674. E= -.22345769E+03 F= -.23486962E+03 E0= -.23486962E+03  EK= 0.11412E+02 SP= 0.00E+00 SK= 0.00E+00
   1406 T=   658. E= -.22373568E+03 F= -.23488237E+03 E0= -.23488237E+03  EK= 0.11147E+02 SP= 0.00E+00 SK= 0.00E+00
   1407 T=   647. E= -.22393813E+03 F= -.23490029E+03 E0= -.23490029E+03  EK= 0.10962E+02 SP= 0.00E+00 SK= 0.00E+00
   1408 T=   654. E= -.22388827E+03 F= -.23495972E+03 E0= -.23495972E+03  EK= 0.11071E+02 SP= 0.00E+00 SK= 0.00E+00
   1409 T=   652. E= -.22394413E+03 F= -.23497765E+03 E0= -.23497765E+03  EK= 0.11034E+02 SP= 0.00E+00 SK= 0.00E+00
   1410 T=   652. E= -.22395364E+03 F= -.23499180E+03 E0= -.23499180E+03  EK= 0.11038E+02 SP= 0.00E+00 SK= 0.00E+00
   1411 T=   662. E= -.22378203E+03 F= -.23498461E+03 E0= -.23498461E+03  EK= 0.11203E+02 SP= 0.00E+00 SK= 0.00E+00
   1412 T=   666. E= -.22369730E+03 F= -.23497561E+03 E0= -.23497561E+03  EK= 0.11278E+02 SP= 0.00E+00 SK= 0.00E+00
   1413 T=   660. E= -.22379346E+03 F= -.23496831E+03 E0= -.23496831E+03  EK= 0.11175E+02 SP= 0.00E+00 SK= 0.00E+00
   1414 T=   654. E= -.22387539E+03 F= -.23494963E+03 E0= -.23494963E+03  EK= 0.11074E+02 SP= 0.00E+00 SK= 0.00E+00
   1415 T=   666. E= -.22364295E+03 F= -.23491453E+03 E0= -.23491453E+03  EK= 0.11272E+02 SP= 0.00E+00 SK= 0.00E+00
   1416 T=   674. E= -.22349272E+03 F= -.23490005E+03 E0= -.23490005E+03  EK= 0.11407E+02 SP= 0.00E+00 SK= 0.00E+00
   1417 T=   669. E= -.22355175E+03 F= -.23487651E+03 E0= -.23487651E+03  EK= 0.11325E+02 SP= 0.00E+00 SK= 0.00E+00
   1418 T=   679. E= -.22336017E+03 F= -.23485002E+03 E0= -.23485002E+03  EK= 0.11490E+02 SP= 0.00E+00 SK= 0.00E+00
   1419 T=   688. E= -.22317213E+03 F= -.23482931E+03 E0= -.23482931E+03  EK= 0.11657E+02 SP= 0.00E+00 SK= 0.00E+00
   1420 T=   683. E= -.22323818E+03 F= -.23479807E+03 E0= -.23479807E+03  EK= 0.11560E+02 SP= 0.00E+00 SK= 0.00E+00
   1421 T=   670. E= -.22344462E+03 F= -.23478589E+03 E0= -.23478589E+03  EK= 0.11341E+02 SP= 0.00E+00 SK= 0.00E+00
   1422 T=   649. E= -.22376993E+03 F= -.23476143E+03 E0= -.23476143E+03  EK= 0.10991E+02 SP= 0.00E+00 SK= 0.00E+00
   1423 T=   632. E= -.22405940E+03 F= -.23476881E+03 E0= -.23476881E+03  EK= 0.10709E+02 SP= 0.00E+00 SK= 0.00E+00
       N       E                     dE             d eps       ncg     rms          rms(c)
RMM:   1    -0.293022194952E+03   -0.20235E+01   -0.23884E+02   129   0.115E+01
RMM:   2    -0.295612912308E+03   -0.25907E+01   -0.23189E+01   129   0.377E+00
RMM:   3    -0.296153416488E+03   -0.54050E+00   -0.49754E+00   129   0.160E+00
RMM:   4    -0.296287222235E+03   -0.13381E+00   -0.12836E+00   268   0.866E-01
RMM:   5    -0.296347892694E+03   -0.60670E-01   -0.59535E-01   284   0.484E-01    0.890E+00
RMM:   6    -0.290191068399E+03    0.61568E+01   -0.11829E+01   382   0.182E+00    0.472E+00
RMM:   7    -0.288819089202E+03    0.13720E+01   -0.30971E+00   315   0.927E-01    0.380E+00
RMM:   8    -0.287382906334E+03    0.14362E+01   -0.18287E+00   282   0.863E-01    0.235E+00
RMM:   9    -0.287212021348E+03    0.17088E+00   -0.96016E-01   259   0.671E-01    0.168E+00
RMM:  10    -0.287082366732E+03    0.12965E+00   -0.44474E-01   258   0.476E-01    0.102E+00
RMM:  11    -0.287088616200E+03   -0.62495E-02   -0.28532E-01   258   0.398E-01    0.679E-01
RMM:  12    -0.287111179949E+03   -0.22564E-01   -0.14896E-01   258   0.296E-01    0.477E-01
RMM:  13    -0.287119843766E+03   -0.86638E-02   -0.75164E-02   258   0.218E-01    0.326E-01
RMM:  14    -0.287134857099E+03   -0.15013E-01   -0.50662E-02   258   0.188E-01    0.231E-01
RMM:  15    -0.287141136346E+03   -0.62792E-02   -0.23129E-02   253   0.124E-01    0.168E-01
RMM:  16    -0.287145867009E+03   -0.47307E-02   -0.17123E-02   239   0.106E-01
   1424 T=   643. E= -.27625984E+03 F= -.28714587E+03 E0= -.28713832E+03  EK= 0.10886E+02 SP= 0.00E+00 SK= 0.00E+00
   1425 T=   708. E= -.22277332E+03 F= -.23475925E+03 E0= -.23475925E+03  EK= 0.11986E+02 SP= 0.00E+00 SK= 0.00E+00
   1426 T=   703. E= -.22284609E+03 F= -.23475269E+03 E0= -.23475269E+03  EK= 0.11907E+02 SP= 0.00E+00 SK= 0.00E+00
   1427 T=   707. E= -.22281086E+03 F= -.23478986E+03 E0= -.23478986E+03  EK= 0.11979E+02 SP= 0.00E+00 SK= 0.00E+00
   1428 T=   706. E= -.22286050E+03 F= -.23481401E+03 E0= -.23481401E+03  EK= 0.11954E+02 SP= 0.00E+00 SK= 0.00E+00
   1429 T=   703. E= -.22291605E+03 F= -.23482786E+03 E0= -.23482786E+03  EK= 0.11912E+02 SP= 0.00E+00 SK= 0.00E+00
   1430 T=   703. E= -.22292910E+03 F= -.23483469E+03 E0= -.23483469E+03  EK= 0.11906E+02 SP= 0.00E+00 SK= 0.00E+00
   1431 T=   691. E= -.22315138E+03 F= -.23484893E+03 E0= -.23484893E+03  EK= 0.11698E+02 SP= 0.00E+00 SK= 0.00E+00
   1432 T=   683. E= -.22329620E+03 F= -.23485458E+03 E0= -.23485458E+03  EK= 0.11558E+02 SP= 0.00E+00 SK= 0.00E+00
   1433 T=   685. E= -.22326552E+03 F= -.23486794E+03 E0= -.23486794E+03  EK= 0.11602E+02 SP= 0.00E+00 SK= 0.00E+00
   1434 T=   680. E= -.22337947E+03 F= -.23488960E+03 E0= -.23488960E+03  EK= 0.11510E+02 SP= 0.00E+00 SK= 0.00E+00
   1435 T=   678. E= -.22341563E+03 F= -.23489052E+03 E0= -.23489052E+03  EK= 0.11475E+02 SP= 0.00E+00 SK= 0.00E+00
   1436 T=   677. E= -.22341602E+03 F= -.23488174E+03 E0= -.23488174E+03  EK= 0.11466E+02 SP= 0.00E+00 SK= 0.00E+00
   1437 T=   667. E= -.22357196E+03 F= -.23486465E+03 E0= -.23486465E+03  EK= 0.11293E+02 SP= 0.00E+00 SK= 0.00E+00
   1438 T=   655. E= -.22378704E+03 F= -.23487327E+03 E0= -.23487327E+03  EK= 0.11086E+02 SP= 0.00E+00 SK= 0.00E+00
   1439 T=   655. E= -.22378257E+03 F= -.23487630E+03 E0= -.23487630E+03  EK= 0.11094E+02 SP= 0.00E+00 SK= 0.00E+00
   1440 T=   658. E= -.22375992E+03 F= -.23489661E+03 E0= -.23489661E+03  EK= 0.11137E+02 SP= 0.00E+00 SK= 0.00E+00
   1441 T=   659. E= -.22373474E+03 F= -.23489319E+03 E0= -.23489319E+03  EK= 0.11158E+02 SP= 0.00E+00 SK= 0.00E+00
   1442 T=   651. E= -.22388932E+03 F= -.23490445E+03 E0= -.23490445E+03  EK= 0.11015E+02 SP= 0.00E+00 SK= 0.00E+00
   1443 T=   654. E= -.22381397E+03 F= -.23488545E+03 E0= -.23488545E+03  EK= 0.11071E+02 SP= 0.00E+00 SK= 0.00E+00
       N       E                     dE             d eps       ncg     rms          rms(c)
RMM:   1    -0.302705194326E+03   -0.15564E+02   -0.22382E+02   129   0.111E+01
RMM:   2    -0.305330436719E+03   -0.26252E+01   -0.22600E+01   129   0.376E+00
RMM:   3    -0.305832564756E+03   -0.50213E+00   -0.47279E+00   129   0.158E+00
RMM:   4    -0.305955438029E+03   -0.12287E+00   -0.11835E+00   266   0.845E-01
RMM:   5    -0.306011067341E+03   -0.55629E-01   -0.54921E-01   283   0.466E-01    0.985E+00
RMM:   6    -0.298103135904E+03    0.79079E+01   -0.10058E+01   360   0.174E+00    0.467E+00
RMM:   7    -0.297680331187E+03    0.42280E+00   -0.38162E+00   321   0.106E+00    0.380E+00
RMM:   8    -0.296203046596E+03    0.14773E+01   -0.13635E+00   272   0.733E-01    0.201E+00
RMM:   9    -0.296079870678E+03    0.12318E+00   -0.63134E-01   259   0.552E-01    0.142E+00
RMM:  10    -0.296105199028E+03   -0.25328E-01   -0.33480E-01   258   0.420E-01    0.135E+00
RMM:  11    -0.296097484965E+03    0.77141E-02   -0.22412E-01   258   0.349E-01    0.772E-01
RMM:  12    -0.296105198653E+03   -0.77137E-02   -0.13904E-01   258   0.291E-01    0.496E-01
RMM:  13    -0.296122053076E+03   -0.16854E-01   -0.10271E-01   258   0.250E-01    0.379E-01
RMM:  14    -0.296147594648E+03   -0.25542E-01   -0.10319E-01   258   0.249E-01    0.308E-01
RMM:  15    -0.296151137815E+03   -0.35432E-02   -0.21931E-02   251   0.120E-01
   1444 T=   716. E= -.28403421E+03 F= -.29615114E+03 E0= -.29613578E+03  EK= 0.12117E+02 SP= 0.00E+00 SK= 0.00E+00
   1445 T=   804. E= -.22128844E+03 F= -.23490792E+03 E0= -.23490792E+03  EK= 0.13619E+02 SP= 0.00E+00 SK= 0.00E+00
   1446 T=   789. E= -.22155865E+03 F= -.23492305E+03 E0= -.23492305E+03  EK= 0.13364E+02 SP= 0.00E+00 SK= 0.00E+00
   1447 T=   785. E= -.22162753E+03 F= -.23492800E+03 E0= -.23492800E+03  EK= 0.13300E+02 SP= 0.00E+00 SK= 0.00E+00
   1448 T=   787. E= -.22160548E+03 F= -.23493137E+03 E0= -.23493137E+03  EK= 0.13326E+02 SP= 0.00E+00 SK= 0.00E+00
   1449 T=   778. E= -.22175932E+03 F= -.23493372E+03 E0= -.23493372E+03  EK= 0.13174E+02 SP= 0.00E+00 SK= 0.00E+00
   1450 T=   765. E= -.22200166E+03 F= -.23495171E+03 E0= -.23495171E+03  EK= 0.12950E+02 SP= 0.00E+00 SK= 0.00E+00
   1451 T=   737. E= -.22248460E+03 F= -.23495962E+03 E0= -.23495962E+03  EK= 0.12475E+02 SP= 0.00E+00 SK= 0.00E+00
   1452 T=   724. E= -.22271181E+03 F= -.23497098E+03 E0= -.23497098E+03  EK= 0.12259E+02 SP= 0.00E+00 SK= 0.00E+00
   1453 T=   729. E= -.22265119E+03 F= -.23498752E+03 E0= -.23498752E+03  EK= 0.12336E+02 SP= 0.00E+00 SK= 0.00E+00
   1454 T=   738. E= -.22250289E+03 F= -.23500006E+03 E0= -.23500006E+03  EK= 0.12497E+02 SP= 0.00E+00 SK= 0.00E+00
   1455 T=   764. E= -.22208421E+03 F= -.23501621E+03 E0= -.23501621E+03  EK= 0.12932E+02 SP= 0.00E+00 SK= 0.00E+00
   1456 T=   773. E= -.22193186E+03 F= -.23502706E+03 E0= -.23502706E+03  EK= 0.13095E+02 SP= 0.00E+00 SK= 0.00E+00
   1457 T=   765. E= -.22206006E+03 F= -.23502204E+03 E0= -.23502204E+03  EK= 0.12962E+02 SP= 0.00E+00 SK= 0.00E+00
   1458 T=   768. E= -.22201619E+03 F= -.23501242E+03 E0= -.23501242E+03  EK= 0.12996E+02 SP= 0.00E+00 SK= 0.00E+00
   1459 T=   773. E= -.22195140E+03 F= -.23504546E+03 E0= -.23504546E+03  EK= 0.13094E+02 SP= 0.00E+00 SK= 0.00E+00
   1460 T=   771. E= -.22201770E+03 F= -.23507233E+03 E0= -.23507233E+03  EK= 0.13055E+02 SP= 0.00E+00 SK= 0.00E+00
   1461 T=   767. E= -.22211871E+03 F= -.23510892E+03 E0= -.23510892E+03  EK= 0.12990E+02 SP= 0.00E+00 SK= 0.00E+00
   1462 T=   769. E= -.22211533E+03 F= -.23513531E+03 E0= -.23513531E+03  EK= 0.13020E+02 SP= 0.00E+00 SK= 0.00E+00
   1463 T=   767. E= -.22213940E+03 F= -.23513229E+03 E0= -.23513229E+03  EK= 0.12993E+02 SP= 0.00E+00 SK= 0.00E+00
   1464 T=   750. E= -.22242181E+03 F= -.23512895E+03 E0= -.23512895E+03  EK= 0.12707E+02 SP= 0.00E+00 SK= 0.00E+00
   1465 T=   718. E= -.22295880E+03 F= -.23512038E+03 E0= -.23512038E+03  EK= 0.12162E+02 SP= 0.00E+00 SK= 0.00E+00
   1466 T=   704. E= -.22318837E+03 F= -.23510892E+03 E0= -.23510892E+03  EK= 0.11921E+02 SP= 0.00E+00 SK= 0.00E+00
   1467 T=   706. E= -.22315395E+03 F= -.23510330E+03 E0= -.23510330E+03  EK= 0.11949E+02 SP= 0.00E+00 SK= 0.00E+00
   1468 T=   691. E= -.22339141E+03 F= -.23509452E+03 E0= -.23509452E+03  EK= 0.11703E+02 SP= 0.00E+00 SK= 0.00E+00
   1469 T=   681. E= -.22358300E+03 F= -.23510834E+03 E0= -.23510834E+03  EK= 0.11525E+02 SP= 0.00E+00 SK= 0.00E+00
   1470 T=   673. E= -.22373585E+03 F= -.23512442E+03 E0= -.23512442E+03  EK= 0.11389E+02 SP= 0.00E+00 SK= 0.00E+00
   1471 T=   662. E= -.22396030E+03 F= -.23517101E+03 E0= -.23517101E+03  EK= 0.11211E+02 SP= 0.00E+00 SK= 0.00E+00
   1472 T=   666. E= -.22390945E+03 F= -.23518725E+03 E0= -.23518725E+03  EK= 0.11278E+02 SP= 0.00E+00 SK= 0.00E+00
   1473 T=   677. E= -.22374405E+03 F= -.23521007E+03 E0= -.23521007E+03  EK= 0.11466E+02 SP= 0.00E+00 SK= 0.00E+00
   1474 T=   687. E= -.22356775E+03 F= -.23520170E+03 E0= -.23520170E+03  EK= 0.11634E+02 SP= 0.00E+00 SK= 0.00E+00
   1475 T=   699. E= -.22338719E+03 F= -.23522533E+03 E0= -.23522533E+03  EK= 0.11838E+02 SP= 0.00E+00 SK= 0.00E+00
   1476 T=   695. E= -.22346265E+03 F= -.23523174E+03 E0= -.23523174E+03  EK= 0.11769E+02 SP= 0.00E+00 SK= 0.00E+00
   1477 T=   685. E= -.22361938E+03 F= -.23522217E+03 E0= -.23522217E+03  EK= 0.11603E+02 SP= 0.00E+00 SK= 0.00E+00
   1478 T=   680. E= -.22368177E+03 F= -.23519846E+03 E0= -.23519846E+03  EK= 0.11517E+02 SP= 0.00E+00 SK= 0.00E+00
   1479 T=   677. E= -.22373341E+03 F= -.23520001E+03 E0= -.23520001E+03  EK= 0.11467E+02 SP= 0.00E+00 SK= 0.00E+00
   1480 T=   671. E= -.22382207E+03 F= -.23518718E+03 E0= -.23518718E+03  EK= 0.11365E+02 SP= 0.00E+00 SK= 0.00E+00
   1481 T=   670. E= -.22385434E+03 F= -.23520306E+03 E0= -.23520306E+03  EK= 0.11349E+02 SP= 0.00E+00 SK= 0.00E+00
   1482 T=   676. E= -.22373633E+03 F= -.23518388E+03 E0= -.23518388E+03  EK= 0.11448E+02 SP= 0.00E+00 SK= 0.00E+00
   1483 T=   672. E= -.22377668E+03 F= -.23516240E+03 E0= -.23516240E+03  EK= 0.11386E+02 SP= 0.00E+00 SK= 0.00E+00
   1484 T=   661. E= -.22395470E+03 F= -.23515346E+03 E0= -.23515346E+03  EK= 0.11199E+02 SP= 0.00E+00 SK= 0.00E+00
   1485 T=   660. E= -.22394771E+03 F= -.23512319E+03 E0= -.23512319E+03  EK= 0.11175E+02 SP= 0.00E+00 SK= 0.00E+00
   1486 T=   649. E= -.22410005E+03 F= -.23509792E+03 E0= -.23509792E+03  EK= 0.10998E+02 SP= 0.00E+00 SK= 0.00E+00
   1487 T=   638. E= -.22429444E+03 F= -.23509237E+03 E0= -.23509237E+03  EK= 0.10798E+02 SP= 0.00E+00 SK= 0.00E+00
   1488 T=   633. E= -.22435785E+03 F= -.23506939E+03 E0= -.23506939E+03  EK= 0.10712E+02 SP= 0.00E+00 SK= 0.00E+00
   1489 T=   624. E= -.22447051E+03 F= -.23503616E+03 E0= -.23503616E+03  EK= 0.10566E+02 SP= 0.00E+00 SK= 0.00E+00
   1490 T=   620. E= -.22454502E+03 F= -.23503767E+03 E0= -.23503767E+03  EK= 0.10493E+02 SP= 0.00E+00 SK= 0.00E+00
   1491 T=   626. E= -.22442938E+03 F= -.23503400E+03 E0= -.23503400E+03  EK= 0.10605E+02 SP= 0.00E+00 SK= 0.00E+00
   1492 T=   639. E= -.22420995E+03 F= -.23503407E+03 E0= -.23503407E+03  EK= 0.10824E+02 SP= 0.00E+00 SK= 0.00E+00
   1493 T=   655. E= -.22394888E+03 F= -.23503882E+03 E0= -.23503882E+03  EK= 0.11090E+02 SP= 0.00E+00 SK= 0.00E+00
   1494 T=   664. E= -.22382596E+03 F= -.23506610E+03 E0= -.23506610E+03  EK= 0.11240E+02 SP= 0.00E+00 SK= 0.00E+00
   1495 T=   670. E= -.22374311E+03 F= -.23508199E+03 E0= -.23508199E+03  EK= 0.11339E+02 SP= 0.00E+00 SK= 0.00E+00
   1496 T=   665. E= -.22384722E+03 F= -.23511477E+03 E0= -.23511477E+03  EK= 0.11268E+02 SP= 0.00E+00 SK= 0.00E+00
   1497 T=   670. E= -.22379157E+03 F= -.23514101E+03 E0= -.23514101E+03  EK= 0.11349E+02 SP= 0.00E+00 SK= 0.00E+00
   1498 T=   691. E= -.22345142E+03 F= -.23515945E+03 E0= -.23515945E+03  EK= 0.11708E+02 SP= 0.00E+00 SK= 0.00E+00
   1499 T=   693. E= -.22347119E+03 F= -.23520384E+03 E0= -.23520384E+03  EK= 0.11733E+02 SP= 0.00E+00 SK= 0.00E+00
   1500 T=   687. E= -.22359776E+03 F= -.23522285E+03 E0= -.23522285E+03  EK= 0.11625E+02 SP= 0.00E+00 SK= 0.00E+00
   1501 T=   698. E= -.22336066E+03 F= -.23518701E+03 E0= -.23518701E+03  EK= 0.11826E+02 SP= 0.00E+00 SK= 0.00E+00
   1502 T=   708. E= -.22321222E+03 F= -.23520499E+03 E0= -.23520499E+03  EK= 0.11993E+02 SP= 0.00E+00 SK= 0.00E+00
   1503 T=   705. E= -.22326332E+03 F= -.23520916E+03 E0= -.23520916E+03  EK= 0.11946E+02 SP= 0.00E+00 SK= 0.00E+00
   1504 T=   685. E= -.22359295E+03 F= -.23519827E+03 E0= -.23519827E+03  EK= 0.11605E+02 SP= 0.00E+00 SK= 0.00E+00
   1505 T=   671. E= -.22384091E+03 F= -.23520567E+03 E0= -.23520567E+03  EK= 0.11365E+02 SP= 0.00E+00 SK= 0.00E+00
   1506 T=   664. E= -.22394779E+03 F= -.23519468E+03 E0= -.23519468E+03  EK= 0.11247E+02 SP= 0.00E+00 SK= 0.00E+00
   1507 T=   661. E= -.22400870E+03 F= -.23520412E+03 E0= -.23520412E+03  EK= 0.11195E+02 SP= 0.00E+00 SK= 0.00E+00
   1508 T=   670. E= -.22387907E+03 F= -.23522600E+03 E0= -.23522600E+03  EK= 0.11347E+02 SP= 0.00E+00 SK= 0.00E+00
   1509 T=   666. E= -.22393147E+03 F= -.23521617E+03 E0= -.23521617E+03  EK= 0.11285E+02 SP= 0.00E+00 SK= 0.00E+00
   1510 T=   652. E= -.22418129E+03 F= -.23522627E+03 E0= -.23522627E+03  EK= 0.11045E+02 SP= 0.00E+00 SK= 0.00E+00
   1511 T=   646. E= -.22430316E+03 F= -.23523467E+03 E0= -.23523467E+03  EK= 0.10932E+02 SP= 0.00E+00 SK= 0.00E+00
   1512 T=   646. E= -.22430568E+03 F= -.23524946E+03 E0= -.23524946E+03  EK= 0.10944E+02 SP= 0.00E+00 SK= 0.00E+00
   1513 T=   648. E= -.22427354E+03 F= -.23525428E+03 E0= -.23525428E+03  EK= 0.10981E+02 SP= 0.00E+00 SK= 0.00E+00
   1514 T=   650. E= -.22426432E+03 F= -.23526800E+03 E0= -.23526800E+03  EK= 0.11004E+02 SP= 0.00E+00 SK= 0.00E+00
   1515 T=   651. E= -.22424015E+03 F= -.23526394E+03 E0= -.23526394E+03  EK= 0.11024E+02 SP= 0.00E+00 SK= 0.00E+00
   1516 T=   646. E= -.22431411E+03 F= -.23525597E+03 E0= -.23525597E+03  EK= 0.10942E+02 SP= 0.00E+00 SK= 0.00E+00
   1517 T=   644. E= -.22433610E+03 F= -.23523962E+03 E0= -.23523962E+03  EK= 0.10904E+02 SP= 0.00E+00 SK= 0.00E+00
   1518 T=   647. E= -.22424873E+03 F= -.23520799E+03 E0= -.23520799E+03  EK= 0.10959E+02 SP= 0.00E+00 SK= 0.00E+00
   1519 T=   634. E= -.22441518E+03 F= -.23514444E+03 E0= -.23514444E+03  EK= 0.10729E+02 SP= 0.00E+00 SK= 0.00E+00
   1520 T=   610. E= -.22478088E+03 F= -.23510616E+03 E0= -.23510616E+03  EK= 0.10325E+02 SP= 0.00E+00 SK= 0.00E+00
   1521 T=   588. E= -.22510335E+03 F= -.23506181E+03 E0= -.23506181E+03  EK= 0.99585E+01 SP= 0.00E+00 SK= 0.00E+00
   1522 T=   577. E= -.22527475E+03 F= -.23504416E+03 E0= -.23504416E+03  EK= 0.97694E+01 SP= 0.00E+00 SK= 0.00E+00
   1523 T=   568. E= -.22539658E+03 F= -.23500935E+03 E0= -.23500935E+03  EK= 0.96128E+01 SP= 0.00E+00 SK= 0.00E+00
   1524 T=   554. E= -.22560822E+03 F= -.23499672E+03 E0= -.23499672E+03  EK= 0.93885E+01 SP= 0.00E+00 SK= 0.00E+00
       N       E                     dE             d eps       ncg     rms          rms(c)
RMM:   1    -0.287325846817E+03    0.88217E+01   -0.69761E+02   129   0.170E+01
RMM:   2    -0.299356764597E+03   -0.12031E+02   -0.98204E+01   129   0.686E+00
RMM:   3    -0.302242169884E+03   -0.28854E+01   -0.22685E+01   129   0.337E+00
RMM:   4    -0.303053041443E+03   -0.81087E+00   -0.73544E+00   283   0.184E+00
RMM:   5    -0.303320891380E+03   -0.26785E+00   -0.24295E+00   300   0.935E-01    0.126E+01
RMM:   6    -0.296040547831E+03    0.72803E+01   -0.14835E+01   311   0.229E+00    0.710E+00
RMM:   7    -0.295600806905E+03    0.43974E+00   -0.59072E+00   275   0.151E+00    0.528E+00
RMM:   8    -0.294110182221E+03    0.14906E+01   -0.41115E+00   258   0.131E+00    0.338E+00
RMM:   9    -0.294127916730E+03   -0.17735E-01   -0.16767E+00   259   0.878E-01    0.260E+00
RMM:  10    -0.294243016484E+03   -0.11510E+00   -0.70427E-01   258   0.599E-01    0.205E+00
RMM:  11    -0.294359182186E+03   -0.11617E+00   -0.61546E-01   258   0.562E-01    0.162E+00
RMM:  12    -0.294395588089E+03   -0.36406E-01   -0.38082E-01   258   0.450E-01    0.106E+00
RMM:  13    -0.294440751491E+03   -0.45163E-01   -0.26077E-01   258   0.387E-01    0.759E-01
RMM:  14    -0.294471221060E+03   -0.30470E-01   -0.98713E-02   258   0.241E-01    0.590E-01
RMM:  15    -0.294483176262E+03   -0.11955E-01   -0.66390E-02   258   0.206E-01    0.402E-01
RMM:  16    -0.294499643627E+03   -0.16467E-01   -0.47478E-02   257   0.174E-01    0.377E-01
RMM:  17    -0.294508087665E+03   -0.84440E-02   -0.33257E-02   255   0.147E-01    0.257E-01
RMM:  18    -0.294513540528E+03   -0.54529E-02   -0.18022E-02   237   0.106E-01    0.204E-01
RMM:  19    -0.294516592071E+03   -0.30515E-02   -0.91878E-03   186   0.778E-02
   1525 T=   554. E= -.28513263E+03 F= -.29451659E+03 E0= -.29449258E+03  EK= 0.93840E+01 SP= 0.00E+00 SK= 0.00E+00
   1526 T=   602. E= -.22474933E+03 F= -.23493862E+03 E0= -.23493862E+03  EK= 0.10189E+02 SP= 0.00E+00 SK= 0.00E+00
   1527 T=   612. E= -.22455244E+03 F= -.23491254E+03 E0= -.23491254E+03  EK= 0.10360E+02 SP= 0.00E+00 SK= 0.00E+00
   1528 T=   623. E= -.22432244E+03 F= -.23487834E+03 E0= -.23487834E+03  EK= 0.10556E+02 SP= 0.00E+00 SK= 0.00E+00
   1529 T=   628. E= -.22425749E+03 F= -.23489829E+03 E0= -.23489829E+03  EK= 0.10641E+02 SP= 0.00E+00 SK= 0.00E+00
   1530 T=   624. E= -.22433764E+03 F= -.23490419E+03 E0= -.23490419E+03  EK= 0.10567E+02 SP= 0.00E+00 SK= 0.00E+00
   1531 T=   623. E= -.22436399E+03 F= -.23490847E+03 E0= -.23490847E+03  EK= 0.10544E+02 SP= 0.00E+00 SK= 0.00E+00
   1532 T=   628. E= -.22427890E+03 F= -.23491726E+03 E0= -.23491726E+03  EK= 0.10638E+02 SP= 0.00E+00 SK= 0.00E+00
   1533 T=   628. E= -.22427774E+03 F= -.23491794E+03 E0= -.23491794E+03  EK= 0.10640E+02 SP= 0.00E+00 SK= 0.00E+00
   1534 T=   629. E= -.22428147E+03 F= -.23493608E+03 E0= -.23493608E+03  EK= 0.10655E+02 SP= 0.00E+00 SK= 0.00E+00
   1535 T=   641. E= -.22413606E+03 F= -.23498991E+03 E0= -.23498991E+03  EK= 0.10854E+02 SP= 0.00E+00 SK= 0.00E+00
   1536 T=   639. E= -.22419168E+03 F= -.23501705E+03 E0= -.23501705E+03  EK= 0.10825E+02 SP= 0.00E+00 SK= 0.00E+00
   1537 T=   630. E= -.22436807E+03 F= -.23503691E+03 E0= -.23503691E+03  EK= 0.10669E+02 SP= 0.00E+00 SK= 0.00E+00
   1538 T=   635. E= -.22428437E+03 F= -.23504013E+03 E0= -.23504013E+03  EK= 0.10756E+02 SP= 0.00E+00 SK= 0.00E+00
   1539 T=   635. E= -.22427681E+03 F= -.23503451E+03 E0= -.23503451E+03  EK= 0.10758E+02 SP= 0.00E+00 SK= 0.00E+00
   1540 T=   630. E= -.22438460E+03 F= -.23504750E+03 E0= -.23504750E+03  EK= 0.10663E+02 SP= 0.00E+00 SK= 0.00E+00
   1541 T=   626. E= -.22446833E+03 F= -.23507252E+03 E0= -.23507252E+03  EK= 0.10604E+02 SP= 0.00E+00 SK= 0.00E+00
   1542 T=   629. E= -.22444229E+03 F= -.23508685E+03 E0= -.23508685E+03  EK= 0.10645E+02 SP= 0.00E+00 SK= 0.00E+00
   1543 T=   631. E= -.22442146E+03 F= -.23510170E+03 E0= -.23510170E+03  EK= 0.10680E+02 SP= 0.00E+00 SK= 0.00E+00
   1544 T=   621. E= -.22459805E+03 F= -.23511472E+03 E0= -.23511472E+03  EK= 0.10517E+02 SP= 0.00E+00 SK= 0.00E+00
   1545 T=   610. E= -.22479237E+03 F= -.23511379E+03 E0= -.23511379E+03  EK= 0.10321E+02 SP= 0.00E+00 SK= 0.00E+00
   1546 T=   587. E= -.22516486E+03 F= -.23510393E+03 E0= -.23510393E+03  EK= 0.99391E+01 SP= 0.00E+00 SK= 0.00E+00
   1547 T=   563. E= -.22555903E+03 F= -.23509091E+03 E0= -.23509091E+03  EK= 0.95319E+01 SP= 0.00E+00 SK= 0.00E+00
   1548 T=   551. E= -.22575894E+03 F= -.23508801E+03 E0= -.23508801E+03  EK= 0.93291E+01 SP= 0.00E+00 SK= 0.00E+00
   1549 T=   545. E= -.22584311E+03 F= -.23507582E+03 E0= -.23507582E+03  EK= 0.92327E+01 SP= 0.00E+00 SK= 0.00E+00
   1550 T=   542. E= -.22591431E+03 F= -.23508753E+03 E0= -.23508753E+03  EK= 0.91732E+01 SP= 0.00E+00 SK= 0.00E+00
   1551 T=   543. E= -.22588302E+03 F= -.23507911E+03 E0= -.23507911E+03  EK= 0.91961E+01 SP= 0.00E+00 SK= 0.00E+00
       N       E                     dE             d eps       ncg     rms          rms(c)
RMM:   1    -0.300583292043E+03   -0.60698E+01   -0.32706E+02   129   0.129E+01
RMM:   2    -0.304770862129E+03   -0.41876E+01   -0.36151E+01   129   0.465E+00
RMM:   3    -0.305612409607E+03   -0.84155E+00   -0.76233E+00   129   0.201E+00
RMM:   4    -0.305813884094E+03   -0.20147E+00   -0.19163E+00   265   0.107E+00
RMM:   5    -0.305902193390E+03   -0.88309E-01   -0.86639E-01   280   0.594E-01    0.153E+01
RMM:   6    -0.298183340878E+03    0.77189E+01   -0.16551E+01   380   0.217E+00    0.741E+00
RMM:   7    -0.297403784535E+03    0.77956E+00   -0.66968E+00   328   0.128E+00    0.544E+00
RMM:   8    -0.293469543554E+03    0.39342E+01   -0.26649E+00   282   0.960E-01    0.351E+00
RMM:   9    -0.293056188942E+03    0.41335E+00   -0.83287E-01   258   0.615E-01    0.249E+00
RMM:  10    -0.292874052244E+03    0.18214E+00   -0.71969E-01   258   0.571E-01    0.181E+00
RMM:  11    -0.292756273386E+03    0.11778E+00   -0.41833E-01   258   0.453E-01    0.116E+00
RMM:  12    -0.292837221052E+03   -0.80948E-01   -0.24946E-01   258   0.367E-01    0.111E+00
RMM:  13    -0.292791408192E+03    0.45813E-01   -0.96798E-02   258   0.224E-01    0.631E-01
RMM:  14    -0.292802600066E+03   -0.11192E-01   -0.81301E-02   258   0.212E-01    0.512E-01
RMM:  15    -0.292812144330E+03   -0.95443E-02   -0.55674E-02   258   0.183E-01    0.337E-01
RMM:  16    -0.292820485264E+03   -0.83409E-02   -0.30104E-02   258   0.141E-01    0.248E-01
RMM:  17    -0.292828118662E+03   -0.76334E-02   -0.23724E-02   242   0.121E-01    0.182E-01
RMM:  18    -0.292833972519E+03   -0.58539E-02   -0.17748E-02   228   0.107E-01    0.144E-01
RMM:  19    -0.292837031320E+03   -0.30588E-02   -0.84343E-03   184   0.751E-02
   1552 T=   572. E= -.28315021E+03 F= -.29283703E+03 E0= -.29282160E+03  EK= 0.96868E+01 SP= 0.00E+00 SK= 0.00E+00
   1553 T=   633. E= -.22435651E+03 F= -.23507309E+03 E0= -.23507309E+03  EK= 0.10717E+02 SP= 0.00E+00 SK= 0.00E+00
   1554 T=   622. E= -.22457451E+03 F= -.23510345E+03 E0= -.23510345E+03  EK= 0.10529E+02 SP= 0.00E+00 SK= 0.00E+00
   1555 T=   606. E= -.22484481E+03 F= -.23511303E+03 E0= -.23511303E+03  EK= 0.10268E+02 SP= 0.00E+00 SK= 0.00E+00
   1556 T=   601. E= -.22494672E+03 F= -.23513054E+03 E0= -.23513054E+03  EK= 0.10184E+02 SP= 0.00E+00 SK= 0.00E+00
   1557 T=   600. E= -.22499137E+03 F= -.23515089E+03 E0= -.23515089E+03  EK= 0.10160E+02 SP= 0.00E+00 SK= 0.00E+00
   1558 T=   602. E= -.22496836E+03 F= -.23516957E+03 E0= -.23516957E+03  EK= 0.10201E+02 SP= 0.00E+00 SK= 0.00E+00
   1559 T=   610. E= -.22486225E+03 F= -.23519353E+03 E0= -.23519353E+03  EK= 0.10331E+02 SP= 0.00E+00 SK= 0.00E+00
   1560 T=   609. E= -.22490256E+03 F= -.23521003E+03 E0= -.23521003E+03  EK= 0.10307E+02 SP= 0.00E+00 SK= 0.00E+00
   1561 T=   608. E= -.22492607E+03 F= -.23521686E+03 E0= -.23521686E+03  EK= 0.10291E+02 SP= 0.00E+00 SK= 0.00E+00
   1562 T=   608. E= -.22492709E+03 F= -.23521629E+03 E0= -.23521629E+03  EK= 0.10289E+02 SP= 0.00E+00 SK= 0.00E+00
   1563 T=   605. E= -.22498379E+03 F= -.23522841E+03 E0= -.23522841E+03  EK= 0.10245E+02 SP= 0.00E+00 SK= 0.00E+00
   1564 T=   600. E= -.22506536E+03 F= -.23522752E+03 E0= -.23522752E+03  EK= 0.10162E+02 SP= 0.00E+00 SK= 0.00E+00
   1565 T=   588. E= -.22527324E+03 F= -.23523456E+03 E0= -.23523456E+03  EK= 0.99613E+01 SP= 0.00E+00 SK= 0.00E+00
   1566 T=   588. E= -.22526328E+03 F= -.23522639E+03 E0= -.23522639E+03  EK= 0.99631E+01 SP= 0.00E+00 SK= 0.00E+00
   1567 T=   587. E= -.22527281E+03 F= -.23521487E+03 E0= -.23521487E+03  EK= 0.99421E+01 SP= 0.00E+00 SK= 0.00E+00
   1568 T=   586. E= -.22527100E+03 F= -.23519294E+03 E0= -.23519294E+03  EK= 0.99219E+01 SP= 0.00E+00 SK= 0.00E+00
   1569 T=   582. E= -.22534212E+03 F= -.23518890E+03 E0= -.23518890E+03  EK= 0.98468E+01 SP= 0.00E+00 SK= 0.00E+00
   1570 T=   575. E= -.22543703E+03 F= -.23517252E+03 E0= -.23517252E+03  EK= 0.97355E+01 SP= 0.00E+00 SK= 0.00E+00
   1571 T=   574. E= -.22543962E+03 F= -.23516573E+03 E0= -.23516573E+03  EK= 0.97261E+01 SP= 0.00E+00 SK= 0.00E+00
   1572 T=   575. E= -.22538282E+03 F= -.23512364E+03 E0= -.23512364E+03  EK= 0.97408E+01 SP= 0.00E+00 SK= 0.00E+00
   1573 T=   582. E= -.22524937E+03 F= -.23509936E+03 E0= -.23509936E+03  EK= 0.98500E+01 SP= 0.00E+00 SK= 0.00E+00
       N       E                     dE             d eps       ncg     rms          rms(c)
RMM:   1    -0.305143183358E+03   -0.12309E+02   -0.27838E+02   129   0.121E+01
RMM:   2    -0.308740563909E+03   -0.35974E+01   -0.30042E+01   129   0.432E+00
RMM:   3    -0.309431027213E+03   -0.69046E+00   -0.63039E+00   129   0.185E+00
RMM:   4    -0.309603026040E+03   -0.17200E+00   -0.16148E+00   266   0.981E-01
RMM:   5    -0.309679199398E+03   -0.76173E-01   -0.74407E-01   285   0.526E-01    0.139E+01
RMM:   6    -0.300760041489E+03    0.89192E+01   -0.15644E+01   378   0.210E+00    0.741E+00
RMM:   7    -0.299308555516E+03    0.14515E+01   -0.50098E+00   319   0.117E+00    0.619E+00
RMM:   8    -0.296478578452E+03    0.28300E+01   -0.27188E+00   287   0.948E-01    0.357E+00
RMM:   9    -0.295693768662E+03    0.78481E+00   -0.10954E+00   258   0.706E-01    0.221E+00
RMM:  10    -0.295597375362E+03    0.96393E-01   -0.49950E-01   258   0.471E-01    0.169E+00
RMM:  11    -0.295547484558E+03    0.49891E-01   -0.41506E-01   258   0.441E-01    0.131E+00
RMM:  12    -0.295525597371E+03    0.21887E-01   -0.19906E-01   258   0.323E-01    0.884E-01
RMM:  13    -0.295515077344E+03    0.10520E-01   -0.10636E-01   258   0.238E-01    0.637E-01
RMM:  14    -0.295524843578E+03   -0.97662E-02   -0.71584E-02   258   0.203E-01    0.482E-01
RMM:  15    -0.295534757265E+03   -0.99137E-02   -0.54228E-02   258   0.181E-01    0.411E-01
RMM:  16    -0.295539649753E+03   -0.48925E-02   -0.33744E-02   255   0.143E-01
   1574 T=   606. E= -.28527258E+03 F= -.29553965E+03 E0= -.29552848E+03  EK= 0.10267E+02 SP= 0.00E+00 SK= 0.00E+00
   1575 T=   658. E= -.22687950E+03 F= -.23801651E+03 E0= -.23801651E+03  EK= 0.11137E+02 SP= 0.00E+00 SK= 0.00E+00
   1576 T=   651. E= -.22698153E+03 F= -.23800020E+03 E0= -.23800020E+03  EK= 0.11019E+02 SP= 0.00E+00 SK= 0.00E+00
   1577 T=   658. E= -.22684615E+03 F= -.23798787E+03 E0= -.23798787E+03  EK= 0.11142E+02 SP= 0.00E+00 SK= 0.00E+00
   1578 T=   663. E= -.22675800E+03 F= -.23798141E+03 E0= -.23798141E+03  EK= 0.11223E+02 SP= 0.00E+00 SK= 0.00E+00
   1579 T=   654. E= -.22690663E+03 F= -.23797562E+03 E0= -.23797562E+03  EK= 0.11069E+02 SP= 0.00E+00 SK= 0.00E+00
   1580 T=   640. E= -.22715924E+03 F= -.23800243E+03 E0= -.23800243E+03  EK= 0.10843E+02 SP= 0.00E+00 SK= 0.00E+00
   1581 T=   627. E= -.22743231E+03 F= -.23805291E+03 E0= -.23805291E+03  EK= 0.10621E+02 SP= 0.00E+00 SK= 0.00E+00
   1582 T=   623. E= -.22746743E+03 F= -.23801549E+03 E0= -.23801549E+03  EK= 0.10548E+02 SP= 0.00E+00 SK= 0.00E+00
   1583 T=   618. E= -.22754001E+03 F= -.23800822E+03 E0= -.23800822E+03  EK= 0.10468E+02 SP= 0.00E+00 SK= 0.00E+00
   1584 T=   622. E= -.22747226E+03 F= -.23800113E+03 E0= -.23800113E+03  EK= 0.10529E+02 SP= 0.00E+00 SK= 0.00E+00
   1585 T=   620. E= -.22752954E+03 F= -.23802267E+03 E0= -.23802267E+03  EK= 0.10493E+02 SP= 0.00E+00 SK= 0.00E+00
   1586 T=   603. E= -.22779772E+03 F= -.23801232E+03 E0= -.23801232E+03  EK= 0.10215E+02 SP= 0.00E+00 SK= 0.00E+00
   1587 T=   594. E= -.22794259E+03 F= -.23800152E+03 E0= -.23800152E+03  EK= 0.10059E+02 SP= 0.00E+00 SK= 0.00E+00
   1588 T=   593. E= -.22791886E+03 F= -.23795471E+03 E0= -.23795471E+03  EK= 0.10036E+02 SP= 0.00E+00 SK= 0.00E+00
   1589 T=   594. E= -.22784181E+03 F= -.23790642E+03 E0= -.23790642E+03  EK= 0.10065E+02 SP= 0.00E+00 SK= 0.00E+00
   1590 T=   579. E= -.22807583E+03 F= -.23788687E+03 E0= -.23788687E+03  EK= 0.98110E+01 SP= 0.00E+00 SK= 0.00E+00
   1591 T=   555. E= -.22847847E+03 F= -.23787235E+03 E0= -.23787235E+03  EK= 0.93939E+01 SP= 0.00E+00 SK= 0.00E+00
   1592 T=   546. E= -.22859554E+03 F= -.23783495E+03 E0= -.23783495E+03  EK= 0.92394E+01 SP= 0.00E+00 SK= 0.00E+00
   1593 T=   547. E= -.22856870E+03 F= -.23783339E+03 E0= -.23783339E+03  EK= 0.92647E+01 SP= 0.00E+00 SK= 0.00E+00
   1594 T=   545. E= -.22859405E+03 F= -.23782976E+03 E0= -.23782976E+03  EK= 0.92357E+01 SP= 0.00E+00 SK= 0.00E+00
   1595 T=   533. E= -.22879115E+03 F= -.23781155E+03 E0= -.23781155E+03  EK= 0.90204E+01 SP= 0.00E+00 SK= 0.00E+00
   1596 T=   529. E= -.22885630E+03 F= -.23781230E+03 E0= -.23781230E+03  EK= 0.89560E+01 SP= 0.00E+00 SK= 0.00E+00
   1597 T=   531. E= -.22884230E+03 F= -.23783341E+03 E0= -.23783341E+03  EK= 0.89911E+01 SP= 0.00E+00 SK= 0.00E+00
   1598 T=   537. E= -.22876453E+03 F= -.23785795E+03 E0= -.23785795E+03  EK= 0.90934E+01 SP= 0.00E+00 SK= 0.00E+00
   1599 T=   557. E= -.22845643E+03 F= -.23789366E+03 E0= -.23789366E+03  EK= 0.94372E+01 SP= 0.00E+00 SK= 0.00E+00
   1600 T=   560. E= -.22846506E+03 F= -.23793937E+03 E0= -.23793937E+03  EK= 0.94743E+01 SP= 0.00E+00 SK= 0.00E+00
   1601 T=   553. E= -.22859932E+03 F= -.23797169E+03 E0= -.23797169E+03  EK= 0.93724E+01 SP= 0.00E+00 SK= 0.00E+00
   1602 T=   546. E= -.22878110E+03 F= -.23802068E+03 E0= -.23802068E+03  EK= 0.92396E+01 SP= 0.00E+00 SK= 0.00E+00
   1603 T=   540. E= -.22893160E+03 F= -.23807996E+03 E0= -.23807996E+03  EK= 0.91484E+01 SP= 0.00E+00 SK= 0.00E+00
   1604 T=   551. E= -.22879235E+03 F= -.23812315E+03 E0= -.23812315E+03  EK= 0.93308E+01 SP= 0.00E+00 SK= 0.00E+00
   1605 T=   572. E= -.22845930E+03 F= -.23814559E+03 E0= -.23814559E+03  EK= 0.96863E+01 SP= 0.00E+00 SK= 0.00E+00
   1606 T=   595. E= -.22813771E+03 F= -.23820774E+03 E0= -.23820774E+03  EK= 0.10070E+02 SP= 0.00E+00 SK= 0.00E+00
   1607 T=   596. E= -.22813861E+03 F= -.23823331E+03 E0= -.23823331E+03  EK= 0.10095E+02 SP= 0.00E+00 SK= 0.00E+00
   1608 T=   591. E= -.22823018E+03 F= -.23823885E+03 E0= -.23823885E+03  EK= 0.10009E+02 SP= 0.00E+00 SK= 0.00E+00
   1609 T=   596. E= -.22817101E+03 F= -.23825481E+03 E0= -.23825481E+03  EK= 0.10084E+02 SP= 0.00E+00 SK= 0.00E+00
   1610 T=   600. E= -.22815154E+03 F= -.23830997E+03 E0= -.23830997E+03  EK= 0.10158E+02 SP= 0.00E+00 SK= 0.00E+00
   1611 T=   602. E= -.22818802E+03 F= -.23837525E+03 E0= -.23837525E+03  EK= 0.10187E+02 SP= 0.00E+00 SK= 0.00E+00
   1612 T=   594. E= -.22831106E+03 F= -.23837595E+03 E0= -.23837595E+03  EK= 0.10065E+02 SP= 0.00E+00 SK= 0.00E+00
   1613 T=   590. E= -.22837133E+03 F= -.23836797E+03 E0= -.23836797E+03  EK= 0.99966E+01 SP= 0.00E+00 SK= 0.00E+00
   1614 T=   587. E= -.22840035E+03 F= -.23834361E+03 E0= -.23834361E+03  EK= 0.99433E+01 SP= 0.00E+00 SK= 0.00E+00
   1615 T=   576. E= -.22858090E+03 F= -.23833540E+03 E0= -.23833540E+03  EK= 0.97545E+01 SP= 0.00E+00 SK= 0.00E+00
   1616 T=   573. E= -.22861616E+03 F= -.23832538E+03 E0= -.23832538E+03  EK= 0.97092E+01 SP= 0.00E+00 SK= 0.00E+00
   1617 T=   563. E= -.22883235E+03 F= -.23836254E+03 E0= -.23836254E+03  EK= 0.95302E+01 SP= 0.00E+00 SK= 0.00E+00
   1618 T=   543. E= -.22913327E+03 F= -.23832280E+03 E0= -.23832280E+03  EK= 0.91895E+01 SP= 0.00E+00 SK= 0.00E+00
   1619 T=   541. E= -.22915302E+03 F= -.23831693E+03 E0= -.23831693E+03  EK= 0.91639E+01 SP= 0.00E+00 SK= 0.00E+00
   1620 T=   545. E= -.22905240E+03 F= -.23828189E+03 E0= -.23828189E+03  EK= 0.92295E+01 SP= 0.00E+00 SK= 0.00E+00
   1621 T=   546. E= -.22902672E+03 F= -.23827905E+03 E0= -.23827905E+03  EK= 0.92523E+01 SP= 0.00E+00 SK= 0.00E+00
   1622 T=   554. E= -.22889118E+03 F= -.23827927E+03 E0= -.23827927E+03  EK= 0.93881E+01 SP= 0.00E+00 SK= 0.00E+00
   1623 T=   563. E= -.22875525E+03 F= -.23828119E+03 E0= -.23828119E+03  EK= 0.95259E+01 SP= 0.00E+00 SK= 0.00E+00
   1624 T=   559. E= -.22883713E+03 F= -.23829518E+03 E0= -.23829518E+03  EK= 0.94581E+01 SP= 0.00E+00 SK= 0.00E+00
   1625 T=   552. E= -.22897109E+03 F= -.23832549E+03 E0= -.23832549E+03  EK= 0.93544E+01 SP= 0.00E+00 SK= 0.00E+00
   1626 T=   563. E= -.22879713E+03 F= -.23832441E+03 E0= -.23832441E+03  EK= 0.95273E+01 SP= 0.00E+00 SK= 0.00E+00
   1627 T=   571. E= -.22865490E+03 F= -.23832272E+03 E0= -.23832272E+03  EK= 0.96678E+01 SP= 0.00E+00 SK= 0.00E+00
   1628 T=   569. E= -.22869648E+03 F= -.23832618E+03 E0= -.23832618E+03  EK= 0.96297E+01 SP= 0.00E+00 SK= 0.00E+00
   1629 T=   574. E= -.22857138E+03 F= -.23829852E+03 E0= -.23829852E+03  EK= 0.97271E+01 SP= 0.00E+00 SK= 0.00E+00
   1630 T=   581. E= -.22848378E+03 F= -.23832008E+03 E0= -.23832008E+03  EK= 0.98363E+01 SP= 0.00E+00 SK= 0.00E+00
   1631 T=   584. E= -.22845740E+03 F= -.23834454E+03 E0= -.23834454E+03  EK= 0.98871E+01 SP= 0.00E+00 SK= 0.00E+00
   1632 T=   585. E= -.22848346E+03 F= -.23838567E+03 E0= -.23838567E+03  EK= 0.99022E+01 SP= 0.00E+00 SK= 0.00E+00
   1633 T=   599. E= -.22826333E+03 F= -.23839970E+03 E0= -.23839970E+03  EK= 0.10136E+02 SP= 0.00E+00 SK= 0.00E+00
   1634 T=   612. E= -.22805536E+03 F= -.23841627E+03 E0= -.23841627E+03  EK= 0.10361E+02 SP= 0.00E+00 SK= 0.00E+00
   1635 T=   608. E= -.22813822E+03 F= -.23843298E+03 E0= -.23843298E+03  EK= 0.10295E+02 SP= 0.00E+00 SK= 0.00E+00
   1636 T=   604. E= -.22822665E+03 F= -.23844643E+03 E0= -.23844643E+03  EK= 0.10220E+02 SP= 0.00E+00 SK= 0.00E+00
   1637 T=   594. E= -.22833697E+03 F= -.23840005E+03 E0= -.23840005E+03  EK= 0.10063E+02 SP= 0.00E+00 SK= 0.00E+00
   1638 T=   597. E= -.22832924E+03 F= -.23843895E+03 E0= -.23843895E+03  EK= 0.10110E+02 SP= 0.00E+00 SK= 0.00E+00
   1639 T=   596. E= -.22834189E+03 F= -.23842928E+03 E0= -.23842928E+03  EK= 0.10087E+02 SP= 0.00E+00 SK= 0.00E+00
   1640 T=   599. E= -.22830698E+03 F= -.23844709E+03 E0= -.23844709E+03  EK= 0.10140E+02 SP= 0.00E+00 SK= 0.00E+00
   1641 T=   614. E= -.22805768E+03 F= -.23844727E+03 E0= -.23844727E+03  EK= 0.10390E+02 SP= 0.00E+00 SK= 0.00E+00
   1642 T=   614. E= -.22804641E+03 F= -.23844209E+03 E0= -.23844209E+03  EK= 0.10396E+02 SP= 0.00E+00 SK= 0.00E+00
   1643 T=   611. E= -.22806998E+03 F= -.23842055E+03 E0= -.23842055E+03  EK= 0.10351E+02 SP= 0.00E+00 SK= 0.00E+00
   1644 T=   619. E= -.22790258E+03 F= -.23838847E+03 E0= -.23838847E+03  EK= 0.10486E+02 SP= 0.00E+00 SK= 0.00E+00
   1645 T=   624. E= -.22784083E+03 F= -.23841216E+03 E0= -.23841216E+03  EK= 0.10571E+02 SP= 0.00E+00 SK= 0.00E+00
   1646 T=   629. E= -.22775233E+03 F= -.23840539E+03 E0= -.23840539E+03  EK= 0.10653E+02 SP= 0.00E+00 SK= 0.00E+00
   1647 T=   623. E= -.22785801E+03 F= -.23840127E+03 E0= -.23840127E+03  EK= 0.10543E+02 SP= 0.00E+00 SK= 0.00E+00
   1648 T=   602. E= -.22819640E+03 F= -.23839703E+03 E0= -.23839703E+03  EK= 0.10201E+02 SP= 0.00E+00 SK= 0.00E+00
   1649 T=   602. E= -.22821463E+03 F= -.23840600E+03 E0= -.23840600E+03  EK= 0.10191E+02 SP= 0.00E+00 SK= 0.00E+00
   1650 T=   611. E= -.22805183E+03 F= -.23840068E+03 E0= -.23840068E+03  EK= 0.10349E+02 SP= 0.00E+00 SK= 0.00E+00
   1651 T=   600. E= -.22821629E+03 F= -.23837852E+03 E0= -.23837852E+03  EK= 0.10162E+02 SP= 0.00E+00 SK= 0.00E+00
   1652 T=   592. E= -.22830921E+03 F= -.23833984E+03 E0= -.23833984E+03  EK= 0.10031E+02 SP= 0.00E+00 SK= 0.00E+00
   1653 T=   587. E= -.22842471E+03 F= -.23836048E+03 E0= -.23836048E+03  EK= 0.99358E+01 SP= 0.00E+00 SK= 0.00E+00
   1654 T=   573. E= -.22866568E+03 F= -.23837544E+03 E0= -.23837544E+03  EK= 0.97098E+01 SP= 0.00E+00 SK= 0.00E+00
   1655 T=   577. E= -.22859527E+03 F= -.23836155E+03 E0= -.23836155E+03  EK= 0.97663E+01 SP= 0.00E+00 SK= 0.00E+00
   1656 T=   588. E= -.22839449E+03 F= -.23834680E+03 E0= -.23834680E+03  EK= 0.99523E+01 SP= 0.00E+00 SK= 0.00E+00
   1657 T=   586. E= -.22841844E+03 F= -.23834816E+03 E0= -.23834816E+03  EK= 0.99297E+01 SP= 0.00E+00 SK= 0.00E+00
   1658 T=   585. E= -.22839005E+03 F= -.23830358E+03 E0= -.23830358E+03  EK= 0.99135E+01 SP= 0.00E+00 SK= 0.00E+00
   1659 T=   589. E= -.22832045E+03 F= -.23829141E+03 E0= -.23829141E+03  EK= 0.99710E+01 SP= 0.00E+00 SK= 0.00E+00
   1660 T=   586. E= -.22832453E+03 F= -.23825266E+03 E0= -.23825266E+03  EK= 0.99281E+01 SP= 0.00E+00 SK= 0.00E+00
   1661 T=   589. E= -.22828510E+03 F= -.23825923E+03 E0= -.23825923E+03  EK= 0.99741E+01 SP= 0.00E+00 SK= 0.00E+00
   1662 T=   585. E= -.22831377E+03 F= -.23821935E+03 E0= -.23821935E+03  EK= 0.99056E+01 SP= 0.00E+00 SK= 0.00E+00
   1663 T=   568. E= -.22856511E+03 F= -.23818253E+03 E0= -.23818253E+03  EK= 0.96174E+01 SP= 0.00E+00 SK= 0.00E+00
   1664 T=   560. E= -.22870233E+03 F= -.23818961E+03 E0= -.23818961E+03  EK= 0.94873E+01 SP= 0.00E+00 SK= 0.00E+00
   1665 T=   557. E= -.22877359E+03 F= -.23821219E+03 E0= -.23821219E+03  EK= 0.94386E+01 SP= 0.00E+00 SK= 0.00E+00
   1666 T=   549. E= -.22889112E+03 F= -.23819197E+03 E0= -.23819197E+03  EK= 0.93009E+01 SP= 0.00E+00 SK= 0.00E+00
   1667 T=   549. E= -.22889883E+03 F= -.23820241E+03 E0= -.23820241E+03  EK= 0.93036E+01 SP= 0.00E+00 SK= 0.00E+00
   1668 T=   544. E= -.22898193E+03 F= -.23819848E+03 E0= -.23819848E+03  EK= 0.92166E+01 SP= 0.00E+00 SK= 0.00E+00
   1669 T=   529. E= -.22921644E+03 F= -.23818244E+03 E0= -.23818244E+03  EK= 0.89660E+01 SP= 0.00E+00 SK= 0.00E+00
   1670 T=   519. E= -.22939124E+03 F= -.23817926E+03 E0= -.23817926E+03  EK= 0.87880E+01 SP= 0.00E+00 SK= 0.00E+00
   1671 T=   514. E= -.22946818E+03 F= -.23817742E+03 E0= -.23817742E+03  EK= 0.87092E+01 SP= 0.00E+00 SK= 0.00E+00
   1672 T=   518. E= -.22939407E+03 F= -.23816220E+03 E0= -.23816220E+03  EK= 0.87681E+01 SP= 0.00E+00 SK= 0.00E+00
   1673 T=   514. E= -.22945985E+03 F= -.23815883E+03 E0= -.23815883E+03  EK= 0.86990E+01 SP= 0.00E+00 SK= 0.00E+00
   1674 T=   510. E= -.22951651E+03 F= -.23815353E+03 E0= -.23815353E+03  EK= 0.86370E+01 SP= 0.00E+00 SK= 0.00E+00
   1675 T=   520. E= -.22934825E+03 F= -.23814973E+03 E0= -.23814973E+03  EK= 0.88015E+01 SP= 0.00E+00 SK= 0.00E+00
   1676 T=   535. E= -.22908564E+03 F= -.23814061E+03 E0= -.23814061E+03  EK= 0.90550E+01 SP= 0.00E+00 SK= 0.00E+00
   1677 T=   546. E= -.22889130E+03 F= -.23813255E+03 E0= -.23813255E+03  EK= 0.92413E+01 SP= 0.00E+00 SK= 0.00E+00
   1678 T=   551. E= -.22877847E+03 F= -.23811163E+03 E0= -.23811163E+03  EK= 0.93332E+01 SP= 0.00E+00 SK= 0.00E+00
   1679 T=   544. E= -.22893667E+03 F= -.23815221E+03 E0= -.23815221E+03  EK= 0.92155E+01 SP= 0.00E+00 SK= 0.00E+00
   1680 T=   544. E= -.22894285E+03 F= -.23814657E+03 E0= -.23814657E+03  EK= 0.92037E+01 SP= 0.00E+00 SK= 0.00E+00
   1681 T=   548. E= -.22886005E+03 F= -.23814280E+03 E0= -.23814280E+03  EK= 0.92827E+01 SP= 0.00E+00 SK= 0.00E+00
   1682 T=   561. E= -.22866211E+03 F= -.23815538E+03 E0= -.23815538E+03  EK= 0.94933E+01 SP= 0.00E+00 SK= 0.00E+00
   1683 T=   572. E= -.22850789E+03 F= -.23818628E+03 E0= -.23818628E+03  EK= 0.96784E+01 SP= 0.00E+00 SK= 0.00E+00
   1684 T=   568. E= -.22861300E+03 F= -.23823370E+03 E0= -.23823370E+03  EK= 0.96207E+01 SP= 0.00E+00 SK= 0.00E+00
   1685 T=   570. E= -.22853754E+03 F= -.23819585E+03 E0= -.23819585E+03  EK= 0.96583E+01 SP= 0.00E+00 SK= 0.00E+00
   1686 T=   569. E= -.22856785E+03 F= -.23820431E+03 E0= -.23820431E+03  EK= 0.96365E+01 SP= 0.00E+00 SK= 0.00E+00
   1687 T=   553. E= -.22881636E+03 F= -.23818207E+03 E0= -.23818207E+03  EK= 0.93657E+01 SP= 0.00E+00 SK= 0.00E+00
   1688 T=   553. E= -.22883040E+03 F= -.23819506E+03 E0= -.23819506E+03  EK= 0.93647E+01 SP= 0.00E+00 SK= 0.00E+00
   1689 T=   561. E= -.22871131E+03 F= -.23821314E+03 E0= -.23821314E+03  EK= 0.95018E+01 SP= 0.00E+00 SK= 0.00E+00
   1690 T=   570. E= -.22862639E+03 F= -.23828437E+03 E0= -.23828437E+03  EK= 0.96580E+01 SP= 0.00E+00 SK= 0.00E+00
   1691 T=   575. E= -.22856055E+03 F= -.23829292E+03 E0= -.23829292E+03  EK= 0.97324E+01 SP= 0.00E+00 SK= 0.00E+00
   1692 T=   571. E= -.22863445E+03 F= -.23829615E+03 E0= -.23829615E+03  EK= 0.96617E+01 SP= 0.00E+00 SK= 0.00E+00
   1693 T=   575. E= -.22858403E+03 F= -.23832500E+03 E0= -.23832500E+03  EK= 0.97410E+01 SP= 0.00E+00 SK= 0.00E+00
   1694 T=   586. E= -.22839687E+03 F= -.23831899E+03 E0= -.23831899E+03  EK= 0.99221E+01 SP= 0.00E+00 SK= 0.00E+00
   1695 T=   584. E= -.22843027E+03 F= -.23832725E+03 E0= -.23832725E+03  EK= 0.98970E+01 SP= 0.00E+00 SK= 0.00E+00
   1696 T=   574. E= -.22860441E+03 F= -.23832099E+03 E0= -.23832099E+03  EK= 0.97166E+01 SP= 0.00E+00 SK= 0.00E+00
   1697 T=   574. E= -.22859912E+03 F= -.23831294E+03 E0= -.23831294E+03  EK= 0.97138E+01 SP= 0.00E+00 SK= 0.00E+00
   1698 T=   579. E= -.22853756E+03 F= -.23833759E+03 E0= -.23833759E+03  EK= 0.98000E+01 SP= 0.00E+00 SK= 0.00E+00
   1699 T=   581. E= -.22850034E+03 F= -.23833632E+03 E0= -.23833632E+03  EK= 0.98360E+01 SP= 0.00E+00 SK= 0.00E+00
   1700 T=   579. E= -.22853190E+03 F= -.23833363E+03 E0= -.23833363E+03  EK= 0.98017E+01 SP= 0.00E+00 SK= 0.00E+00
   1701 T=   584. E= -.22844387E+03 F= -.23833149E+03 E0= -.23833149E+03  EK= 0.98876E+01 SP= 0.00E+00 SK= 0.00E+00
   1702 T=   592. E= -.22831844E+03 F= -.23833850E+03 E0= -.23833850E+03  EK= 0.10020E+02 SP= 0.00E+00 SK= 0.00E+00
   1703 T=   600. E= -.22822201E+03 F= -.23837652E+03 E0= -.23837652E+03  EK= 0.10155E+02 SP= 0.00E+00 SK= 0.00E+00
   1704 T=   602. E= -.22818699E+03 F= -.23838720E+03 E0= -.23838720E+03  EK= 0.10200E+02 SP= 0.00E+00 SK= 0.00E+00
   1705 T=   596. E= -.22831459E+03 F= -.23840534E+03 E0= -.23840534E+03  EK= 0.10091E+02 SP= 0.00E+00 SK= 0.00E+00
   1706 T=   600. E= -.22825722E+03 F= -.23841363E+03 E0= -.23841363E+03  EK= 0.10156E+02 SP= 0.00E+00 SK= 0.00E+00
   1707 T=   606. E= -.22816706E+03 F= -.23843314E+03 E0= -.23843314E+03  EK= 0.10266E+02 SP= 0.00E+00 SK= 0.00E+00
   1708 T=   604. E= -.22822997E+03 F= -.23845396E+03 E0= -.23845396E+03  EK= 0.10224E+02 SP= 0.00E+00 SK= 0.00E+00
   1709 T=   593. E= -.22843561E+03 F= -.23847775E+03 E0= -.23847775E+03  EK= 0.10042E+02 SP= 0.00E+00 SK= 0.00E+00
   1710 T=   585. E= -.22864983E+03 F= -.23856170E+03 E0= -.23856170E+03  EK= 0.99119E+01 SP= 0.00E+00 SK= 0.00E+00
   1711 T=   574. E= -.22885785E+03 F= -.23856943E+03 E0= -.23856943E+03  EK= 0.97116E+01 SP= 0.00E+00 SK= 0.00E+00
   1712 T=   549. E= -.22930295E+03 F= -.23860320E+03 E0= -.23860320E+03  EK= 0.93002E+01 SP= 0.00E+00 SK= 0.00E+00
   1713 T=   544. E= -.22939765E+03 F= -.23861545E+03 E0= -.23861545E+03  EK= 0.92178E+01 SP= 0.00E+00 SK= 0.00E+00
   1714 T=   562. E= -.22910769E+03 F= -.23862068E+03 E0= -.23862068E+03  EK= 0.95130E+01 SP= 0.00E+00 SK= 0.00E+00
   1715 T=   570. E= -.22894514E+03 F= -.23859178E+03 E0= -.23859178E+03  EK= 0.96466E+01 SP= 0.00E+00 SK= 0.00E+00
   1716 T=   562. E= -.22907780E+03 F= -.23858745E+03 E0= -.23858745E+03  EK= 0.95097E+01 SP= 0.00E+00 SK= 0.00E+00
   1717 T=   558. E= -.22910046E+03 F= -.23855192E+03 E0= -.23855192E+03  EK= 0.94515E+01 SP= 0.00E+00 SK= 0.00E+00
   1718 T=   577. E= -.22878065E+03 F= -.23854695E+03 E0= -.23854695E+03  EK= 0.97663E+01 SP= 0.00E+00 SK= 0.00E+00
   1719 T=   588. E= -.22858743E+03 F= -.23853768E+03 E0= -.23853768E+03  EK= 0.99502E+01 SP= 0.00E+00 SK= 0.00E+00
   1720 T=   592. E= -.22851248E+03 F= -.23854364E+03 E0= -.23854364E+03  EK= 0.10031E+02 SP= 0.00E+00 SK= 0.00E+00
   1721 T=   600. E= -.22838710E+03 F= -.23854923E+03 E0= -.23854923E+03  EK= 0.10162E+02 SP= 0.00E+00 SK= 0.00E+00
   1722 T=   607. E= -.22823826E+03 F= -.23852512E+03 E0= -.23852512E+03  EK= 0.10287E+02 SP= 0.00E+00 SK= 0.00E+00
   1723 T=   603. E= -.22831037E+03 F= -.23851476E+03 E0= -.23851476E+03  EK= 0.10204E+02 SP= 0.00E+00 SK= 0.00E+00
   1724 T=   601. E= -.22834575E+03 F= -.23851918E+03 E0= -.23851918E+03  EK= 0.10173E+02 SP= 0.00E+00 SK= 0.00E+00
   1725 T=   610. E= -.22818621E+03 F= -.23850963E+03 E0= -.23850963E+03  EK= 0.10323E+02 SP= 0.00E+00 SK= 0.00E+00
   1726 T=   607. E= -.22821408E+03 F= -.23849807E+03 E0= -.23849807E+03  EK= 0.10284E+02 SP= 0.00E+00 SK= 0.00E+00
   1727 T=   606. E= -.22826471E+03 F= -.23852094E+03 E0= -.23852094E+03  EK= 0.10256E+02 SP= 0.00E+00 SK= 0.00E+00
   1728 T=   607. E= -.22821616E+03 F= -.23850277E+03 E0= -.23850277E+03  EK= 0.10287E+02 SP= 0.00E+00 SK= 0.00E+00
   1729 T=   603. E= -.22828945E+03 F= -.23849882E+03 E0= -.23849882E+03  EK= 0.10209E+02 SP= 0.00E+00 SK= 0.00E+00
   1730 T=   607. E= -.22820780E+03 F= -.23847957E+03 E0= -.23847957E+03  EK= 0.10272E+02 SP= 0.00E+00 SK= 0.00E+00
   1731 T=   609. E= -.22812930E+03 F= -.23844852E+03 E0= -.23844852E+03  EK= 0.10319E+02 SP= 0.00E+00 SK= 0.00E+00
   1732 T=   602. E= -.22827526E+03 F= -.23847575E+03 E0= -.23847575E+03  EK= 0.10200E+02 SP= 0.00E+00 SK= 0.00E+00
   1733 T=   599. E= -.22831383E+03 F= -.23846115E+03 E0= -.23846115E+03  EK= 0.10147E+02 SP= 0.00E+00 SK= 0.00E+00
   1734 T=   597. E= -.22834348E+03 F= -.23846102E+03 E0= -.23846102E+03  EK= 0.10118E+02 SP= 0.00E+00 SK= 0.00E+00
   1735 T=   600. E= -.22829331E+03 F= -.23844576E+03 E0= -.23844576E+03  EK= 0.10152E+02 SP= 0.00E+00 SK= 0.00E+00
   1736 T=   613. E= -.22806996E+03 F= -.23844679E+03 E0= -.23844679E+03  EK= 0.10377E+02 SP= 0.00E+00 SK= 0.00E+00
   1737 T=   631. E= -.22776697E+03 F= -.23845120E+03 E0= -.23845120E+03  EK= 0.10684E+02 SP= 0.00E+00 SK= 0.00E+00
   1738 T=   643. E= -.22756616E+03 F= -.23845465E+03 E0= -.23845465E+03  EK= 0.10888E+02 SP= 0.00E+00 SK= 0.00E+00
   1739 T=   632. E= -.22777290E+03 F= -.23848291E+03 E0= -.23848291E+03  EK= 0.10710E+02 SP= 0.00E+00 SK= 0.00E+00
   1740 T=   625. E= -.22789205E+03 F= -.23846892E+03 E0= -.23846892E+03  EK= 0.10577E+02 SP= 0.00E+00 SK= 0.00E+00
   1741 T=   623. E= -.22791128E+03 F= -.23846787E+03 E0= -.23846787E+03  EK= 0.10557E+02 SP= 0.00E+00 SK= 0.00E+00
   1742 T=   622. E= -.22790749E+03 F= -.23844474E+03 E0= -.23844474E+03  EK= 0.10537E+02 SP= 0.00E+00 SK= 0.00E+00
   1743 T=   626. E= -.22784009E+03 F= -.23843848E+03 E0= -.23843848E+03  EK= 0.10598E+02 SP= 0.00E+00 SK= 0.00E+00
   1744 T=   633. E= -.22775216E+03 F= -.23846626E+03 E0= -.23846626E+03  EK= 0.10714E+02 SP= 0.00E+00 SK= 0.00E+00
   1745 T=   625. E= -.22789581E+03 F= -.23847821E+03 E0= -.23847821E+03  EK= 0.10582E+02 SP= 0.00E+00 SK= 0.00E+00
   1746 T=   613. E= -.22808880E+03 F= -.23847345E+03 E0= -.23847345E+03  EK= 0.10385E+02 SP= 0.00E+00 SK= 0.00E+00
   1747 T=   605. E= -.22821843E+03 F= -.23847057E+03 E0= -.23847057E+03  EK= 0.10252E+02 SP= 0.00E+00 SK= 0.00E+00
   1748 T=   598. E= -.22834220E+03 F= -.23846468E+03 E0= -.23846468E+03  EK= 0.10122E+02 SP= 0.00E+00 SK= 0.00E+00
   1749 T=   591. E= -.22845788E+03 F= -.23845877E+03 E0= -.23845877E+03  EK= 0.10001E+02 SP= 0.00E+00 SK= 0.00E+00
   1750 T=   589. E= -.22847854E+03 F= -.23845534E+03 E0= -.23845534E+03  EK= 0.99768E+01 SP= 0.00E+00 SK= 0.00E+00
   1751 T=   597. E= -.22834224E+03 F= -.23845386E+03 E0= -.23845386E+03  EK= 0.10112E+02 SP= 0.00E+00 SK= 0.00E+00
   1752 T=   589. E= -.22848978E+03 F= -.23845786E+03 E0= -.23845786E+03  EK= 0.99681E+01 SP= 0.00E+00 SK= 0.00E+00
   1753 T=   573. E= -.22874672E+03 F= -.23845731E+03 E0= -.23845731E+03  EK= 0.97106E+01 SP= 0.00E+00 SK= 0.00E+00
   1754 T=   565. E= -.22890375E+03 F= -.23847381E+03 E0= -.23847381E+03  EK= 0.95701E+01 SP= 0.00E+00 SK= 0.00E+00
   1755 T=   572. E= -.22878560E+03 F= -.23847583E+03 E0= -.23847583E+03  EK= 0.96902E+01 SP= 0.00E+00 SK= 0.00E+00
   1756 T=   578. E= -.22869670E+03 F= -.23848538E+03 E0= -.23848538E+03  EK= 0.97887E+01 SP= 0.00E+00 SK= 0.00E+00
   1757 T=   571. E= -.22881326E+03 F= -.23847937E+03 E0= -.23847937E+03  EK= 0.96661E+01 SP= 0.00E+00 SK= 0.00E+00
   1758 T=   575. E= -.22873935E+03 F= -.23847682E+03 E0= -.23847682E+03  EK= 0.97375E+01 SP= 0.00E+00 SK= 0.00E+00
   1759 T=   596. E= -.22839811E+03 F= -.23848724E+03 E0= -.23848724E+03  EK= 0.10089E+02 SP= 0.00E+00 SK= 0.00E+00
   1760 T=   598. E= -.22839122E+03 F= -.23851133E+03 E0= -.23851133E+03  EK= 0.10120E+02 SP= 0.00E+00 SK= 0.00E+00
   1761 T=   579. E= -.22871111E+03 F= -.23852218E+03 E0= -.23852218E+03  EK= 0.98111E+01 SP= 0.00E+00 SK= 0.00E+00
   1762 T=   569. E= -.22880497E+03 F= -.23844031E+03 E0= -.23844031E+03  EK= 0.96353E+01 SP= 0.00E+00 SK= 0.00E+00
   1763 T=   564. E= -.22889653E+03 F= -.23844389E+03 E0= -.23844389E+03  EK= 0.95474E+01 SP= 0.00E+00 SK= 0.00E+00
   1764 T=   559. E= -.22897702E+03 F= -.23844865E+03 E0= -.23844865E+03  EK= 0.94716E+01 SP= 0.00E+00 SK= 0.00E+00
   1765 T=   560. E= -.22896014E+03 F= -.23844643E+03 E0= -.23844643E+03  EK= 0.94863E+01 SP= 0.00E+00 SK= 0.00E+00
   1766 T=   570. E= -.22883315E+03 F= -.23848276E+03 E0= -.23848276E+03  EK= 0.96496E+01 SP= 0.00E+00 SK= 0.00E+00
   1767 T=   573. E= -.22875914E+03 F= -.23846896E+03 E0= -.23846896E+03  EK= 0.97098E+01 SP= 0.00E+00 SK= 0.00E+00
   1768 T=   581. E= -.22861936E+03 F= -.23845436E+03 E0= -.23845436E+03  EK= 0.98350E+01 SP= 0.00E+00 SK= 0.00E+00
   1769 T=   593. E= -.22839136E+03 F= -.23844086E+03 E0= -.23844086E+03  EK= 0.10049E+02 SP= 0.00E+00 SK= 0.00E+00
   1770 T=   607. E= -.22816001E+03 F= -.23844321E+03 E0= -.23844321E+03  EK= 0.10283E+02 SP= 0.00E+00 SK= 0.00E+00
   1771 T=   601. E= -.22823595E+03 F= -.23842113E+03 E0= -.23842113E+03  EK= 0.10185E+02 SP= 0.00E+00 SK= 0.00E+00
   1772 T=   596. E= -.22827740E+03 F= -.23836694E+03 E0= -.23836694E+03  EK= 0.10090E+02 SP= 0.00E+00 SK= 0.00E+00
   1773 T=   592. E= -.22831354E+03 F= -.23834025E+03 E0= -.23834025E+03  EK= 0.10027E+02 SP= 0.00E+00 SK= 0.00E+00
   1774 T=   591. E= -.22830350E+03 F= -.23831888E+03 E0= -.23831888E+03  EK= 0.10015E+02 SP= 0.00E+00 SK= 0.00E+00
   1775 T=   604. E= -.22812364E+03 F= -.23834406E+03 E0= -.23834406E+03  EK= 0.10220E+02 SP= 0.00E+00 SK= 0.00E+00
   1776 T=   606. E= -.22806573E+03 F= -.23833281E+03 E0= -.23833281E+03  EK= 0.10267E+02 SP= 0.00E+00 SK= 0.00E+00
   1777 T=   606. E= -.22806443E+03 F= -.23832502E+03 E0= -.23832502E+03  EK= 0.10261E+02 SP= 0.00E+00 SK= 0.00E+00
   1778 T=   602. E= -.22812671E+03 F= -.23831777E+03 E0= -.23831777E+03  EK= 0.10191E+02 SP= 0.00E+00 SK= 0.00E+00
   1779 T=   592. E= -.22830496E+03 F= -.23832271E+03 E0= -.23832271E+03  EK= 0.10018E+02 SP= 0.00E+00 SK= 0.00E+00
   1780 T=   601. E= -.22810379E+03 F= -.23828726E+03 E0= -.23828726E+03  EK= 0.10183E+02 SP= 0.00E+00 SK= 0.00E+00
   1781 T=   611. E= -.22795973E+03 F= -.23829906E+03 E0= -.23829906E+03  EK= 0.10339E+02 SP= 0.00E+00 SK= 0.00E+00
   1782 T=   617. E= -.22787322E+03 F= -.23832800E+03 E0= -.23832800E+03  EK= 0.10455E+02 SP= 0.00E+00 SK= 0.00E+00
   1783 T=   629. E= -.22767905E+03 F= -.23832754E+03 E0= -.23832754E+03  EK= 0.10648E+02 SP= 0.00E+00 SK= 0.00E+00
   1784 T=   625. E= -.22775292E+03 F= -.23833511E+03 E0= -.23833511E+03  EK= 0.10582E+02 SP= 0.00E+00 SK= 0.00E+00
   1785 T=   624. E= -.22780389E+03 F= -.23836970E+03 E0= -.23836970E+03  EK= 0.10566E+02 SP= 0.00E+00 SK= 0.00E+00
   1786 T=   642. E= -.22750797E+03 F= -.23837232E+03 E0= -.23837232E+03  EK= 0.10864E+02 SP= 0.00E+00 SK= 0.00E+00
   1787 T=   665. E= -.22712159E+03 F= -.23837632E+03 E0= -.23837632E+03  EK= 0.11255E+02 SP= 0.00E+00 SK= 0.00E+00
   1788 T=   665. E= -.22712909E+03 F= -.23839215E+03 E0= -.23839215E+03  EK= 0.11263E+02 SP= 0.00E+00 SK= 0.00E+00
   1789 T=   661. E= -.22721117E+03 F= -.23840952E+03 E0= -.23840952E+03  EK= 0.11198E+02 SP= 0.00E+00 SK= 0.00E+00
   1790 T=   665. E= -.22720119E+03 F= -.23845662E+03 E0= -.23845662E+03  EK= 0.11255E+02 SP= 0.00E+00 SK= 0.00E+00
   1791 T=   666. E= -.22720361E+03 F= -.23847402E+03 E0= -.23847402E+03  EK= 0.11270E+02 SP= 0.00E+00 SK= 0.00E+00
   1792 T=   667. E= -.22717886E+03 F= -.23847786E+03 E0= -.23847786E+03  EK= 0.11299E+02 SP= 0.00E+00 SK= 0.00E+00
   1793 T=   669. E= -.22716793E+03 F= -.23849471E+03 E0= -.23849471E+03  EK= 0.11327E+02 SP= 0.00E+00 SK= 0.00E+00
   1794 T=   671. E= -.22711373E+03 F= -.23846770E+03 E0= -.23846770E+03  EK= 0.11354E+02 SP= 0.00E+00 SK= 0.00E+00
   1795 T=   670. E= -.22713045E+03 F= -.23848202E+03 E0= -.23848202E+03  EK= 0.11352E+02 SP= 0.00E+00 SK= 0.00E+00
   1796 T=   664. E= -.22720776E+03 F= -.23845638E+03 E0= -.23845638E+03  EK= 0.11249E+02 SP= 0.00E+00 SK= 0.00E+00
   1797 T=   661. E= -.22726466E+03 F= -.23845121E+03 E0= -.23845121E+03  EK= 0.11187E+02 SP= 0.00E+00 SK= 0.00E+00
   1798 T=   661. E= -.22724835E+03 F= -.23844413E+03 E0= -.23844413E+03  EK= 0.11196E+02 SP= 0.00E+00 SK= 0.00E+00
   1799 T=   659. E= -.22724309E+03 F= -.23839359E+03 E0= -.23839359E+03  EK= 0.11151E+02 SP= 0.00E+00 SK= 0.00E+00
   1800 T=   655. E= -.22729146E+03 F= -.23838854E+03 E0= -.23838854E+03  EK= 0.11097E+02 SP= 0.00E+00 SK= 0.00E+00
   1801 T=   655. E= -.22729786E+03 F= -.23838673E+03 E0= -.23838673E+03  EK= 0.11089E+02 SP= 0.00E+00 SK= 0.00E+00
   1802 T=   650. E= -.22734678E+03 F= -.23836031E+03 E0= -.23836031E+03  EK= 0.11014E+02 SP= 0.00E+00 SK= 0.00E+00
   1803 T=   633. E= -.22763918E+03 F= -.23836614E+03 E0= -.23836614E+03  EK= 0.10727E+02 SP= 0.00E+00 SK= 0.00E+00
   1804 T=   623. E= -.22783604E+03 F= -.23838099E+03 E0= -.23838099E+03  EK= 0.10545E+02 SP= 0.00E+00 SK= 0.00E+00
   1805 T=   617. E= -.22789631E+03 F= -.23833870E+03 E0= -.23833870E+03  EK= 0.10442E+02 SP= 0.00E+00 SK= 0.00E+00
   1806 T=   604. E= -.22812914E+03 F= -.23835845E+03 E0= -.23835845E+03  EK= 0.10229E+02 SP= 0.00E+00 SK= 0.00E+00
   1807 T=   600. E= -.22821990E+03 F= -.23838437E+03 E0= -.23838437E+03  EK= 0.10164E+02 SP= 0.00E+00 SK= 0.00E+00
   1808 T=   610. E= -.22810207E+03 F= -.23842808E+03 E0= -.23842808E+03  EK= 0.10326E+02 SP= 0.00E+00 SK= 0.00E+00
   1809 T=   621. E= -.22790970E+03 F= -.23842571E+03 E0= -.23842571E+03  EK= 0.10516E+02 SP= 0.00E+00 SK= 0.00E+00
   1810 T=   643. E= -.22755735E+03 F= -.23845060E+03 E0= -.23845060E+03  EK= 0.10893E+02 SP= 0.00E+00 SK= 0.00E+00
   1811 T=   649. E= -.22752612E+03 F= -.23852167E+03 E0= -.23852167E+03  EK= 0.10996E+02 SP= 0.00E+00 SK= 0.00E+00
   1812 T=   650. E= -.22753415E+03 F= -.23854493E+03 E0= -.23854493E+03  EK= 0.11011E+02 SP= 0.00E+00 SK= 0.00E+00
   1813 T=   656. E= -.22746169E+03 F= -.23856367E+03 E0= -.23856367E+03  EK= 0.11102E+02 SP= 0.00E+00 SK= 0.00E+00
   1814 T=   645. E= -.22769410E+03 F= -.23860847E+03 E0= -.23860847E+03  EK= 0.10914E+02 SP= 0.00E+00 SK= 0.00E+00
   1815 T=   636. E= -.22784416E+03 F= -.23861889E+03 E0= -.23861889E+03  EK= 0.10775E+02 SP= 0.00E+00 SK= 0.00E+00
   1816 T=   633. E= -.22792530E+03 F= -.23863976E+03 E0= -.23863976E+03  EK= 0.10714E+02 SP= 0.00E+00 SK= 0.00E+00
   1817 T=   633. E= -.22790740E+03 F= -.23863119E+03 E0= -.23863119E+03  EK= 0.10724E+02 SP= 0.00E+00 SK= 0.00E+00
   1818 T=   630. E= -.22801628E+03 F= -.23868351E+03 E0= -.23868351E+03  EK= 0.10667E+02 SP= 0.00E+00 SK= 0.00E+00
   1819 T=   625. E= -.22812224E+03 F= -.23870065E+03 E0= -.23870065E+03  EK= 0.10578E+02 SP= 0.00E+00 SK= 0.00E+00
   1820 T=   626. E= -.22807678E+03 F= -.23867034E+03 E0= -.23867034E+03  EK= 0.10594E+02 SP= 0.00E+00 SK= 0.00E+00
   1821 T=   630. E= -.22797967E+03 F= -.23864176E+03 E0= -.23864176E+03  EK= 0.10662E+02 SP= 0.00E+00 SK= 0.00E+00
   1822 T=   622. E= -.22810322E+03 F= -.23864098E+03 E0= -.23864098E+03  EK= 0.10538E+02 SP= 0.00E+00 SK= 0.00E+00
   1823 T=   617. E= -.22817352E+03 F= -.23862616E+03 E0= -.23862616E+03  EK= 0.10453E+02 SP= 0.00E+00 SK= 0.00E+00
   1824 T=   615. E= -.22821172E+03 F= -.23862876E+03 E0= -.23862876E+03  EK= 0.10417E+02 SP= 0.00E+00 SK= 0.00E+00
   1825 T=   618. E= -.22819539E+03 F= -.23866122E+03 E0= -.23866122E+03  EK= 0.10466E+02 SP= 0.00E+00 SK= 0.00E+00
   1826 T=   630. E= -.22799003E+03 F= -.23864948E+03 E0= -.23864948E+03  EK= 0.10659E+02 SP= 0.00E+00 SK= 0.00E+00
   1827 T=   630. E= -.22802265E+03 F= -.23868431E+03 E0= -.23868431E+03  EK= 0.10662E+02 SP= 0.00E+00 SK= 0.00E+00
   1828 T=   630. E= -.22801358E+03 F= -.23868514E+03 E0= -.23868514E+03  EK= 0.10672E+02 SP= 0.00E+00 SK= 0.00E+00
   1829 T=   629. E= -.22804588E+03 F= -.23870087E+03 E0= -.23870087E+03  EK= 0.10655E+02 SP= 0.00E+00 SK= 0.00E+00
   1830 T=   617. E= -.22826959E+03 F= -.23871619E+03 E0= -.23871619E+03  EK= 0.10447E+02 SP= 0.00E+00 SK= 0.00E+00
   1831 T=   621. E= -.22822453E+03 F= -.23874613E+03 E0= -.23874613E+03  EK= 0.10522E+02 SP= 0.00E+00 SK= 0.00E+00
   1832 T=   620. E= -.22823174E+03 F= -.23872945E+03 E0= -.23872945E+03  EK= 0.10498E+02 SP= 0.00E+00 SK= 0.00E+00
   1833 T=   609. E= -.22840899E+03 F= -.23871353E+03 E0= -.23871353E+03  EK= 0.10305E+02 SP= 0.00E+00 SK= 0.00E+00
   1834 T=   608. E= -.22845392E+03 F= -.23874340E+03 E0= -.23874340E+03  EK= 0.10289E+02 SP= 0.00E+00 SK= 0.00E+00
   1835 T=   611. E= -.22840189E+03 F= -.23874448E+03 E0= -.23874448E+03  EK= 0.10343E+02 SP= 0.00E+00 SK= 0.00E+00
   1836 T=   610. E= -.22841549E+03 F= -.23874490E+03 E0= -.23874490E+03  EK= 0.10329E+02 SP= 0.00E+00 SK= 0.00E+00
   1837 T=   603. E= -.22854111E+03 F= -.23874437E+03 E0= -.23874437E+03  EK= 0.10203E+02 SP= 0.00E+00 SK= 0.00E+00
   1838 T=   605. E= -.22845796E+03 F= -.23869731E+03 E0= -.23869731E+03  EK= 0.10239E+02 SP= 0.00E+00 SK= 0.00E+00
   1839 T=   622. E= -.22815617E+03 F= -.23869249E+03 E0= -.23869249E+03  EK= 0.10536E+02 SP= 0.00E+00 SK= 0.00E+00
   1840 T=   639. E= -.22789076E+03 F= -.23871560E+03 E0= -.23871560E+03  EK= 0.10825E+02 SP= 0.00E+00 SK= 0.00E+00
   1841 T=   640. E= -.22781179E+03 F= -.23864838E+03 E0= -.23864838E+03  EK= 0.10837E+02 SP= 0.00E+00 SK= 0.00E+00
   1842 T=   635. E= -.22791154E+03 F= -.23866809E+03 E0= -.23866809E+03  EK= 0.10757E+02 SP= 0.00E+00 SK= 0.00E+00
   1843 T=   632. E= -.22798618E+03 F= -.23868940E+03 E0= -.23868940E+03  EK= 0.10703E+02 SP= 0.00E+00 SK= 0.00E+00
   1844 T=   635. E= -.22790338E+03 F= -.23865018E+03 E0= -.23865018E+03  EK= 0.10747E+02 SP= 0.00E+00 SK= 0.00E+00
   1845 T=   638. E= -.22779393E+03 F= -.23860567E+03 E0= -.23860567E+03  EK= 0.10812E+02 SP= 0.00E+00 SK= 0.00E+00
   1846 T=   629. E= -.22793166E+03 F= -.23858906E+03 E0= -.23858906E+03  EK= 0.10657E+02 SP= 0.00E+00 SK= 0.00E+00
   1847 T=   617. E= -.22812349E+03 F= -.23856909E+03 E0= -.23856909E+03  EK= 0.10446E+02 SP= 0.00E+00 SK= 0.00E+00
   1848 T=   617. E= -.22815350E+03 F= -.23860331E+03 E0= -.23860331E+03  EK= 0.10450E+02 SP= 0.00E+00 SK= 0.00E+00
   1849 T=   621. E= -.22806323E+03 F= -.23857801E+03 E0= -.23857801E+03  EK= 0.10515E+02 SP= 0.00E+00 SK= 0.00E+00
   1850 T=   613. E= -.22818382E+03 F= -.23856455E+03 E0= -.23856455E+03  EK= 0.10381E+02 SP= 0.00E+00 SK= 0.00E+00
   1851 T=   597. E= -.22840091E+03 F= -.23851820E+03 E0= -.23851820E+03  EK= 0.10117E+02 SP= 0.00E+00 SK= 0.00E+00
   1852 T=   595. E= -.22840531E+03 F= -.23848441E+03 E0= -.23848441E+03  EK= 0.10079E+02 SP= 0.00E+00 SK= 0.00E+00
   1853 T=   602. E= -.22826486E+03 F= -.23846279E+03 E0= -.23846279E+03  EK= 0.10198E+02 SP= 0.00E+00 SK= 0.00E+00
   1854 T=   597. E= -.22830772E+03 F= -.23840989E+03 E0= -.23840989E+03  EK= 0.10102E+02 SP= 0.00E+00 SK= 0.00E+00
   1855 T=   576. E= -.22861604E+03 F= -.23837515E+03 E0= -.23837515E+03  EK= 0.97591E+01 SP= 0.00E+00 SK= 0.00E+00
   1856 T=   570. E= -.22872106E+03 F= -.23836887E+03 E0= -.23836887E+03  EK= 0.96478E+01 SP= 0.00E+00 SK= 0.00E+00
   1857 T=   562. E= -.22875384E+03 F= -.23827441E+03 E0= -.23827441E+03  EK= 0.95206E+01 SP= 0.00E+00 SK= 0.00E+00
   1858 T=   558. E= -.22882339E+03 F= -.23826661E+03 E0= -.23826661E+03  EK= 0.94432E+01 SP= 0.00E+00 SK= 0.00E+00
   1859 T=   566. E= -.22865209E+03 F= -.23822820E+03 E0= -.23822820E+03  EK= 0.95761E+01 SP= 0.00E+00 SK= 0.00E+00
   1860 T=   570. E= -.22854288E+03 F= -.23819367E+03 E0= -.23819367E+03  EK= 0.96508E+01 SP= 0.00E+00 SK= 0.00E+00
   1861 T=   556. E= -.22874864E+03 F= -.23817174E+03 E0= -.23817174E+03  EK= 0.94231E+01 SP= 0.00E+00 SK= 0.00E+00
   1862 T=   544. E= -.22895598E+03 F= -.23817082E+03 E0= -.23817082E+03  EK= 0.92148E+01 SP= 0.00E+00 SK= 0.00E+00
   1863 T=   540. E= -.22901503E+03 F= -.23815539E+03 E0= -.23815539E+03  EK= 0.91404E+01 SP= 0.00E+00 SK= 0.00E+00
   1864 T=   540. E= -.22900663E+03 F= -.23814230E+03 E0= -.23814230E+03  EK= 0.91357E+01 SP= 0.00E+00 SK= 0.00E+00
   1865 T=   550. E= -.22879771E+03 F= -.23811871E+03 E0= -.23811871E+03  EK= 0.93210E+01 SP= 0.00E+00 SK= 0.00E+00
   1866 T=   555. E= -.22872020E+03 F= -.23812570E+03 E0= -.23812570E+03  EK= 0.94055E+01 SP= 0.00E+00 SK= 0.00E+00
   1867 T=   575. E= -.22839582E+03 F= -.23813519E+03 E0= -.23813519E+03  EK= 0.97394E+01 SP= 0.00E+00 SK= 0.00E+00
   1868 T=   589. E= -.22815275E+03 F= -.23813428E+03 E0= -.23813428E+03  EK= 0.99815E+01 SP= 0.00E+00 SK= 0.00E+00
   1869 T=   592. E= -.22813277E+03 F= -.23815455E+03 E0= -.23815455E+03  EK= 0.10022E+02 SP= 0.00E+00 SK= 0.00E+00
   1870 T=   599. E= -.22802636E+03 F= -.23816550E+03 E0= -.23816550E+03  EK= 0.10139E+02 SP= 0.00E+00 SK= 0.00E+00
   1871 T=   598. E= -.22806215E+03 F= -.23819633E+03 E0= -.23819633E+03  EK= 0.10134E+02 SP= 0.00E+00 SK= 0.00E+00
   1872 T=   598. E= -.22811633E+03 F= -.23823869E+03 E0= -.23823869E+03  EK= 0.10122E+02 SP= 0.00E+00 SK= 0.00E+00
   1873 T=   604. E= -.22803821E+03 F= -.23826671E+03 E0= -.23826671E+03  EK= 0.10229E+02 SP= 0.00E+00 SK= 0.00E+00
   1874 T=   602. E= -.22806072E+03 F= -.23825204E+03 E0= -.23825204E+03  EK= 0.10191E+02 SP= 0.00E+00 SK= 0.00E+00
   1875 T=   610. E= -.22794581E+03 F= -.23828217E+03 E0= -.23828217E+03  EK= 0.10336E+02 SP= 0.00E+00 SK= 0.00E+00
   1876 T=   627. E= -.22769442E+03 F= -.23831230E+03 E0= -.23831230E+03  EK= 0.10618E+02 SP= 0.00E+00 SK= 0.00E+00
   1877 T=   626. E= -.22770279E+03 F= -.23829453E+03 E0= -.23829453E+03  EK= 0.10592E+02 SP= 0.00E+00 SK= 0.00E+00
   1878 T=   615. E= -.22789623E+03 F= -.23831010E+03 E0= -.23831010E+03  EK= 0.10414E+02 SP= 0.00E+00 SK= 0.00E+00
   1879 T=   615. E= -.22793317E+03 F= -.23833875E+03 E0= -.23833875E+03  EK= 0.10406E+02 SP= 0.00E+00 SK= 0.00E+00
   1880 T=   626. E= -.22774110E+03 F= -.23833639E+03 E0= -.23833639E+03  EK= 0.10595E+02 SP= 0.00E+00 SK= 0.00E+00
   1881 T=   642. E= -.22746217E+03 F= -.23833888E+03 E0= -.23833888E+03  EK= 0.10877E+02 SP= 0.00E+00 SK= 0.00E+00
   1882 T=   653. E= -.22726058E+03 F= -.23832335E+03 E0= -.23832335E+03  EK= 0.11063E+02 SP= 0.00E+00 SK= 0.00E+00
   1883 T=   644. E= -.22742956E+03 F= -.23832962E+03 E0= -.23832962E+03  EK= 0.10900E+02 SP= 0.00E+00 SK= 0.00E+00
   1884 T=   627. E= -.22771350E+03 F= -.23833601E+03 E0= -.23833601E+03  EK= 0.10623E+02 SP= 0.00E+00 SK= 0.00E+00
   1885 T=   623. E= -.22779166E+03 F= -.23834240E+03 E0= -.23834240E+03  EK= 0.10551E+02 SP= 0.00E+00 SK= 0.00E+00
   1886 T=   625. E= -.22778640E+03 F= -.23837320E+03 E0= -.23837320E+03  EK= 0.10587E+02 SP= 0.00E+00 SK= 0.00E+00
   1887 T=   631. E= -.22767229E+03 F= -.23836413E+03 E0= -.23836413E+03  EK= 0.10692E+02 SP= 0.00E+00 SK= 0.00E+00
   1888 T=   631. E= -.22771273E+03 F= -.23839492E+03 E0= -.23839492E+03  EK= 0.10682E+02 SP= 0.00E+00 SK= 0.00E+00
   1889 T=   640. E= -.22752765E+03 F= -.23836376E+03 E0= -.23836376E+03  EK= 0.10836E+02 SP= 0.00E+00 SK= 0.00E+00
   1890 T=   650. E= -.22734667E+03 F= -.23835452E+03 E0= -.23835452E+03  EK= 0.11008E+02 SP= 0.00E+00 SK= 0.00E+00
   1891 T=   649. E= -.22735926E+03 F= -.23834327E+03 E0= -.23834327E+03  EK= 0.10984E+02 SP= 0.00E+00 SK= 0.00E+00
   1892 T=   663. E= -.22710857E+03 F= -.23833620E+03 E0= -.23833620E+03  EK= 0.11228E+02 SP= 0.00E+00 SK= 0.00E+00
   1893 T=   676. E= -.22690298E+03 F= -.23834282E+03 E0= -.23834282E+03  EK= 0.11440E+02 SP= 0.00E+00 SK= 0.00E+00
   1894 T=   671. E= -.22697081E+03 F= -.23833984E+03 E0= -.23833984E+03  EK= 0.11369E+02 SP= 0.00E+00 SK= 0.00E+00
   1895 T=   666. E= -.22709525E+03 F= -.23836877E+03 E0= -.23836877E+03  EK= 0.11274E+02 SP= 0.00E+00 SK= 0.00E+00
   1896 T=   668. E= -.22706339E+03 F= -.23837341E+03 E0= -.23837341E+03  EK= 0.11310E+02 SP= 0.00E+00 SK= 0.00E+00
   1897 T=   661. E= -.22716072E+03 F= -.23834618E+03 E0= -.23834618E+03  EK= 0.11185E+02 SP= 0.00E+00 SK= 0.00E+00
   1898 T=   661. E= -.22715635E+03 F= -.23835583E+03 E0= -.23835583E+03  EK= 0.11199E+02 SP= 0.00E+00 SK= 0.00E+00
   1899 T=   670. E= -.22704392E+03 F= -.23838765E+03 E0= -.23838765E+03  EK= 0.11344E+02 SP= 0.00E+00 SK= 0.00E+00
   1900 T=   686. E= -.22679517E+03 F= -.23840849E+03 E0= -.23840849E+03  EK= 0.11613E+02 SP= 0.00E+00 SK= 0.00E+00
   1901 T=   702. E= -.22652236E+03 F= -.23841114E+03 E0= -.23841114E+03  EK= 0.11889E+02 SP= 0.00E+00 SK= 0.00E+00
   1902 T=   702. E= -.22650382E+03 F= -.23839565E+03 E0= -.23839565E+03  EK= 0.11892E+02 SP= 0.00E+00 SK= 0.00E+00
   1903 T=   691. E= -.22668611E+03 F= -.23839517E+03 E0= -.23839517E+03  EK= 0.11709E+02 SP= 0.00E+00 SK= 0.00E+00
   1904 T=   676. E= -.22696676E+03 F= -.23840935E+03 E0= -.23840935E+03  EK= 0.11443E+02 SP= 0.00E+00 SK= 0.00E+00
   1905 T=   665. E= -.22718870E+03 F= -.23845547E+03 E0= -.23845547E+03  EK= 0.11267E+02 SP= 0.00E+00 SK= 0.00E+00
   1906 T=   669. E= -.22715211E+03 F= -.23848786E+03 E0= -.23848786E+03  EK= 0.11336E+02 SP= 0.00E+00 SK= 0.00E+00
   1907 T=   669. E= -.22718283E+03 F= -.23850764E+03 E0= -.23850764E+03  EK= 0.11325E+02 SP= 0.00E+00 SK= 0.00E+00
   1908 T=   657. E= -.22736422E+03 F= -.23849379E+03 E0= -.23849379E+03  EK= 0.11130E+02 SP= 0.00E+00 SK= 0.00E+00
   1909 T=   661. E= -.22735145E+03 F= -.23854839E+03 E0= -.23854839E+03  EK= 0.11197E+02 SP= 0.00E+00 SK= 0.00E+00
   1910 T=   656. E= -.22746245E+03 F= -.23856645E+03 E0= -.23856645E+03  EK= 0.11104E+02 SP= 0.00E+00 SK= 0.00E+00
   1911 T=   639. E= -.22775224E+03 F= -.23856678E+03 E0= -.23856678E+03  EK= 0.10815E+02 SP= 0.00E+00 SK= 0.00E+00
   1912 T=   626. E= -.22793756E+03 F= -.23853045E+03 E0= -.23853045E+03  EK= 0.10593E+02 SP= 0.00E+00 SK= 0.00E+00
   1913 T=   619. E= -.22803819E+03 F= -.23852093E+03 E0= -.23852093E+03  EK= 0.10483E+02 SP= 0.00E+00 SK= 0.00E+00
   1914 T=   619. E= -.22803874E+03 F= -.23852683E+03 E0= -.23852683E+03  EK= 0.10488E+02 SP= 0.00E+00 SK= 0.00E+00
   1915 T=   622. E= -.22793282E+03 F= -.23847035E+03 E0= -.23847035E+03  EK= 0.10538E+02 SP= 0.00E+00 SK= 0.00E+00
   1916 T=   611. E= -.22810232E+03 F= -.23845641E+03 E0= -.23845641E+03  EK= 0.10354E+02 SP= 0.00E+00 SK= 0.00E+00
   1917 T=   604. E= -.22821278E+03 F= -.23844454E+03 E0= -.23844454E+03  EK= 0.10232E+02 SP= 0.00E+00 SK= 0.00E+00
   1918 T=   611. E= -.22808645E+03 F= -.23843368E+03 E0= -.23843368E+03  EK= 0.10347E+02 SP= 0.00E+00 SK= 0.00E+00
   1919 T=   616. E= -.22798626E+03 F= -.23842412E+03 E0= -.23842412E+03  EK= 0.10438E+02 SP= 0.00E+00 SK= 0.00E+00
   1920 T=   615. E= -.22799877E+03 F= -.23841605E+03 E0= -.23841605E+03  EK= 0.10417E+02 SP= 0.00E+00 SK= 0.00E+00
   1921 T=   614. E= -.22804606E+03 F= -.23844254E+03 E0= -.23844254E+03  EK= 0.10396E+02 SP= 0.00E+00 SK= 0.00E+00
   1922 T=   621. E= -.22793545E+03 F= -.23844255E+03 E0= -.23844255E+03  EK= 0.10507E+02 SP= 0.00E+00 SK= 0.00E+00
   1923 T=   630. E= -.22777919E+03 F= -.23843873E+03 E0= -.23843873E+03  EK= 0.10660E+02 SP= 0.00E+00 SK= 0.00E+00
   1924 T=   632. E= -.22775103E+03 F= -.23845606E+03 E0= -.23845606E+03  EK= 0.10705E+02 SP= 0.00E+00 SK= 0.00E+00
   1925 T=   628. E= -.22782136E+03 F= -.23845990E+03 E0= -.23845990E+03  EK= 0.10639E+02 SP= 0.00E+00 SK= 0.00E+00
   1926 T=   625. E= -.22788590E+03 F= -.23846150E+03 E0= -.23846150E+03  EK= 0.10576E+02 SP= 0.00E+00 SK= 0.00E+00
   1927 T=   624. E= -.22785236E+03 F= -.23841608E+03 E0= -.23841608E+03  EK= 0.10564E+02 SP= 0.00E+00 SK= 0.00E+00
   1928 T=   626. E= -.22779560E+03 F= -.23839835E+03 E0= -.23839835E+03  EK= 0.10603E+02 SP= 0.00E+00 SK= 0.00E+00
   1929 T=   627. E= -.22780533E+03 F= -.23842309E+03 E0= -.23842309E+03  EK= 0.10618E+02 SP= 0.00E+00 SK= 0.00E+00
   1930 T=   625. E= -.22783761E+03 F= -.23841912E+03 E0= -.23841912E+03  EK= 0.10582E+02 SP= 0.00E+00 SK= 0.00E+00
   1931 T=   620. E= -.22791462E+03 F= -.23841800E+03 E0= -.23841800E+03  EK= 0.10503E+02 SP= 0.00E+00 SK= 0.00E+00
   1932 T=   609. E= -.22810182E+03 F= -.23841207E+03 E0= -.23841207E+03  EK= 0.10310E+02 SP= 0.00E+00 SK= 0.00E+00
   1933 T=   589. E= -.22843070E+03 F= -.23840726E+03 E0= -.23840726E+03  EK= 0.99766E+01 SP= 0.00E+00 SK= 0.00E+00
   1934 T=   587. E= -.22847169E+03 F= -.23841907E+03 E0= -.23841907E+03  EK= 0.99474E+01 SP= 0.00E+00 SK= 0.00E+00
   1935 T=   609. E= -.22812986E+03 F= -.23844398E+03 E0= -.23844398E+03  EK= 0.10314E+02 SP= 0.00E+00 SK= 0.00E+00
   1936 T=   621. E= -.22792315E+03 F= -.23844152E+03 E0= -.23844152E+03  EK= 0.10518E+02 SP= 0.00E+00 SK= 0.00E+00
   1937 T=   613. E= -.22805942E+03 F= -.23844224E+03 E0= -.23844224E+03  EK= 0.10383E+02 SP= 0.00E+00 SK= 0.00E+00
   1938 T=   606. E= -.22820021E+03 F= -.23845974E+03 E0= -.23845974E+03  EK= 0.10260E+02 SP= 0.00E+00 SK= 0.00E+00
   1939 T=   599. E= -.22831610E+03 F= -.23846546E+03 E0= -.23846546E+03  EK= 0.10149E+02 SP= 0.00E+00 SK= 0.00E+00
   1940 T=   590. E= -.22848096E+03 F= -.23847534E+03 E0= -.23847534E+03  EK= 0.99944E+01 SP= 0.00E+00 SK= 0.00E+00
   1941 T=   596. E= -.22838707E+03 F= -.23848288E+03 E0= -.23848288E+03  EK= 0.10096E+02 SP= 0.00E+00 SK= 0.00E+00
   1942 T=   600. E= -.22833015E+03 F= -.23849087E+03 E0= -.23849087E+03  EK= 0.10161E+02 SP= 0.00E+00 SK= 0.00E+00
   1943 T=   595. E= -.22841728E+03 F= -.23849643E+03 E0= -.23849643E+03  EK= 0.10079E+02 SP= 0.00E+00 SK= 0.00E+00
   1944 T=   591. E= -.22849027E+03 F= -.23850013E+03 E0= -.23850013E+03  EK= 0.10010E+02 SP= 0.00E+00 SK= 0.00E+00
   1945 T=   603. E= -.22827230E+03 F= -.23847612E+03 E0= -.23847612E+03  EK= 0.10204E+02 SP= 0.00E+00 SK= 0.00E+00
   1946 T=   597. E= -.22837985E+03 F= -.23849099E+03 E0= -.23849099E+03  EK= 0.10111E+02 SP= 0.00E+00 SK= 0.00E+00
   1947 T=   580. E= -.22868904E+03 F= -.23851475E+03 E0= -.23851475E+03  EK= 0.98257E+01 SP= 0.00E+00 SK= 0.00E+00
   1948 T=   583. E= -.22861763E+03 F= -.23849488E+03 E0= -.23849488E+03  EK= 0.98773E+01 SP= 0.00E+00 SK= 0.00E+00
   1949 T=   588. E= -.22853201E+03 F= -.23848614E+03 E0= -.23848614E+03  EK= 0.99541E+01 SP= 0.00E+00 SK= 0.00E+00
   1950 T=   594. E= -.22841604E+03 F= -.23846979E+03 E0= -.23846979E+03  EK= 0.10054E+02 SP= 0.00E+00 SK= 0.00E+00
   1951 T=   594. E= -.22838553E+03 F= -.23845001E+03 E0= -.23845001E+03  EK= 0.10064E+02 SP= 0.00E+00 SK= 0.00E+00
   1952 T=   587. E= -.22850543E+03 F= -.23844270E+03 E0= -.23844270E+03  EK= 0.99373E+01 SP= 0.00E+00 SK= 0.00E+00
   1953 T=   585. E= -.22848893E+03 F= -.23840324E+03 E0= -.23840324E+03  EK= 0.99143E+01 SP= 0.00E+00 SK= 0.00E+00
   1954 T=   586. E= -.22848933E+03 F= -.23840697E+03 E0= -.23840697E+03  EK= 0.99176E+01 SP= 0.00E+00 SK= 0.00E+00
   1955 T=   591. E= -.22837107E+03 F= -.23837621E+03 E0= -.23837621E+03  EK= 0.10005E+02 SP= 0.00E+00 SK= 0.00E+00
   1956 T=   586. E= -.22841247E+03 F= -.23834197E+03 E0= -.23834197E+03  EK= 0.99295E+01 SP= 0.00E+00 SK= 0.00E+00
   1957 T=   562. E= -.22875324E+03 F= -.23827654E+03 E0= -.23827654E+03  EK= 0.95233E+01 SP= 0.00E+00 SK= 0.00E+00
   1958 T=   556. E= -.22884183E+03 F= -.23824832E+03 E0= -.23824832E+03  EK= 0.94065E+01 SP= 0.00E+00 SK= 0.00E+00
   1959 T=   564. E= -.22867372E+03 F= -.23822294E+03 E0= -.23822294E+03  EK= 0.95492E+01 SP= 0.00E+00 SK= 0.00E+00
   1960 T=   569. E= -.22857835E+03 F= -.23820555E+03 E0= -.23820555E+03  EK= 0.96272E+01 SP= 0.00E+00 SK= 0.00E+00
   1961 T=   567. E= -.22859058E+03 F= -.23819893E+03 E0= -.23819893E+03  EK= 0.96083E+01 SP= 0.00E+00 SK= 0.00E+00
   1962 T=   558. E= -.22874345E+03 F= -.23819999E+03 E0= -.23819999E+03  EK= 0.94565E+01 SP= 0.00E+00 SK= 0.00E+00
   1963 T=   560. E= -.22870946E+03 F= -.23818465E+03 E0= -.23818465E+03  EK= 0.94752E+01 SP= 0.00E+00 SK= 0.00E+00
   1964 T=   582. E= -.22831704E+03 F= -.23816908E+03 E0= -.23816908E+03  EK= 0.98520E+01 SP= 0.00E+00 SK= 0.00E+00
   1965 T=   588. E= -.22820756E+03 F= -.23816052E+03 E0= -.23816052E+03  EK= 0.99530E+01 SP= 0.00E+00 SK= 0.00E+00
   1966 T=   591. E= -.22819010E+03 F= -.23819597E+03 E0= -.23819597E+03  EK= 0.10006E+02 SP= 0.00E+00 SK= 0.00E+00
   1967 T=   603. E= -.22803819E+03 F= -.23824070E+03 E0= -.23824070E+03  EK= 0.10203E+02 SP= 0.00E+00 SK= 0.00E+00
   1968 T=   609. E= -.22793681E+03 F= -.23825061E+03 E0= -.23825061E+03  EK= 0.10314E+02 SP= 0.00E+00 SK= 0.00E+00
   1969 T=   613. E= -.22790321E+03 F= -.23827745E+03 E0= -.23827745E+03  EK= 0.10374E+02 SP= 0.00E+00 SK= 0.00E+00
   1970 T=   616. E= -.22787278E+03 F= -.23830151E+03 E0= -.23830151E+03  EK= 0.10429E+02 SP= 0.00E+00 SK= 0.00E+00
   1971 T=   624. E= -.22776501E+03 F= -.23832677E+03 E0= -.23832677E+03  EK= 0.10562E+02 SP= 0.00E+00 SK= 0.00E+00
   1972 T=   641. E= -.22748468E+03 F= -.23833995E+03 E0= -.23833995E+03  EK= 0.10855E+02 SP= 0.00E+00 SK= 0.00E+00
   1973 T=   641. E= -.22748578E+03 F= -.23834242E+03 E0= -.23834242E+03  EK= 0.10857E+02 SP= 0.00E+00 SK= 0.00E+00
   1974 T=   634. E= -.22759175E+03 F= -.23832583E+03 E0= -.23832583E+03  EK= 0.10734E+02 SP= 0.00E+00 SK= 0.00E+00
   1975 T=   637. E= -.22752699E+03 F= -.23831080E+03 E0= -.23831080E+03  EK= 0.10784E+02 SP= 0.00E+00 SK= 0.00E+00
   1976 T=   630. E= -.22764558E+03 F= -.23830958E+03 E0= -.23830958E+03  EK= 0.10664E+02 SP= 0.00E+00 SK= 0.00E+00
   1977 T=   618. E= -.22782221E+03 F= -.23829295E+03 E0= -.23829295E+03  EK= 0.10471E+02 SP= 0.00E+00 SK= 0.00E+00
   1978 T=   625. E= -.22769693E+03 F= -.23828716E+03 E0= -.23828716E+03  EK= 0.10590E+02 SP= 0.00E+00 SK= 0.00E+00
   1979 T=   642. E= -.22741239E+03 F= -.23827970E+03 E0= -.23827970E+03  EK= 0.10867E+02 SP= 0.00E+00 SK= 0.00E+00
   1980 T=   639. E= -.22744224E+03 F= -.23825528E+03 E0= -.23825528E+03  EK= 0.10813E+02 SP= 0.00E+00 SK= 0.00E+00
   1981 T=   630. E= -.22758038E+03 F= -.23824770E+03 E0= -.23824770E+03  EK= 0.10667E+02 SP= 0.00E+00 SK= 0.00E+00
   1982 T=   639. E= -.22745109E+03 F= -.23826380E+03 E0= -.23826380E+03  EK= 0.10813E+02 SP= 0.00E+00 SK= 0.00E+00
   1983 T=   647. E= -.22727360E+03 F= -.23823058E+03 E0= -.23823058E+03  EK= 0.10957E+02 SP= 0.00E+00 SK= 0.00E+00
   1984 T=   645. E= -.22730633E+03 F= -.23822178E+03 E0= -.23822178E+03  EK= 0.10915E+02 SP= 0.00E+00 SK= 0.00E+00
   1985 T=   650. E= -.22720199E+03 F= -.23821498E+03 E0= -.23821498E+03  EK= 0.11013E+02 SP= 0.00E+00 SK= 0.00E+00
   1986 T=   659. E= -.22703220E+03 F= -.23819548E+03 E0= -.23819548E+03  EK= 0.11163E+02 SP= 0.00E+00 SK= 0.00E+00
   1987 T=   653. E= -.22711033E+03 F= -.23817175E+03 E0= -.23817175E+03  EK= 0.11061E+02 SP= 0.00E+00 SK= 0.00E+00
       N       E                     dE             d eps       ncg     rms          rms(c)
RMM:   1    -0.255919345884E+03    0.39615E+02   -0.13486E+03   129   0.193E+01
RMM:   2    -0.295114157079E+03   -0.39195E+02   -0.34888E+02   129   0.101E+01
RMM:   3    -0.309159325621E+03   -0.14045E+02   -0.10124E+02   129   0.654E+00
RMM:   4    -0.314045458064E+03   -0.48861E+01   -0.42277E+01   292   0.359E+00
RMM:   5    -0.315145982936E+03   -0.11005E+01   -0.10158E+01   304   0.169E+00    0.219E+01
RMM:   6    -0.305927995671E+03    0.92180E+01   -0.17349E+01   271   0.245E+00    0.128E+01
RMM:   7    -0.309596773200E+03   -0.36688E+01   -0.17718E+01   297   0.211E+00    0.957E+00
RMM:   8    -0.302197534834E+03    0.73992E+01   -0.62949E+00   260   0.148E+00    0.572E+00
RMM:   9    -0.301585454837E+03    0.61208E+00   -0.26936E+00   260   0.103E+00    0.533E+00
RMM:  10    -0.301380384101E+03    0.20507E+00   -0.10809E+00   267   0.671E-01    0.359E+00
RMM:  11    -0.301464927491E+03   -0.84543E-01   -0.73781E-01   259   0.558E-01    0.299E+00
RMM:  12    -0.301691117431E+03   -0.22619E+00   -0.57677E-01   258   0.513E-01    0.280E+00
RMM:  13    -0.301718297682E+03   -0.27180E-01   -0.41331E-01   258   0.440E-01    0.183E+00
RMM:  14    -0.301884034781E+03   -0.16574E+00   -0.26984E-01   258   0.370E-01    0.174E+00
RMM:  15    -0.301974343217E+03   -0.90308E-01   -0.18095E-01   258   0.307E-01    0.149E+00
RMM:  16    -0.302003444363E+03   -0.29101E-01   -0.12381E-01   258   0.258E-01    0.868E-01
RMM:  17    -0.302044284380E+03   -0.40840E-01   -0.74071E-02   258   0.203E-01    0.993E-01
RMM:  18    -0.302048348472E+03   -0.40641E-02   -0.30608E-02   249   0.128E-01
   1988 T=   673. E= -.29064800E+03 F= -.30204835E+03 E0= -.30202674E+03  EK= 0.11400E+02 SP= 0.00E+00 SK= 0.00E+00
   1989 T=   751. E= -.22538666E+03 F= -.23810091E+03 E0= -.23810091E+03  EK= 0.12714E+02 SP= 0.00E+00 SK= 0.00E+00
   1990 T=   752. E= -.22535638E+03 F= -.23808392E+03 E0= -.23808392E+03  EK= 0.12728E+02 SP= 0.00E+00 SK= 0.00E+00
   1991 T=   743. E= -.22550580E+03 F= -.23808940E+03 E0= -.23808940E+03  EK= 0.12584E+02 SP= 0.00E+00 SK= 0.00E+00
   1992 T=   727. E= -.22580807E+03 F= -.23811743E+03 E0= -.23811743E+03  EK= 0.12309E+02 SP= 0.00E+00 SK= 0.00E+00
   1993 T=   704. E= -.22620707E+03 F= -.23812158E+03 E0= -.23812158E+03  EK= 0.11915E+02 SP= 0.00E+00 SK= 0.00E+00
   1994 T=   700. E= -.22629033E+03 F= -.23814483E+03 E0= -.23814483E+03  EK= 0.11855E+02 SP= 0.00E+00 SK= 0.00E+00
   1995 T=   715. E= -.22609233E+03 F= -.23820481E+03 E0= -.23820481E+03  EK= 0.12112E+02 SP= 0.00E+00 SK= 0.00E+00
   1996 T=   729. E= -.22588632E+03 F= -.23822276E+03 E0= -.23822276E+03  EK= 0.12336E+02 SP= 0.00E+00 SK= 0.00E+00
   1997 T=   727. E= -.22594739E+03 F= -.23825332E+03 E0= -.23825332E+03  EK= 0.12306E+02 SP= 0.00E+00 SK= 0.00E+00
   1998 T=   716. E= -.22613460E+03 F= -.23826712E+03 E0= -.23826712E+03  EK= 0.12133E+02 SP= 0.00E+00 SK= 0.00E+00
   1999 T=   714. E= -.22623410E+03 F= -.23833101E+03 E0= -.23833101E+03  EK= 0.12097E+02 SP= 0.00E+00 SK= 0.00E+00
   2000 T=   703. E= -.22648982E+03 F= -.23840011E+03 E0= -.23840011E+03  EK= 0.11910E+02 SP= 0.00E+00 SK= 0.00E+00
