 running   12 mpi-ranks, on    1 nodes
 distrk:  each k-point on   12 cores,    1 groups
 distr:  one band on    1 cores,   12 groups
 vasp.6.6.0 06Mar2026 (build Jun 23 2026 14:11:56) gamma-only                   
  
 POSCAR found type information on POSCAR Li
 POSCAR found :  1 types and     128 ions
 scaLAPACK will be used
 -----------------------------------------------------------------------------
|                                                                             |
|           W    W    AA    RRRRR   N    N  II  N    N   GGGG   !!!           |
|           W    W   A  A   R    R  NN   N  II  NN   N  G    G  !!!           |
|           W    W  A    A  R    R  N N  N  II  N N  N  G       !!!           |
|           W WW W  AAAAAA  RRRRR   N  N N  II  N  N N  G  GGG   !            |
|           WW  WW  A    A  R   R   N   NN  II  N   NN  G    G                |
|           W    W  A    A  R    R  N    N  II  N    N   GGGG   !!!           |
|                                                                             |
|     For optimal performance we recommend to set                             |
|       NCORE = 2 up to number-of-cores-per-socket                            |
|     NCORE specifies how many cores store one orbital (NPAR=cpu/NCORE).      |
|     This setting can greatly improve the performance of VASP for DFT.       |
|     The default, NCORE=1 might be grossly inefficient on modern             |
|     multi-core architectures or massively parallel machines. Do your        |
|     own testing! More info at https://www.vasp.at/wiki/index.php/NCORE      |
|     Unfortunately you need to use the default for GW and RPA                |
|     calculations (for HF NCORE is supported but not extensively tested      |
|     yet).                                                                   |
|                                                                             |
 -----------------------------------------------------------------------------

 LDA part: xc-table for (Slater+PW92), standard interpolation
 Machine learning feature enabled
 Passing communicator to machine learning
 Initializing machine learning...
 - Setting up scaLAPACK grid
 - Starting setup for ML_MODE = train
 - No ML_AB file present, starting from scratch
 - Set file names and create output files
 - Determine present atom types
 - Setting up force field parameters
 - Estimating memory consumption
 - Allocating main work arrays
 - Preparing memory for new training data
 - Preparing spherical harmonics calculator
 Completed machine learning initialization
 POSCAR, INCAR and KPOINTS ok, starting setup
 FFT: planning ... GRIDC
 FFT: planning ... GRID_SOFT
 FFT: planning ... GRID
 WAVECAR not read
 WARNING: random wavefunctions but no delay for mixing, default for NELMDL
 entering main loop
       N       E                     dE             d eps       ncg     rms          rms(c)
DAV:   1    -0.176576810103E+02   -0.17658E+02   -0.26265E+04   264   0.453E+02
DAV:   2    -0.217074492218E+03   -0.19942E+03   -0.17135E+03   384   0.650E+01
DAV:   3    -0.238320215872E+03   -0.21246E+02   -0.18688E+02   336   0.160E+01
DAV:   4    -0.239123296528E+03   -0.80308E+00   -0.77851E+00   312   0.361E+00
DAV:   5    -0.239138692208E+03   -0.15396E-01   -0.15374E-01   312   0.573E-01    0.152E+00
RMM:   6    -0.239013218855E+03    0.12547E+00   -0.98571E-03   264   0.168E-01    0.995E-01
RMM:   7    -0.238932123271E+03    0.81096E-01   -0.18309E-02   264   0.249E-01    0.460E-02
RMM:   8    -0.238930117262E+03    0.20060E-02   -0.22661E-03   264   0.128E-01    0.231E-02
RMM:   9    -0.238929650804E+03    0.46646E-03   -0.56468E-04   264   0.480E-02    0.833E-03
RMM:  10    -0.238929636338E+03    0.14466E-04   -0.59693E-05   182   0.179E-02
      1 T=   600. E= -.22907997E+03 F= -.23892964E+03 E0= -.23874580E+03  EK= 0.98497E+01 SP= 0.00E+00 SK= 0.00E+00
 bond charge predicted
       N       E                     dE             d eps       ncg     rms          rms(c)
DAV:   1    -0.238919414138E+03    0.10237E-01   -0.27048E+00   264   0.257E+00    0.808E-01
RMM:   2    -0.238897637316E+03    0.21777E-01   -0.20558E-01   264   0.582E-01    0.673E-01
RMM:   3    -0.238863543761E+03    0.34094E-01   -0.38822E-02   264   0.334E-01    0.145E-01
RMM:   4    -0.238862963782E+03    0.57998E-03   -0.95363E-03   264   0.179E-01    0.671E-02
RMM:   5    -0.238862914898E+03    0.48884E-04   -0.23637E-03   266   0.990E-02    0.405E-02
RMM:   6    -0.238862926648E+03   -0.11750E-04   -0.70510E-04   257   0.542E-02
      2 T=   596. E= -.22907843E+03 F= -.23886293E+03 E0= -.23868254E+03  EK= 0.97845E+01 SP= -.10E-06 SK= 0.86E-13
      3 T=   584. E= -.22907920E+03 F= -.23867051E+03 E0= -.23867051E+03  EK= 0.95929E+01 SP= -.16E-02 SK= 0.21E-04
 bond charge predicted
       N       E                     dE             d eps       ncg     rms          rms(c)
DAV:   1    -0.238571383949E+03    0.29153E+00   -0.10609E+01   264   0.508E+00
DAV:   2    -0.238607419353E+03   -0.36035E-01   -0.36034E-01   324   0.976E-01
DAV:   3    -0.238608123156E+03   -0.70380E-03   -0.70380E-03   336   0.152E-01
DAV:   4    -0.238608146048E+03   -0.22892E-04   -0.22892E-04   288   0.269E-02
DAV:   5    -0.238608147620E+03   -0.15719E-05   -0.15723E-05   216   0.818E-03    0.143E+00
RMM:   6    -0.238472332932E+03    0.13581E+00   -0.36458E-01   264   0.432E-01    0.105E+00
RMM:   7    -0.238381355321E+03    0.90978E-01   -0.70591E-02   264   0.305E-01    0.304E-01
RMM:   8    -0.238376200301E+03    0.51550E-02   -0.20695E-02   264   0.152E-01    0.147E-01
RMM:   9    -0.238374920811E+03    0.12795E-02   -0.43609E-03   264   0.813E-02    0.768E-02
RMM:  10    -0.238374819100E+03    0.10171E-03   -0.11406E-03   263   0.489E-02    0.422E-02
RMM:  11    -0.238374799238E+03    0.19862E-04   -0.30091E-04   235   0.252E-02
      4 T=   566. E= -.22909052E+03 F= -.23837480E+03 E0= -.23821913E+03  EK= 0.92935E+01 SP= -.95E-02 SK= 0.33E-03
 bond charge predicted
       N       E                     dE             d eps       ncg     rms          rms(c)
DAV:   1    -0.238006546757E+03    0.36827E+00   -0.25312E+00   264   0.248E+00    0.689E-01
RMM:   2    -0.237985303592E+03    0.21243E-01   -0.16190E-01   264   0.533E-01    0.523E-01
RMM:   3    -0.237964432797E+03    0.20871E-01   -0.29232E-02   264   0.302E-01    0.136E-01
RMM:   4    -0.237963854095E+03    0.57870E-03   -0.78479E-03   264   0.161E-01    0.752E-02
RMM:   5    -0.237963605693E+03    0.24840E-03   -0.20426E-03   264   0.900E-02    0.383E-02
RMM:   6    -0.237963629157E+03   -0.23464E-04   -0.61104E-04   257   0.496E-02
      5 T=   542. E= -.22909079E+03 F= -.23796363E+03 E0= -.23782568E+03  EK= 0.89021E+01 SP= -.31E-01 SK= 0.19E-02
 bond charge predicted
       N       E                     dE             d eps       ncg     rms          rms(c)
DAV:   1    -0.237489995055E+03    0.47361E+00   -0.24213E+00   288   0.242E+00    0.636E-01
RMM:   2    -0.237470577557E+03    0.19417E-01   -0.14689E-01   264   0.519E-01    0.460E-01
RMM:   3    -0.237454202827E+03    0.16375E-01   -0.25939E-02   264   0.292E-01    0.129E-01
RMM:   4    -0.237453653060E+03    0.54977E-03   -0.70832E-03   264   0.156E-01    0.749E-02
RMM:   5    -0.237453391881E+03    0.26118E-03   -0.19338E-03   264   0.873E-02    0.369E-02
RMM:   6    -0.237453413016E+03   -0.21134E-04   -0.56740E-04   257   0.474E-02
      6 T=   514. E= -.22909175E+03 F= -.23745341E+03 E0= -.23733377E+03  EK= 0.84305E+01 SP= -.76E-01 SK= 0.72E-02
 bond charge predicted
       N       E                     dE             d eps       ncg     rms          rms(c)
DAV:   1    -0.236889406374E+03    0.56399E+00   -0.22752E+00   264   0.235E+00    0.584E-01
RMM:   2    -0.236872155154E+03    0.17251E-01   -0.13063E-01   264   0.497E-01    0.404E-01
RMM:   3    -0.236859362694E+03    0.12792E-01   -0.22563E-02   264   0.278E-01    0.121E-01
RMM:   4    -0.236858824508E+03    0.53819E-03   -0.61613E-03   264   0.147E-01    0.717E-02
RMM:   5    -0.236858591499E+03    0.23301E-03   -0.17456E-03   264   0.826E-02    0.346E-02
RMM:   6    -0.236858608476E+03   -0.16976E-04   -0.49336E-04   257   0.444E-02
      7 T=   481. E= -.22909264E+03 F= -.23685861E+03 E0= -.23675602E+03  EK= 0.79012E+01 SP= -.16E+00 SK= 0.21E-01
 bond charge predicted
       N       E                     dE             d eps       ncg     rms          rms(c)
DAV:   1    -0.236222872853E+03    0.63572E+00   -0.21153E+00   288   0.227E+00    0.535E-01
RMM:   2    -0.236207966544E+03    0.14906E-01   -0.11548E-01   264   0.474E-01    0.354E-01
RMM:   3    -0.236197933013E+03    0.10034E-01   -0.19585E-02   264   0.264E-01    0.113E-01
RMM:   4    -0.236197392947E+03    0.54007E-03   -0.52823E-03   264   0.138E-01    0.670E-02
RMM:   5    -0.236197211497E+03    0.18145E-03   -0.15416E-03   264   0.777E-02    0.325E-02
RMM:   6    -0.236197226369E+03   -0.14872E-04   -0.43230E-04   257   0.416E-02
      8 T=   447. E= -.22909323E+03 F= -.23619723E+03 E0= -.23610954E+03  EK= 0.73382E+01 SP= -.28E+00 SK= 0.50E-01
 bond charge predicted
       N       E                     dE             d eps       ncg     rms          rms(c)
DAV:   1    -0.235512883449E+03    0.68433E+00   -0.19489E+00   264   0.218E+00    0.489E-01
RMM:   2    -0.235500352928E+03    0.12531E-01   -0.10148E-01   264   0.449E-01    0.314E-01
RMM:   3    -0.235492292612E+03    0.80603E-02   -0.16935E-02   264   0.249E-01    0.106E-01
RMM:   4    -0.235491755943E+03    0.53667E-03   -0.44821E-03   264   0.129E-01    0.614E-02
RMM:   5    -0.235491631719E+03    0.12422E-03   -0.13309E-03   264   0.726E-02    0.305E-02
RMM:   6    -0.235491645830E+03   -0.14111E-04   -0.38050E-04   255   0.388E-02
      9 T=   412. E= -.22909373E+03 F= -.23549165E+03 E0= -.23541668E+03  EK= 0.67681E+01 SP= -.47E+00 SK= 0.10E+00
 bond charge predicted
       N       E                     dE             d eps       ncg     rms          rms(c)
DAV:   1    -0.234784395904E+03    0.70724E+00   -0.17839E+00   288   0.209E+00    0.446E-01
RMM:   2    -0.234774161549E+03    0.10234E-01   -0.89026E-02   264   0.425E-01    0.282E-01
RMM:   3    -0.234767471857E+03    0.66897E-02   -0.14675E-02   264   0.233E-01    0.991E-02
RMM:   4    -0.234766957874E+03    0.51398E-03   -0.37857E-03   264   0.120E-01    0.558E-02
RMM:   5    -0.234766885218E+03    0.72656E-04   -0.11312E-03   264   0.676E-02    0.288E-02
RMM:   6    -0.234766898618E+03   -0.13400E-04   -0.32963E-04   252   0.362E-02
     10 T=   379. E= -.22909410E+03 F= -.23476690E+03 E0= -.23470278E+03  EK= 0.62180E+01 SP= -.74E+00 SK= 0.19E+00
 bond charge predicted
       N       E                     dE             d eps       ncg     rms          rms(c)
DAV:   1    -0.234063985040E+03    0.70290E+00   -0.16278E+00   264   0.199E+00    0.407E-01
RMM:   2    -0.234055866756E+03    0.81183E-02   -0.78021E-02   264   0.401E-01    0.257E-01
RMM:   3    -0.234050052135E+03    0.58146E-02   -0.12722E-02   264   0.219E-01    0.923E-02
RMM:   4    -0.234049583907E+03    0.46823E-03   -0.31861E-03   264   0.111E-01    0.505E-02
RMM:   5    -0.234049552469E+03    0.31438E-04   -0.94762E-04   264   0.628E-02
     11 T=   348. E= -.22909416E+03 F= -.23404955E+03 E0= -.23399474E+03  EK= 0.57153E+01 SP= -.11E+01 SK= 0.33E+00
 bond charge predicted
       N       E                     dE             d eps       ncg     rms          rms(c)
DAV:   1    -0.233379088651E+03    0.67050E+00   -0.14925E+00   288   0.191E+00    0.373E-01
RMM:   2    -0.233372918134E+03    0.61705E-02   -0.69126E-02   264   0.381E-01    0.241E-01
RMM:   3    -0.233367584538E+03    0.53336E-02   -0.11210E-02   264   0.207E-01    0.877E-02
RMM:   4    -0.233367188814E+03    0.39572E-03   -0.27392E-03   264   0.105E-01    0.482E-02
RMM:   5    -0.233367187942E+03    0.87171E-06   -0.80712E-04   264   0.588E-02
     12 T=   322. E= -.22909433E+03 F= -.23336719E+03 E0= -.23332026E+03  EK= 0.52874E+01 SP= -.16E+01 SK= 0.54E+00
 bond charge predicted
       N       E                     dE             d eps       ncg     rms          rms(c)
DAV:   1    -0.232755092151E+03    0.61210E+00   -0.13781E+00   264   0.184E+00    0.344E-01
RMM:   2    -0.232750447805E+03    0.46443E-02   -0.61604E-02   264   0.362E-01    0.227E-01
RMM:   3    -0.232745390359E+03    0.50574E-02   -0.99273E-03   264   0.195E-01    0.816E-02
RMM:   4    -0.232745062054E+03    0.32831E-03   -0.23465E-03   264   0.979E-02    0.444E-02
RMM:   5    -0.232745083080E+03   -0.21026E-04   -0.67907E-04   264   0.549E-02
     13 T=   302. E= -.22909414E+03 F= -.23274508E+03 E0= -.23270482E+03  EK= 0.49605E+01 SP= -.21E+01 SK= 0.81E+00
     14 T=   290. E= -.22907978E+03 F= -.23219165E+03 E0= -.23219165E+03  EK= 0.47601E+01 SP= -.28E+01 SK= 0.12E+01
     15 T=   287. E= -.22907768E+03 F= -.23175127E+03 E0= -.23175127E+03  EK= 0.47114E+01 SP= -.36E+01 SK= 0.16E+01
 bond charge predicted
       N       E                     dE             d eps       ncg     rms          rms(c)
DAV:   1    -0.231511345058E+03    0.12337E+01   -0.11224E+01   264   0.526E+00
DAV:   2    -0.231542960219E+03   -0.31615E-01   -0.31614E-01   324   0.948E-01
DAV:   3    -0.231543594224E+03   -0.63400E-03   -0.63400E-03   336   0.141E-01
DAV:   4    -0.231543613798E+03   -0.19574E-04   -0.19573E-04   252   0.261E-02
DAV:   5    -0.231543616393E+03   -0.25948E-05   -0.25945E-05   180   0.116E-02    0.874E-01
RMM:   6    -0.231492086788E+03    0.51530E-01   -0.17084E-01   264   0.283E-01    0.594E-01
RMM:   7    -0.231446280476E+03    0.45806E-01   -0.26367E-02   264   0.195E-01    0.200E-01
RMM:   8    -0.231443367799E+03    0.29127E-02   -0.44731E-03   264   0.859E-02    0.998E-02
RMM:   9    -0.231443302223E+03    0.65576E-04   -0.14241E-03   264   0.469E-02    0.613E-02
RMM:  10    -0.231443286105E+03    0.16118E-04   -0.45914E-04   245   0.297E-02
     16 T=   295. E= -.22909298E+03 F= -.23144329E+03 E0= -.23141674E+03  EK= 0.48414E+01 SP= -.46E+01 SK= 0.21E+01
     17 T=   316. E= -.22907321E+03 F= -.23122543E+03 E0= -.23122543E+03  EK= 0.51807E+01 SP= -.56E+01 SK= 0.26E+01
     18 T=   350. E= -.22906943E+03 F= -.23114504E+03 E0= -.23114504E+03  EK= 0.57537E+01 SP= -.68E+01 SK= 0.31E+01
     19 T=   401. E= -.22906546E+03 F= -.23117068E+03 E0= -.23117068E+03  EK= 0.65787E+01 SP= -.81E+01 SK= 0.36E+01
 bond charge predicted
       N       E                     dE             d eps       ncg     rms          rms(c)
DAV:   1    -0.231410231608E+03    0.33071E-01   -0.24875E+01   264   0.780E+00
DAV:   2    -0.231483572847E+03   -0.73341E-01   -0.73336E-01   324   0.142E+00
DAV:   3    -0.231485019504E+03   -0.14467E-02   -0.14467E-02   336   0.213E-01
DAV:   4    -0.231485070612E+03   -0.51108E-04   -0.51109E-04   324   0.387E-02
DAV:   5    -0.231485072260E+03   -0.16475E-05   -0.16470E-05   216   0.792E-03    0.134E+00
RMM:   6    -0.231367574311E+03    0.11750E+00   -0.33620E-01   264   0.403E-01    0.892E-01
RMM:   7    -0.231259870169E+03    0.10770E+00   -0.58780E-02   264   0.279E-01    0.324E-01
RMM:   8    -0.231252855030E+03    0.70151E-02   -0.16927E-02   264   0.144E-01    0.152E-01
RMM:   9    -0.231252428196E+03    0.42683E-03   -0.49663E-03   264   0.820E-02    0.867E-02
RMM:  10    -0.231252271789E+03    0.15641E-03   -0.14597E-03   263   0.511E-02    0.481E-02
RMM:  11    -0.231252287268E+03   -0.15479E-04   -0.43591E-04   247   0.289E-02
     20 T=   467. E= -.22904366E+03 F= -.23125229E+03 E0= -.23123370E+03  EK= 0.76595E+01 SP= -.94E+01 SK= 0.40E+01
     21 T=   548. E= -.22901332E+03 F= -.23137483E+03 E0= -.23137483E+03  EK= 0.90013E+01 SP= -.11E+02 SK= 0.42E+01
     22 T=   645. E= -.22901314E+03 F= -.23154456E+03 E0= -.23154456E+03  EK= 0.10592E+02 SP= -.12E+02 SK= 0.42E+01
     23 T=   754. E= -.22901651E+03 F= -.23168246E+03 E0= -.23168246E+03  EK= 0.12373E+02 SP= -.14E+02 SK= 0.40E+01
     24 T=   868. E= -.22902444E+03 F= -.23173824E+03 E0= -.23173824E+03  EK= 0.14249E+02 SP= -.15E+02 SK= 0.35E+01
 bond charge predicted
       N       E                     dE             d eps       ncg     rms          rms(c)
DAV:   1    -0.232108645280E+03   -0.85637E+00   -0.79392E+01   264   0.139E+01
DAV:   2    -0.232378339346E+03   -0.26969E+00   -0.26960E+00   336   0.265E+00
DAV:   3    -0.232383557670E+03   -0.52183E-02   -0.52182E-02   336   0.405E-01
DAV:   4    -0.232383740077E+03   -0.18241E-03   -0.18241E-03   336   0.715E-02
DAV:   5    -0.232383745927E+03   -0.58503E-05   -0.58501E-05   240   0.150E-02    0.247E+00
RMM:   6    -0.231858509054E+03    0.52524E+00   -0.94131E-01   264   0.696E-01    0.149E+00
RMM:   7    -0.231588166840E+03    0.27034E+00   -0.19149E-01   264   0.483E-01    0.682E-01
RMM:   8    -0.231547448194E+03    0.40719E-01   -0.11084E-01   264   0.321E-01    0.241E-01
RMM:   9    -0.231546591024E+03    0.85717E-03   -0.24230E-02   264   0.190E-01    0.128E-01
RMM:  10    -0.231546357719E+03    0.23331E-03   -0.65165E-03   266   0.111E-01    0.742E-02
RMM:  11    -0.231546361198E+03   -0.34788E-05   -0.17438E-03   269   0.600E-02    0.356E-02
RMM:  12    -0.231546416926E+03   -0.55728E-04   -0.57798E-04   261   0.368E-02
     25 T=   978. E= -.22895312E+03 F= -.23154642E+03 E0= -.23153368E+03  EK= 0.16047E+02 SP= -.16E+02 SK= 0.28E+01
     26 T=  1071. E= -.22885965E+03 F= -.23112581E+03 E0= -.23112581E+03  EK= 0.17588E+02 SP= -.17E+02 SK= 0.21E+01
     27 T=  1140. E= -.22887342E+03 F= -.23060320E+03 E0= -.23060320E+03  EK= 0.18718E+02 SP= -.18E+02 SK= 0.13E+01
 bond charge predicted
       N       E                     dE             d eps       ncg     rms          rms(c)
DAV:   1    -0.230208546252E+03    0.13378E+01   -0.46310E+01   264   0.106E+01
DAV:   2    -0.230364996371E+03   -0.15645E+00   -0.15642E+00   336   0.202E+00
DAV:   3    -0.230368146299E+03   -0.31499E-02   -0.31499E-02   336   0.313E-01
DAV:   4    -0.230368256629E+03   -0.11033E-03   -0.11033E-03   336   0.553E-02
DAV:   5    -0.230368260177E+03   -0.35485E-05   -0.35486E-05   228   0.117E-02    0.181E+00
RMM:   6    -0.230053800679E+03    0.31446E+00   -0.48026E-01   264   0.504E-01    0.105E+00
RMM:   7    -0.229929157342E+03    0.12464E+00   -0.10337E-01   264   0.351E-01    0.509E-01
RMM:   8    -0.229904350929E+03    0.24806E-01   -0.66110E-02   264   0.246E-01    0.169E-01
RMM:   9    -0.229903960008E+03    0.39092E-03   -0.14292E-02   264   0.147E-01    0.811E-02
RMM:  10    -0.229904039690E+03   -0.79682E-04   -0.36650E-03   270   0.850E-02    0.484E-02
RMM:  11    -0.229904038306E+03    0.13834E-05   -0.94338E-04   263   0.451E-02
     28 T=  1173. E= -.22894671E+03 F= -.22990404E+03 E0= -.22989574E+03  EK= 0.19264E+02 SP= -.19E+02 SK= 0.65E+00
     29 T=  1167. E= -.22881391E+03 F= -.22878371E+03 E0= -.22878371E+03  EK= 0.19152E+02 SP= -.19E+02 SK= 0.22E+00
 bond charge predicted
       N       E                     dE             d eps       ncg     rms          rms(c)
DAV:   1    -0.227908810412E+03    0.19952E+01   -0.21945E+01   264   0.730E+00
DAV:   2    -0.227981124440E+03   -0.72314E-01   -0.72308E-01   336   0.137E+00
DAV:   3    -0.227982609637E+03   -0.14852E-02   -0.14852E-02   336   0.213E-01
DAV:   4    -0.227982661790E+03   -0.52153E-04   -0.52152E-04   324   0.379E-02
DAV:   5    -0.227982663470E+03   -0.16807E-05   -0.16812E-05   216   0.799E-03    0.120E+00
RMM:   6    -0.227839056861E+03    0.14361E+00   -0.21319E-01   264   0.336E-01    0.683E-01
RMM:   7    -0.227787827546E+03    0.51229E-01   -0.45943E-02   264   0.234E-01    0.332E-01
RMM:   8    -0.227777363915E+03    0.10464E-01   -0.27782E-02   264   0.162E-01    0.116E-01
RMM:   9    -0.227777234760E+03    0.12916E-03   -0.63937E-03   265   0.978E-02    0.592E-02
RMM:  10    -0.227777237758E+03   -0.29979E-05   -0.16144E-03   267   0.568E-02    0.354E-02
RMM:  11    -0.227777237338E+03    0.41967E-06   -0.43694E-04   254   0.304E-02
     30 T=  1123. E= -.22894438E+03 F= -.22777724E+03 E0= -.22776863E+03  EK= 0.18429E+02 SP= -.20E+02 SK= 0.22E-01
     31 T=  1049. E= -.22877244E+03 F= -.22639895E+03 E0= -.22639895E+03  EK= 0.17228E+02 SP= -.20E+02 SK= 0.19E-01
 bond charge predicted
       N       E                     dE             d eps       ncg     rms          rms(c)
DAV:   1    -0.225444788372E+03    0.23324E+01   -0.19741E+01   264   0.692E+00
DAV:   2    -0.225509340122E+03   -0.64552E-01   -0.64547E-01   336   0.130E+00
DAV:   3    -0.225510668353E+03   -0.13282E-02   -0.13282E-02   336   0.201E-01
DAV:   4    -0.225510715162E+03   -0.46809E-04   -0.46810E-04   324   0.359E-02
DAV:   5    -0.225510716673E+03   -0.15108E-05   -0.15109E-05   216   0.753E-03    0.111E+00
RMM:   6    -0.225380892620E+03    0.12982E+00   -0.19110E-01   264   0.317E-01    0.611E-01
RMM:   7    -0.225341102889E+03    0.39790E-01   -0.40662E-02   264   0.222E-01    0.300E-01
RMM:   8    -0.225332711805E+03    0.83911E-02   -0.21899E-02   264   0.147E-01    0.112E-01
RMM:   9    -0.225332620787E+03    0.91018E-04   -0.55156E-03   264   0.898E-02    0.607E-02
RMM:  10    -0.225332580392E+03    0.40395E-04   -0.13814E-03   268   0.525E-02    0.352E-02
RMM:  11    -0.225332584017E+03   -0.36245E-05   -0.38737E-04   244   0.285E-02
     32 T=   958. E= -.22890708E+03 F= -.22533258E+03 E0= -.22532251E+03  EK= 0.15725E+02 SP= -.19E+02 SK= 0.14E+00
     33 T=   860. E= -.22872637E+03 F= -.22403635E+03 E0= -.22403635E+03  EK= 0.14115E+02 SP= -.19E+02 SK= 0.31E+00
 bond charge predicted
       N       E                     dE             d eps       ncg     rms          rms(c)
DAV:   1    -0.223330575590E+03    0.20020E+01   -0.16118E+01   264   0.626E+00
DAV:   2    -0.223383031437E+03   -0.52456E-01   -0.52453E-01   336   0.117E+00
DAV:   3    -0.223384113456E+03   -0.10820E-02   -0.10820E-02   348   0.180E-01
DAV:   4    -0.223384151748E+03   -0.38292E-04   -0.38293E-04   312   0.324E-02
DAV:   5    -0.223384152987E+03   -0.12390E-05   -0.12385E-05   216   0.679E-03    0.994E-01
RMM:   6    -0.223274375927E+03    0.10978E+00   -0.16341E-01   264   0.292E-01    0.520E-01
RMM:   7    -0.223246435104E+03    0.27941E-01   -0.33411E-02   264   0.204E-01    0.258E-01
RMM:   8    -0.223240383906E+03    0.60512E-02   -0.15536E-02   264   0.129E-01    0.104E-01
RMM:   9    -0.223240311087E+03    0.72819E-04   -0.43396E-03   264   0.789E-02    0.578E-02
RMM:  10    -0.223240258064E+03    0.53023E-04   -0.10939E-03   268   0.465E-02    0.326E-02
RMM:  11    -0.223240267266E+03   -0.92022E-05   -0.31302E-04   234   0.254E-02
     34 T=   766. E= -.22888507E+03 F= -.22324027E+03 E0= -.22322956E+03  EK= 0.12574E+02 SP= -.19E+02 SK= 0.46E+00
     35 T=   684. E= -.22869625E+03 F= -.22230789E+03 E0= -.22230789E+03  EK= 0.11227E+02 SP= -.18E+02 SK= 0.57E+00
     36 T=   618. E= -.22869697E+03 F= -.22180473E+03 E0= -.22180473E+03  EK= 0.10143E+02 SP= -.18E+02 SK= 0.61E+00
 bond charge predicted
       N       E                     dE             d eps       ncg     rms          rms(c)
DAV:   1    -0.221876911881E+03    0.13633E+01   -0.27344E+01   264   0.815E+00
DAV:   2    -0.221967147791E+03   -0.90236E-01   -0.90228E-01   348   0.153E+00
DAV:   3    -0.221968982365E+03   -0.18346E-02   -0.18346E-02   348   0.235E-01
DAV:   4    -0.221969047099E+03   -0.64735E-04   -0.64734E-04   336   0.420E-02
DAV:   5    -0.221969049188E+03   -0.20886E-05   -0.20886E-05   204   0.881E-03    0.131E+00
RMM:   6    -0.221765893368E+03    0.20316E+00   -0.30079E-01   264   0.395E-01    0.623E-01
RMM:   7    -0.221728376120E+03    0.37517E-01   -0.58276E-02   264   0.275E-01    0.320E-01
RMM:   8    -0.221719119101E+03    0.92570E-02   -0.23826E-02   264   0.165E-01    0.138E-01
RMM:   9    -0.221718961737E+03    0.15736E-03   -0.72510E-03   265   0.102E-01    0.766E-02
RMM:  10    -0.221718864834E+03    0.96903E-04   -0.19048E-03   268   0.606E-02    0.423E-02
RMM:  11    -0.221718890929E+03   -0.26095E-04   -0.55493E-04   258   0.331E-02
     37 T=   569. E= -.22887895E+03 F= -.22171889E+03 E0= -.22170925E+03  EK= 0.93391E+01 SP= -.17E+02 SK= 0.60E+00
     38 T=   536. E= -.22870031E+03 F= -.22149140E+03 E0= -.22149140E+03  EK= 0.88014E+01 SP= -.17E+02 SK= 0.56E+00
     39 T=   517. E= -.22870395E+03 F= -.22163309E+03 E0= -.22163309E+03  EK= 0.84947E+01 SP= -.16E+02 SK= 0.50E+00
     40 T=   510. E= -.22870725E+03 F= -.22191466E+03 E0= -.22191466E+03  EK= 0.83669E+01 SP= -.16E+02 SK= 0.43E+00
 bond charge predicted
       N       E                     dE             d eps       ncg     rms          rms(c)
DAV:   1    -0.222700591567E+03   -0.98173E+00   -0.40075E+01   264   0.982E+00
DAV:   2    -0.222836335515E+03   -0.13574E+00   -0.13573E+00   336   0.186E+00
DAV:   3    -0.222839069526E+03   -0.27340E-02   -0.27340E-02   348   0.288E-01
DAV:   4    -0.222839165186E+03   -0.95661E-04   -0.95661E-04   336   0.509E-02
DAV:   5    -0.222839168254E+03   -0.30679E-05   -0.30681E-05   228   0.107E-02    0.171E+00
RMM:   6    -0.222493279676E+03    0.34589E+00   -0.48375E-01   264   0.505E-01    0.732E-01
RMM:   7    -0.222447248387E+03    0.46031E-01   -0.93164E-02   264   0.350E-01    0.410E-01
RMM:   8    -0.222432688604E+03    0.14560E-01   -0.37350E-02   264   0.208E-01    0.179E-01
RMM:   9    -0.222432181741E+03    0.50686E-03   -0.12101E-02   264   0.130E-01    0.935E-02
RMM:  10    -0.222432067842E+03    0.11390E-03   -0.31842E-03   271   0.774E-02    0.532E-02
RMM:  11    -0.222432103449E+03   -0.35607E-04   -0.88428E-04   263   0.421E-02
     41 T=   509. E= -.22885897E+03 F= -.22243210E+03 E0= -.22242441E+03  EK= 0.83596E+01 SP= -.15E+02 SK= 0.36E+00
     42 T=   514. E= -.22870309E+03 F= -.22269235E+03 E0= -.22269235E+03  EK= 0.84320E+01 SP= -.15E+02 SK= 0.30E+00
     43 T=   521. E= -.22870442E+03 F= -.22313066E+03 E0= -.22313066E+03  EK= 0.85507E+01 SP= -.14E+02 SK= 0.25E+00
     44 T=   529. E= -.22870515E+03 F= -.22355395E+03 E0= -.22355395E+03  EK= 0.86779E+01 SP= -.14E+02 SK= 0.21E+00
     45 T=   535. E= -.22870538E+03 F= -.22394133E+03 E0= -.22394133E+03  EK= 0.87907E+01 SP= -.14E+02 SK= 0.18E+00
     46 T=   541. E= -.22870525E+03 F= -.22427962E+03 E0= -.22427962E+03  EK= 0.88748E+01 SP= -.13E+02 SK= 0.15E+00
     47 T=   544. E= -.22870488E+03 F= -.22456212E+03 E0= -.22456212E+03  EK= 0.89228E+01 SP= -.13E+02 SK= 0.13E+00
     48 T=   544. E= -.22870434E+03 F= -.22478719E+03 E0= -.22478719E+03  EK= 0.89332E+01 SP= -.13E+02 SK= 0.10E+00
     49 T=   543. E= -.22870361E+03 F= -.22495743E+03 E0= -.22495743E+03  EK= 0.89094E+01 SP= -.13E+02 SK= 0.85E-01
     50 T=   540. E= -.22870278E+03 F= -.22507953E+03 E0= -.22507953E+03  EK= 0.88590E+01 SP= -.13E+02 SK= 0.67E-01
 bond charge predicted
       N       E                     dE             d eps       ncg     rms          rms(c)
DAV:   1    -0.227234320197E+03   -0.48023E+01   -0.23895E+02   264   0.240E+01
DAV:   2    -0.228214788383E+03   -0.98047E+00   -0.97968E+00   336   0.491E+00
DAV:   3    -0.228232395089E+03   -0.17607E-01   -0.17606E-01   348   0.743E-01
DAV:   4    -0.228232999116E+03   -0.60403E-03   -0.60402E-03   336   0.128E-01
DAV:   5    -0.228233020479E+03   -0.21363E-04   -0.21363E-04   276   0.271E-02    0.456E+00
RMM:   6    -0.225539919564E+03    0.26931E+01   -0.30353E+00   264   0.129E+00    0.175E+00
RMM:   7    -0.225332468720E+03    0.20745E+00   -0.74481E-01   264   0.918E-01    0.101E+00
RMM:   8    -0.225254258869E+03    0.78210E-01   -0.22632E-01   264   0.539E-01    0.501E-01
RMM:   9    -0.225241991376E+03    0.12267E-01   -0.85180E-02   264   0.340E-01    0.217E-01
RMM:  10    -0.225241951237E+03    0.40139E-04   -0.21668E-02   268   0.203E-01    0.124E-01
RMM:  11    -0.225242034857E+03   -0.83620E-04   -0.60908E-03   271   0.109E-01    0.681E-02
RMM:  12    -0.225242159959E+03   -0.12510E-03   -0.16857E-03   268   0.629E-02    0.338E-02
RMM:  13    -0.225242182762E+03   -0.22803E-04   -0.40125E-04   232   0.311E-02
     51 T=   535. E= -.22878429E+03 F= -.22524218E+03 E0= -.22522849E+03  EK= 0.87895E+01 SP= -.12E+02 SK= 0.50E-01
     52 T=   531. E= -.22870776E+03 F= -.22522155E+03 E0= -.22522155E+03  EK= 0.87190E+01 SP= -.12E+02 SK= 0.34E-01
     53 T=   528. E= -.22870693E+03 F= -.22526683E+03 E0= -.22526683E+03  EK= 0.86639E+01 SP= -.12E+02 SK= 0.21E-01
     54 T=   526. E= -.22870632E+03 F= -.22531148E+03 E0= -.22531148E+03  EK= 0.86338E+01 SP= -.12E+02 SK= 0.10E-01
     55 T=   526. E= -.22870598E+03 F= -.22536460E+03 E0= -.22536460E+03  EK= 0.86379E+01 SP= -.12E+02 SK= 0.35E-02
     56 T=   529. E= -.22870588E+03 F= -.22543126E+03 E0= -.22543126E+03  EK= 0.86811E+01 SP= -.12E+02 SK= 0.31E-03
     57 T=   534. E= -.22870596E+03 F= -.22551247E+03 E0= -.22551247E+03  EK= 0.87636E+01 SP= -.12E+02 SK= 0.49E-03
     58 T=   541. E= -.22870616E+03 F= -.22560612E+03 E0= -.22560612E+03  EK= 0.88821E+01 SP= -.12E+02 SK= 0.34E-02
     59 T=   550. E= -.22870635E+03 F= -.22570828E+03 E0= -.22570828E+03  EK= 0.90308E+01 SP= -.12E+02 SK= 0.79E-02
     60 T=   561. E= -.22870656E+03 F= -.22581455E+03 E0= -.22581455E+03  EK= 0.92027E+01 SP= -.12E+02 SK= 0.13E-01
 bond charge predicted
       N       E                     dE             d eps       ncg     rms          rms(c)
DAV:   1    -0.227751166034E+03   -0.25090E+01   -0.22820E+02   264   0.236E+01
DAV:   2    -0.228692279761E+03   -0.94111E+00   -0.94046E+00   336   0.481E+00
DAV:   3    -0.228709154322E+03   -0.16875E-01   -0.16874E-01   348   0.725E-01
DAV:   4    -0.228709738366E+03   -0.58404E-03   -0.58404E-03   336   0.126E-01
DAV:   5    -0.228709757543E+03   -0.19177E-04   -0.19176E-04   252   0.266E-02    0.443E+00
RMM:   6    -0.226167862699E+03    0.25419E+01   -0.29137E+00   264   0.127E+00    0.167E+00
RMM:   7    -0.225996973448E+03    0.17089E+00   -0.67459E-01   264   0.884E-01    0.101E+00
RMM:   8    -0.225906535854E+03    0.90438E-01   -0.20230E-01   264   0.515E-01    0.475E-01
RMM:   9    -0.225897285362E+03    0.92505E-02   -0.73486E-02   264   0.320E-01    0.230E-01
RMM:  10    -0.225897002801E+03    0.28256E-03   -0.17971E-02   271   0.189E-01    0.136E-01
RMM:  11    -0.225896852832E+03    0.14997E-03   -0.53090E-03   270   0.103E-01    0.729E-02
RMM:  12    -0.225896962166E+03   -0.10933E-03   -0.15277E-03   267   0.597E-02    0.376E-02
RMM:  13    -0.225896974733E+03   -0.12566E-04   -0.39354E-04   230   0.305E-02
     61 T=   572. E= -.22868749E+03 F= -.22589697E+03 E0= -.22587762E+03  EK= 0.93860E+01 SP= -.12E+02 SK= 0.18E-01
     62 T=   584. E= -.22871457E+03 F= -.22602367E+03 E0= -.22602367E+03  EK= 0.95797E+01 SP= -.12E+02 SK= 0.21E-01
     63 T=   596. E= -.22871475E+03 F= -.22611938E+03 E0= -.22611938E+03  EK= 0.97773E+01 SP= -.12E+02 SK= 0.23E-01
     64 T=   607. E= -.22871493E+03 F= -.22620519E+03 E0= -.22620519E+03  EK= 0.99685E+01 SP= -.13E+02 SK= 0.22E-01
     65 T=   618. E= -.22871513E+03 F= -.22627924E+03 E0= -.22627924E+03  EK= 0.10146E+02 SP= -.13E+02 SK= 0.20E-01
     66 T=   628. E= -.22871537E+03 F= -.22633979E+03 E0= -.22633979E+03  EK= 0.10304E+02 SP= -.13E+02 SK= 0.16E-01
     67 T=   636. E= -.22871566E+03 F= -.22638491E+03 E0= -.22638491E+03  EK= 0.10436E+02 SP= -.13E+02 SK= 0.12E-01
     68 T=   642. E= -.22871591E+03 F= -.22641244E+03 E0= -.22641244E+03  EK= 0.10535E+02 SP= -.13E+02 SK= 0.72E-02
     69 T=   646. E= -.22871606E+03 F= -.22642080E+03 E0= -.22642080E+03  EK= 0.10597E+02 SP= -.13E+02 SK= 0.34E-02
     70 T=   647. E= -.22871602E+03 F= -.22640982E+03 E0= -.22640982E+03  EK= 0.10620E+02 SP= -.13E+02 SK= 0.95E-03
 bond charge predicted
       N       E                     dE             d eps       ncg     rms          rms(c)
DAV:   1    -0.228186690387E+03   -0.22897E+01   -0.26300E+02   264   0.254E+01
DAV:   2    -0.229311036381E+03   -0.11243E+01   -0.11235E+01   336   0.524E+00
DAV:   3    -0.229330850347E+03   -0.19814E-01   -0.19813E-01   348   0.786E-01
DAV:   4    -0.229331534251E+03   -0.68390E-03   -0.68388E-03   336   0.136E-01
DAV:   5    -0.229331561252E+03   -0.27002E-04   -0.27002E-04   312   0.288E-02    0.450E+00
RMM:   6    -0.227050514181E+03    0.22810E+01   -0.31844E+00   264   0.129E+00    0.239E+00
RMM:   7    -0.226431409708E+03    0.61910E+00   -0.68390E-01   264   0.908E-01    0.125E+00
RMM:   8    -0.226289491355E+03    0.14192E+00   -0.36269E-01   264   0.599E-01    0.511E-01
RMM:   9    -0.226282877638E+03    0.66137E-02   -0.96094E-02   264   0.367E-01    0.289E-01
RMM:  10    -0.226280619827E+03    0.22578E-02   -0.25880E-02   270   0.219E-01    0.155E-01
RMM:  11    -0.226280608425E+03    0.11402E-04   -0.73293E-03   269   0.120E-01    0.774E-02
RMM:  12    -0.226280837265E+03   -0.22884E-03   -0.23808E-03   273   0.722E-02    0.438E-02
RMM:  13    -0.226280843111E+03   -0.58459E-05   -0.48560E-04   238   0.335E-02
     71 T=   646. E= -.22862105E+03 F= -.22628084E+03 E0= -.22626756E+03  EK= 0.10599E+02 SP= -.13E+02 SK= 0.82E-05
     72 T=   642. E= -.22872660E+03 F= -.22634213E+03 E0= -.22634213E+03  EK= 0.10547E+02 SP= -.13E+02 SK= 0.55E-03
     73 T=   638. E= -.22872601E+03 F= -.22629762E+03 E0= -.22629762E+03  EK= 0.10476E+02 SP= -.13E+02 SK= 0.23E-02
     74 T=   633. E= -.22872540E+03 F= -.22625679E+03 E0= -.22625679E+03  EK= 0.10393E+02 SP= -.13E+02 SK= 0.48E-02
     75 T=   628. E= -.22872488E+03 F= -.22622868E+03 E0= -.22622868E+03  EK= 0.10308E+02 SP= -.13E+02 SK= 0.77E-02
     76 T=   623. E= -.22872453E+03 F= -.22622078E+03 E0= -.22622078E+03  EK= 0.10231E+02 SP= -.13E+02 SK= 0.11E-01
     77 T=   619. E= -.22872441E+03 F= -.22623789E+03 E0= -.22623789E+03  EK= 0.10169E+02 SP= -.13E+02 SK= 0.13E-01
     78 T=   617. E= -.22872451E+03 F= -.22628114E+03 E0= -.22628114E+03  EK= 0.10124E+02 SP= -.13E+02 SK= 0.16E-01
     79 T=   615. E= -.22872480E+03 F= -.22634806E+03 E0= -.22634806E+03  EK= 0.10096E+02 SP= -.12E+02 SK= 0.19E-01
     80 T=   614. E= -.22872514E+03 F= -.22643328E+03 E0= -.22643328E+03  EK= 0.10080E+02 SP= -.12E+02 SK= 0.21E-01
 bond charge predicted
       N       E                     dE             d eps       ncg     rms          rms(c)
DAV:   1    -0.228145268590E+03   -0.18644E+01   -0.25617E+02   264   0.252E+01
DAV:   2    -0.229281526677E+03   -0.11363E+01   -0.11354E+01   336   0.527E+00
DAV:   3    -0.229301196682E+03   -0.19670E-01   -0.19669E-01   348   0.793E-01
DAV:   4    -0.229301873563E+03   -0.67688E-03   -0.67687E-03   336   0.136E-01
DAV:   5    -0.229301900196E+03   -0.26632E-04   -0.26631E-04   312   0.290E-02    0.454E+00
RMM:   6    -0.227933040341E+03    0.13689E+01   -0.42216E+00   264   0.142E+00    0.322E+00
RMM:   7    -0.226358865137E+03    0.15742E+01   -0.73716E-01   264   0.982E-01    0.116E+00
RMM:   8    -0.226256338248E+03    0.10253E+00   -0.34469E-01   264   0.581E-01    0.494E-01
RMM:   9    -0.226249030669E+03    0.73076E-02   -0.81159E-02   264   0.337E-01    0.256E-01
RMM:  10    -0.226248050952E+03    0.97972E-03   -0.21790E-02   268   0.201E-01    0.149E-01
RMM:  11    -0.226247975033E+03    0.75919E-04   -0.67141E-03   270   0.112E-01    0.744E-02
RMM:  12    -0.226248138942E+03   -0.16391E-03   -0.18985E-03   271   0.661E-02    0.388E-02
RMM:  13    -0.226248159408E+03   -0.20467E-04   -0.41318E-04   230   0.314E-02
     81 T=   613. E= -.22845402E+03 F= -.22624816E+03 E0= -.22624301E+03  EK= 0.10059E+02 SP= -.12E+02 SK= 0.24E-01
     82 T=   612. E= -.22874578E+03 F= -.22663282E+03 E0= -.22663282E+03  EK= 0.10039E+02 SP= -.12E+02 SK= 0.26E-01
     83 T=   610. E= -.22874601E+03 F= -.22673313E+03 E0= -.22673313E+03  EK= 0.10021E+02 SP= -.12E+02 SK= 0.29E-01
     84 T=   609. E= -.22874616E+03 F= -.22682472E+03 E0= -.22682472E+03  EK= 0.99898E+01 SP= -.12E+02 SK= 0.31E-01
     85 T=   606. E= -.22874622E+03 F= -.22690260E+03 E0= -.22690260E+03  EK= 0.99417E+01 SP= -.12E+02 SK= 0.33E-01
     86 T=   602. E= -.22874622E+03 F= -.22696305E+03 E0= -.22696305E+03  EK= 0.98743E+01 SP= -.12E+02 SK= 0.34E-01
     87 T=   596. E= -.22874613E+03 F= -.22700344E+03 E0= -.22700344E+03  EK= 0.97870E+01 SP= -.12E+02 SK= 0.34E-01
     88 T=   590. E= -.22874600E+03 F= -.22702240E+03 E0= -.22702240E+03  EK= 0.96806E+01 SP= -.11E+02 SK= 0.32E-01
     89 T=   582. E= -.22874585E+03 F= -.22701955E+03 E0= -.22701955E+03  EK= 0.95576E+01 SP= -.11E+02 SK= 0.30E-01
     90 T=   574. E= -.22874566E+03 F= -.22699527E+03 E0= -.22699527E+03  EK= 0.94214E+01 SP= -.11E+02 SK= 0.26E-01
 bond charge predicted
       N       E                     dE             d eps       ncg     rms          rms(c)
DAV:   1    -0.228672634368E+03   -0.24245E+01   -0.24737E+02   264   0.247E+01
DAV:   2    -0.229726151248E+03   -0.10535E+01   -0.10527E+01   336   0.510E+00
DAV:   3    -0.229744551541E+03   -0.18400E-01   -0.18399E-01   336   0.765E-01
DAV:   4    -0.229745184182E+03   -0.63264E-03   -0.63263E-03   336   0.131E-01
DAV:   5    -0.229745207413E+03   -0.23231E-04   -0.23230E-04   276   0.278E-02    0.461E+00
RMM:   6    -0.227966206316E+03    0.17790E+01   -0.39610E+00   264   0.140E+00    0.307E+00
RMM:   7    -0.226706443456E+03    0.12598E+01   -0.74238E-01   264   0.973E-01    0.122E+00
RMM:   8    -0.226584148150E+03    0.12230E+00   -0.32238E-01   264   0.581E-01    0.510E-01
RMM:   9    -0.226577205566E+03    0.69426E-02   -0.83221E-02   264   0.345E-01    0.274E-01
RMM:  10    -0.226575227264E+03    0.19783E-02   -0.23145E-02   268   0.207E-01    0.154E-01
RMM:  11    -0.226575069667E+03    0.15760E-03   -0.68546E-03   269   0.115E-01    0.713E-02
RMM:  12    -0.226575254602E+03   -0.18493E-03   -0.20629E-03   270   0.678E-02    0.373E-02
RMM:  13    -0.226575275511E+03   -0.20909E-04   -0.43097E-04   234   0.318E-02
     91 T=   565. E= -.22836683E+03 F= -.22657528E+03 E0= -.22655701E+03  EK= 0.92795E+01 SP= -.11E+02 SK= 0.21E-01
     92 T=   557. E= -.22884782E+03 F= -.22700116E+03 E0= -.22700116E+03  EK= 0.91380E+01 SP= -.11E+02 SK= 0.15E-01
     93 T=   548. E= -.22884751E+03 F= -.22693032E+03 E0= -.22693032E+03  EK= 0.89982E+01 SP= -.11E+02 SK= 0.89E-02
     94 T=   540. E= -.22884720E+03 F= -.22685003E+03 E0= -.22685003E+03  EK= 0.88686E+01 SP= -.11E+02 SK= 0.39E-02
     95 T=   533. E= -.22884689E+03 F= -.22676527E+03 E0= -.22676527E+03  EK= 0.87567E+01 SP= -.11E+02 SK= 0.67E-03
     96 T=   528. E= -.22884659E+03 F= -.22668133E+03 E0= -.22668133E+03  EK= 0.86693E+01 SP= -.11E+02 SK= 0.19E-03
     97 T=   525. E= -.22884631E+03 F= -.22660349E+03 E0= -.22660349E+03  EK= 0.86133E+01 SP= -.11E+02 SK= 0.32E-02
     98 T=   524. E= -.22884603E+03 F= -.22653686E+03 E0= -.22653686E+03  EK= 0.85947E+01 SP= -.11E+02 SK= 0.10E-01
     99 T=   525. E= -.22884581E+03 F= -.22648603E+03 E0= -.22648603E+03  EK= 0.86185E+01 SP= -.11E+02 SK= 0.21E-01
    100 T=   529. E= -.22884569E+03 F= -.22645442E+03 E0= -.22645442E+03  EK= 0.86882E+01 SP= -.11E+02 SK= 0.35E-01
 bond charge predicted
       N       E                     dE             d eps       ncg     rms          rms(c)
DAV:   1    -0.227805543917E+03   -0.12303E+01   -0.22336E+02   264   0.234E+01
DAV:   2    -0.228701507424E+03   -0.89596E+00   -0.89523E+00   336   0.471E+00
DAV:   3    -0.228717791743E+03   -0.16284E-01   -0.16284E-01   348   0.711E-01
DAV:   4    -0.228718354696E+03   -0.56295E-03   -0.56295E-03   336   0.124E-01
DAV:   5    -0.228718373123E+03   -0.18426E-04   -0.18426E-04   252   0.260E-02    0.423E+00
RMM:   6    -0.226616005763E+03    0.21024E+01   -0.26626E+00   264   0.120E+00    0.212E+00
RMM:   7    -0.226223489752E+03    0.39252E+00   -0.60764E-01   264   0.849E-01    0.122E+00
RMM:   8    -0.226073496041E+03    0.14999E+00   -0.26230E-01   264   0.539E-01    0.475E-01
RMM:   9    -0.226066872713E+03    0.66233E-02   -0.87596E-02   264   0.340E-01    0.218E-01
RMM:  10    -0.226067126864E+03   -0.25415E-03   -0.19318E-02   270   0.196E-01    0.134E-01
RMM:  11    -0.226066843043E+03    0.28382E-03   -0.56470E-03   269   0.106E-01    0.664E-02
RMM:  12    -0.226066966495E+03   -0.12345E-03   -0.16516E-03   272   0.619E-02    0.318E-02
RMM:  13    -0.226066997565E+03   -0.31070E-04   -0.36081E-04   221   0.292E-02
    101 T=   537. E= -.22846329E+03 F= -.22606700E+03 E0= -.22603685E+03  EK= 0.88105E+01 SP= -.11E+02 SK= 0.51E-01
    102 T=   547. E= -.22883365E+03 F= -.22645057E+03 E0= -.22645057E+03  EK= 0.89760E+01 SP= -.11E+02 SK= 0.67E-01
    103 T=   559. E= -.22883405E+03 F= -.22647399E+03 E0= -.22647399E+03  EK= 0.91739E+01 SP= -.12E+02 SK= 0.81E-01
    104 T=   573. E= -.22883467E+03 F= -.22650773E+03 E0= -.22650773E+03  EK= 0.94013E+01 SP= -.12E+02 SK= 0.93E-01
    105 T=   588. E= -.22883547E+03 F= -.22654337E+03 E0= -.22654337E+03  EK= 0.96457E+01 SP= -.12E+02 SK= 0.10E+00
    106 T=   603. E= -.22883637E+03 F= -.22657105E+03 E0= -.22657105E+03  EK= 0.98921E+01 SP= -.12E+02 SK= 0.10E+00
    107 T=   617. E= -.22883727E+03 F= -.22658066E+03 E0= -.22658066E+03  EK= 0.10124E+02 SP= -.12E+02 SK= 0.97E-01
    108 T=   629. E= -.22883804E+03 F= -.22656341E+03 E0= -.22656341E+03  EK= 0.10327E+02 SP= -.13E+02 SK= 0.88E-01
    109 T=   639. E= -.22883856E+03 F= -.22651326E+03 E0= -.22651326E+03  EK= 0.10489E+02 SP= -.13E+02 SK= 0.76E-01
    110 T=   646. E= -.22883877E+03 F= -.22642813E+03 E0= -.22642813E+03  EK= 0.10601E+02 SP= -.13E+02 SK= 0.63E-01
 bond charge predicted
       N       E                     dE             d eps       ncg     rms          rms(c)
DAV:   1    -0.228087071341E+03   -0.20201E+01   -0.25292E+02   264   0.248E+01
DAV:   2    -0.229127440748E+03   -0.10404E+01   -0.10395E+01   336   0.504E+00
DAV:   3    -0.229146104433E+03   -0.18664E-01   -0.18663E-01   348   0.759E-01
DAV:   4    -0.229146745330E+03   -0.64090E-03   -0.64089E-03   336   0.132E-01
DAV:   5    -0.229146768850E+03   -0.23520E-04   -0.23520E-04   288   0.277E-02    0.459E+00
RMM:   6    -0.226386139809E+03    0.27606E+01   -0.32488E+00   264   0.133E+00    0.180E+00
RMM:   7    -0.226177659881E+03    0.20848E+00   -0.71950E-01   264   0.932E-01    0.109E+00
RMM:   8    -0.226072318677E+03    0.10534E+00   -0.24230E-01   264   0.544E-01    0.537E-01
RMM:   9    -0.226058299825E+03    0.14019E-01   -0.97568E-02   264   0.354E-01    0.226E-01
RMM:  10    -0.226058808526E+03   -0.50870E-03   -0.22395E-02   270   0.209E-01    0.144E-01
RMM:  11    -0.226058535911E+03    0.27261E-03   -0.64923E-03   269   0.115E-01    0.740E-02
RMM:  12    -0.226058692631E+03   -0.15672E-03   -0.19998E-03   272   0.678E-02    0.352E-02
RMM:  13    -0.226058730735E+03   -0.38104E-04   -0.40086E-04   229   0.320E-02
    111 T=   650. E= -.22858456E+03 F= -.22605873E+03 E0= -.22603907E+03  EK= 0.10664E+02 SP= -.13E+02 SK= 0.49E-01
    112 T=   650. E= -.22883266E+03 F= -.22616242E+03 E0= -.22616242E+03  EK= 0.10676E+02 SP= -.13E+02 SK= 0.37E-01
 bond charge predicted
       N       E                     dE             d eps       ncg     rms          rms(c)
DAV:   1    -0.225870543733E+03    0.18815E+00   -0.12822E+01   264   0.551E+00
DAV:   2    -0.225915581306E+03   -0.45038E-01   -0.45035E-01   336   0.106E+00
DAV:   3    -0.225916496521E+03   -0.91521E-03   -0.91521E-03   348   0.168E-01
DAV:   4    -0.225916528574E+03   -0.32053E-04   -0.32053E-04   312   0.293E-02
DAV:   5    -0.225916529604E+03   -0.10304E-05   -0.10307E-05   168   0.625E-03    0.113E+00
RMM:   6    -0.225770246602E+03    0.14628E+00   -0.19944E-01   264   0.328E-01    0.435E-01
RMM:   7    -0.225757263897E+03    0.12983E-01   -0.37044E-02   264   0.222E-01    0.261E-01
RMM:   8    -0.225751188986E+03    0.60749E-02   -0.13300E-02   264   0.126E-01    0.121E-01
RMM:   9    -0.225750506208E+03    0.68278E-03   -0.48560E-03   264   0.803E-02    0.538E-02
RMM:  10    -0.225750519898E+03   -0.13690E-04   -0.12048E-03   271   0.477E-02    0.334E-02
RMM:  11    -0.225750499776E+03    0.20122E-04   -0.34315E-04   237   0.260E-02
    113 T=   648. E= -.22858622E+03 F= -.22575050E+03 E0= -.22572745E+03  EK= 0.10645E+02 SP= -.14E+02 SK= 0.26E-01
    114 T=   645. E= -.22887981E+03 F= -.22586921E+03 E0= -.22586921E+03  EK= 0.10582E+02 SP= -.14E+02 SK= 0.18E-01
    115 T=   640. E= -.22887919E+03 F= -.22569513E+03 E0= -.22569513E+03  EK= 0.10499E+02 SP= -.14E+02 SK= 0.12E-01
    116 T=   634. E= -.22887863E+03 F= -.22553178E+03 E0= -.22553178E+03  EK= 0.10409E+02 SP= -.14E+02 SK= 0.76E-02
    117 T=   629. E= -.22887825E+03 F= -.22538839E+03 E0= -.22538839E+03  EK= 0.10323E+02 SP= -.14E+02 SK= 0.46E-02
    118 T=   624. E= -.22887811E+03 F= -.22527132E+03 E0= -.22527132E+03  EK= 0.10250E+02 SP= -.14E+02 SK= 0.27E-02
    119 T=   621. E= -.22887824E+03 F= -.22518321E+03 E0= -.22518321E+03  EK= 0.10194E+02 SP= -.14E+02 SK= 0.15E-02
    120 T=   619. E= -.22887865E+03 F= -.22512247E+03 E0= -.22512247E+03  EK= 0.10156E+02 SP= -.14E+02 SK= 0.67E-03
    121 T=   617. E= -.22887931E+03 F= -.22508347E+03 E0= -.22508347E+03  EK= 0.10132E+02 SP= -.14E+02 SK= 0.22E-03
    122 T=   616. E= -.22888008E+03 F= -.22505706E+03 E0= -.22505706E+03  EK= 0.10111E+02 SP= -.14E+02 SK= 0.20E-04
 bond charge predicted
       N       E                     dE             d eps       ncg     rms          rms(c)
DAV:   1    -0.226930886234E+03   -0.11804E+01   -0.26277E+02   264   0.252E+01
DAV:   2    -0.228061373715E+03   -0.11305E+01   -0.11294E+01   336   0.524E+00
DAV:   3    -0.228081242619E+03   -0.19869E-01   -0.19868E-01   348   0.791E-01
DAV:   4    -0.228081929596E+03   -0.68698E-03   -0.68696E-03   336   0.137E-01
DAV:   5    -0.228081956756E+03   -0.27160E-04   -0.27160E-04   312   0.290E-02    0.476E+00
RMM:   6    -0.225126196182E+03    0.29558E+01   -0.35825E+00   264   0.139E+00    0.201E+00
RMM:   7    -0.224831128735E+03    0.29507E+00   -0.79759E-01   264   0.967E-01    0.126E+00
RMM:   8    -0.224676095361E+03    0.15503E+00   -0.31317E-01   264   0.597E-01    0.540E-01
RMM:   9    -0.224667076970E+03    0.90184E-02   -0.10746E-01   264   0.380E-01    0.273E-01
RMM:  10    -0.224666158739E+03    0.91823E-03   -0.24916E-02   269   0.222E-01    0.171E-01
RMM:  11    -0.224665621907E+03    0.53683E-03   -0.78083E-03   267   0.124E-01    0.793E-02
RMM:  12    -0.224665827828E+03   -0.20592E-03   -0.24967E-03   272   0.739E-02    0.404E-02
RMM:  13    -0.224665858229E+03   -0.30400E-04   -0.56394E-04   241   0.353E-02
    123 T=   614. E= -.22851880E+03 F= -.22466586E+03 E0= -.22463709E+03  EK= 0.10081E+02 SP= -.14E+02 SK= 0.26E-04
    124 T=   611. E= -.22888989E+03 F= -.22500047E+03 E0= -.22500047E+03  EK= 0.10038E+02 SP= -.14E+02 SK= 0.18E-03
    125 T=   608. E= -.22889003E+03 F= -.22495358E+03 E0= -.22495358E+03  EK= 0.99793E+01 SP= -.14E+02 SK= 0.39E-03
    126 T=   603. E= -.22888983E+03 F= -.22488956E+03 E0= -.22488956E+03  EK= 0.99001E+01 SP= -.14E+02 SK= 0.57E-03
    127 T=   597. E= -.22888932E+03 F= -.22481121E+03 E0= -.22481121E+03  EK= 0.98052E+01 SP= -.14E+02 SK= 0.62E-03
    128 T=   591. E= -.22888869E+03 F= -.22472551E+03 E0= -.22472551E+03  EK= 0.97038E+01 SP= -.14E+02 SK= 0.49E-03
    129 T=   585. E= -.22888805E+03 F= -.22464167E+03 E0= -.22464167E+03  EK= 0.96075E+01 SP= -.14E+02 SK= 0.26E-03
    130 T=   580. E= -.22888746E+03 F= -.22456939E+03 E0= -.22456939E+03  EK= 0.95282E+01 SP= -.14E+02 SK= 0.43E-04
    131 T=   577. E= -.22888701E+03 F= -.22451762E+03 E0= -.22451762E+03  EK= 0.94764E+01 SP= -.14E+02 SK= 0.27E-04
    132 T=   576. E= -.22888669E+03 F= -.22449358E+03 E0= -.22449358E+03  EK= 0.94606E+01 SP= -.14E+02 SK= 0.33E-03
 bond charge predicted
       N       E                     dE             d eps       ncg     rms          rms(c)
DAV:   1    -0.225786145756E+03   -0.11203E+01   -0.24705E+02   264   0.246E+01
DAV:   2    -0.226788436656E+03   -0.10023E+01   -0.10014E+01   336   0.497E+00
DAV:   3    -0.226806306258E+03   -0.17870E-01   -0.17868E-01   348   0.742E-01
DAV:   4    -0.226806923269E+03   -0.61701E-03   -0.61700E-03   336   0.129E-01
DAV:   5    -0.226806945191E+03   -0.21922E-04   -0.21921E-04   276   0.270E-02    0.440E+00
RMM:   6    -0.224647772913E+03    0.21592E+01   -0.28815E+00   264   0.125E+00    0.212E+00
RMM:   7    -0.224237454461E+03    0.41032E+00   -0.61666E-01   264   0.864E-01    0.118E+00
RMM:   8    -0.224109709127E+03    0.12775E+00   -0.28704E-01   264   0.555E-01    0.497E-01
RMM:   9    -0.224103213043E+03    0.64961E-02   -0.92388E-02   264   0.351E-01    0.241E-01
RMM:  10    -0.224103127885E+03    0.85158E-04   -0.20971E-02   270   0.204E-01    0.150E-01
RMM:  11    -0.224102958605E+03    0.16928E-03   -0.63172E-03   268   0.112E-01    0.796E-02
RMM:  12    -0.224103066862E+03   -0.10826E-03   -0.18847E-03   271   0.654E-02    0.383E-02
RMM:  13    -0.224103102145E+03   -0.35284E-04   -0.42402E-04   232   0.310E-02
    133 T=   578. E= -.22849077E+03 F= -.22410310E+03 E0= -.22408142E+03  EK= 0.94826E+01 SP= -.14E+02 SK= 0.97E-03
    134 T=   582. E= -.22889311E+03 F= -.22454910E+03 E0= -.22454910E+03  EK= 0.95511E+01 SP= -.14E+02 SK= 0.18E-02
    135 T=   589. E= -.22889324E+03 F= -.22463162E+03 E0= -.22463162E+03  EK= 0.96652E+01 SP= -.14E+02 SK= 0.26E-02
    136 T=   598. E= -.22889353E+03 F= -.22474774E+03 E0= -.22474774E+03  EK= 0.98172E+01 SP= -.14E+02 SK= 0.29E-02
    137 T=   609. E= -.22889396E+03 F= -.22489285E+03 E0= -.22489285E+03  EK= 0.99989E+01 SP= -.14E+02 SK= 0.26E-02
    138 T=   621. E= -.22889451E+03 F= -.22506023E+03 E0= -.22506023E+03  EK= 0.10199E+02 SP= -.14E+02 SK= 0.18E-02
    139 T=   634. E= -.22889519E+03 F= -.22524145E+03 E0= -.22524145E+03  EK= 0.10404E+02 SP= -.14E+02 SK= 0.63E-03
    140 T=   646. E= -.22889591E+03 F= -.22542657E+03 E0= -.22542657E+03  EK= 0.10598E+02 SP= -.14E+02 SK= 0.14E-05
    141 T=   656. E= -.22889664E+03 F= -.22560476E+03 E0= -.22560476E+03  EK= 0.10765E+02 SP= -.14E+02 SK= 0.86E-03
    142 T=   663. E= -.22889733E+03 F= -.22576478E+03 E0= -.22576478E+03  EK= 0.10888E+02 SP= -.14E+02 SK= 0.42E-02
    143 T=   667. E= -.22889790E+03 F= -.22589546E+03 E0= -.22589546E+03  EK= 0.10953E+02 SP= -.14E+02 SK= 0.11E-01
    144 T=   667. E= -.22889819E+03 F= -.22598678E+03 E0= -.22598678E+03  EK= 0.10947E+02 SP= -.14E+02 SK= 0.21E-01
 bond charge predicted
       N       E                     dE             d eps       ncg     rms          rms(c)
DAV:   1    -0.228044503136E+03   -0.39414E+01   -0.34706E+02   264   0.291E+01
DAV:   2    -0.229567953389E+03   -0.15235E+01   -0.15216E+01   336   0.608E+00
DAV:   3    -0.229593881274E+03   -0.25928E-01   -0.25925E-01   348   0.901E-01
DAV:   4    -0.229594753399E+03   -0.87213E-03   -0.87209E-03   336   0.154E-01
DAV:   5    -0.229594787485E+03   -0.34086E-04   -0.34084E-04   312   0.323E-02    0.515E+00
RMM:   6    -0.226242008689E+03    0.33528E+01   -0.42121E+00   264   0.149E+00    0.232E+00
RMM:   7    -0.225836305419E+03    0.40570E+00   -0.90329E-01   264   0.103E+00    0.142E+00
RMM:   8    -0.225649259102E+03    0.18705E+00   -0.36037E-01   264   0.640E-01    0.617E-01
RMM:   9    -0.225635587783E+03    0.13671E-01   -0.12791E-01   264   0.409E-01    0.272E-01
RMM:  10    -0.225636533146E+03   -0.94536E-03   -0.30867E-02   271   0.241E-01    0.157E-01
RMM:  11    -0.225636672388E+03   -0.13924E-03   -0.87523E-03   273   0.130E-01    0.925E-02
RMM:  12    -0.225636716656E+03   -0.44268E-04   -0.21794E-03   266   0.725E-02    0.430E-02
RMM:  13    -0.225636771615E+03   -0.54959E-04   -0.56640E-04   247   0.368E-02
    145 T=   662. E= -.22850168E+03 F= -.22563677E+03 E0= -.22561006E+03  EK= 0.10867E+02 SP= -.14E+02 SK= 0.33E-01
    146 T=   653. E= -.22889358E+03 F= -.22602699E+03 E0= -.22602699E+03  EK= 0.10712E+02 SP= -.14E+02 SK= 0.47E-01
    147 T=   639. E= -.22889288E+03 F= -.22597327E+03 E0= -.22597327E+03  EK= 0.10485E+02 SP= -.13E+02 SK= 0.60E-01
    148 T=   621. E= -.22889198E+03 F= -.22587543E+03 E0= -.22587543E+03  EK= 0.10201E+02 SP= -.13E+02 SK= 0.70E-01
    149 T=   602. E= -.22889099E+03 F= -.22574241E+03 E0= -.22574241E+03  EK= 0.98786E+01 SP= -.13E+02 SK= 0.74E-01
    150 T=   581. E= -.22889003E+03 F= -.22558582E+03 E0= -.22558582E+03  EK= 0.95376E+01 SP= -.13E+02 SK= 0.71E-01
    151 T=   560. E= -.22888915E+03 F= -.22541864E+03 E0= -.22541864E+03  EK= 0.91993E+01 SP= -.13E+02 SK= 0.63E-01
    152 T=   541. E= -.22888841E+03 F= -.22525421E+03 E0= -.22525421E+03  EK= 0.88840E+01 SP= -.13E+02 SK= 0.49E-01
    153 T=   524. E= -.22888786E+03 F= -.22510517E+03 E0= -.22510517E+03  EK= 0.86097E+01 SP= -.12E+02 SK= 0.34E-01
    154 T=   511. E= -.22888747E+03 F= -.22498230E+03 E0= -.22498230E+03  EK= 0.83909E+01 SP= -.12E+02 SK= 0.19E-01
 bond charge predicted
       N       E                     dE             d eps       ncg     rms          rms(c)
DAV:   1    -0.226378471124E+03   -0.74175E+00   -0.24419E+02   264   0.245E+01
DAV:   2    -0.227364456791E+03   -0.98599E+00   -0.98528E+00   336   0.493E+00
DAV:   3    -0.227381846551E+03   -0.17390E-01   -0.17389E-01   348   0.736E-01
DAV:   4    -0.227382447611E+03   -0.60106E-03   -0.60105E-03   336   0.129E-01
DAV:   5    -0.227382468790E+03   -0.21180E-04   -0.21179E-04   276   0.268E-02    0.444E+00
RMM:   6    -0.224981366235E+03    0.24011E+01   -0.29474E+00   264   0.129E+00    0.198E+00
RMM:   7    -0.224689074773E+03    0.29229E+00   -0.69417E-01   264   0.891E-01    0.119E+00
RMM:   8    -0.224551266994E+03    0.13781E+00   -0.29338E-01   264   0.573E-01    0.458E-01
RMM:   9    -0.224546852251E+03    0.44147E-02   -0.88543E-02   264   0.355E-01    0.221E-01
RMM:  10    -0.224547494102E+03   -0.64185E-03   -0.21041E-02   271   0.206E-01    0.130E-01
RMM:  11    -0.224547414033E+03    0.80068E-04   -0.62146E-03   273   0.111E-01    0.716E-02
RMM:  12    -0.224547497026E+03   -0.82992E-04   -0.16289E-03   267   0.624E-02    0.314E-02
RMM:  13    -0.224547527725E+03   -0.30700E-04   -0.36430E-04   226   0.300E-02
    155 T=   502. E= -.22854054E+03 F= -.22454753E+03 E0= -.22453085E+03  EK= 0.82389E+01 SP= -.12E+02 SK= 0.67E-02
    156 T=   497. E= -.22888580E+03 F= -.22484324E+03 E0= -.22484324E+03  EK= 0.81587E+01 SP= -.12E+02 SK= 0.56E-03
    157 T=   497. E= -.22888585E+03 F= -.22483398E+03 E0= -.22483398E+03  EK= 0.81530E+01 SP= -.12E+02 SK= 0.13E-02
    158 T=   501. E= -.22888601E+03 F= -.22486481E+03 E0= -.22486481E+03  EK= 0.82217E+01 SP= -.12E+02 SK= 0.90E-02
    159 T=   509. E= -.22888625E+03 F= -.22493151E+03 E0= -.22493151E+03  EK= 0.83601E+01 SP= -.12E+02 SK= 0.22E-01
    160 T=   521. E= -.22888659E+03 F= -.22502757E+03 E0= -.22502757E+03  EK= 0.85604E+01 SP= -.12E+02 SK= 0.40E-01
    161 T=   537. E= -.22888703E+03 F= -.22514474E+03 E0= -.22514474E+03  EK= 0.88121E+01 SP= -.13E+02 SK= 0.58E-01
    162 T=   554. E= -.22888759E+03 F= -.22527341E+03 E0= -.22527341E+03  EK= 0.91024E+01 SP= -.13E+02 SK= 0.73E-01
    163 T=   574. E= -.22888833E+03 F= -.22540295E+03 E0= -.22540295E+03  EK= 0.94158E+01 SP= -.13E+02 SK= 0.85E-01
    164 T=   593. E= -.22888926E+03 F= -.22552152E+03 E0= -.22552152E+03  EK= 0.97344E+01 SP= -.13E+02 SK= 0.90E-01
 bond charge predicted
       N       E                     dE             d eps       ncg     rms          rms(c)
DAV:   1    -0.226234727437E+03   -0.16872E+01   -0.21510E+02   264   0.232E+01
DAV:   2    -0.227003318000E+03   -0.76859E+00   -0.76807E+00   336   0.440E+00
DAV:   3    -0.227017664051E+03   -0.14346E-01   -0.14345E-01   348   0.660E-01
DAV:   4    -0.227018166902E+03   -0.50285E-03   -0.50284E-03   336   0.118E-01
DAV:   5    -0.227018184148E+03   -0.17245E-04   -0.17245E-04   264   0.242E-02    0.367E+00
RMM:   6    -0.225552249705E+03    0.14659E+01   -0.20175E+00   264   0.103E+00    0.177E+00
RMM:   7    -0.225287588650E+03    0.26466E+00   -0.39248E-01   264   0.712E-01    0.106E+00
RMM:   8    -0.225190595354E+03    0.96993E-01   -0.16241E-01   264   0.432E-01    0.477E-01
RMM:   9    -0.225181393718E+03    0.92016E-02   -0.68518E-02   264   0.287E-01    0.196E-01
RMM:  10    -0.225181425068E+03   -0.31350E-04   -0.13470E-02   272   0.164E-01    0.124E-01
RMM:  11    -0.225181312533E+03    0.11254E-03   -0.41543E-03   270   0.906E-02    0.629E-02
RMM:  12    -0.225181395424E+03   -0.82891E-04   -0.10998E-03   265   0.516E-02    0.280E-02
RMM:  13    -0.225181423198E+03   -0.27774E-04   -0.29741E-04   222   0.263E-02
    165 T=   611. E= -.22846549E+03 F= -.22518142E+03 E0= -.22516787E+03  EK= 0.10028E+02 SP= -.13E+02 SK= 0.89E-01
    166 T=   626. E= -.22883659E+03 F= -.22559622E+03 E0= -.22559622E+03  EK= 0.10283E+02 SP= -.14E+02 SK= 0.82E-01
    167 T=   639. E= -.22883746E+03 F= -.22559953E+03 E0= -.22559953E+03  EK= 0.10489E+02 SP= -.14E+02 SK= 0.71E-01
    168 T=   647. E= -.22883797E+03 F= -.22554876E+03 E0= -.22554876E+03  EK= 0.10628E+02 SP= -.14E+02 SK= 0.58E-01
    169 T=   651. E= -.22883798E+03 F= -.22544248E+03 E0= -.22544248E+03  EK= 0.10692E+02 SP= -.14E+02 SK= 0.44E-01
    170 T=   651. E= -.22883742E+03 F= -.22528597E+03 E0= -.22528597E+03  EK= 0.10684E+02 SP= -.14E+02 SK= 0.32E-01
    171 T=   647. E= -.22883645E+03 F= -.22509143E+03 E0= -.22509143E+03  EK= 0.10615E+02 SP= -.14E+02 SK= 0.23E-01
    172 T=   640. E= -.22883522E+03 F= -.22487616E+03 E0= -.22487616E+03  EK= 0.10503E+02 SP= -.14E+02 SK= 0.15E-01
    173 T=   632. E= -.22883401E+03 F= -.22465995E+03 E0= -.22465995E+03  EK= 0.10372E+02 SP= -.15E+02 SK= 0.10E-01
 bond charge predicted
       N       E                     dE             d eps       ncg     rms          rms(c)
DAV:   1    -0.225721197698E+03   -0.53980E+00   -0.22351E+02   264   0.235E+01
DAV:   2    -0.226639657012E+03   -0.91846E+00   -0.91774E+00   336   0.475E+00
DAV:   3    -0.226656288064E+03   -0.16631E-01   -0.16630E-01   348   0.722E-01
DAV:   4    -0.226656867324E+03   -0.57926E-03   -0.57925E-03   336   0.125E-01
DAV:   5    -0.226656888111E+03   -0.20787E-04   -0.20788E-04   276   0.265E-02    0.422E+00
RMM:   6    -0.224677093759E+03    0.19798E+01   -0.29748E+00   264   0.124E+00    0.206E+00
RMM:   7    -0.224264113169E+03    0.41298E+00   -0.58015E-01   264   0.840E-01    0.118E+00
RMM:   8    -0.224136517701E+03    0.12760E+00   -0.23967E-01   264   0.521E-01    0.485E-01
RMM:   9    -0.224129038967E+03    0.74787E-02   -0.86098E-02   264   0.332E-01    0.218E-01
RMM:  10    -0.224128773980E+03    0.26499E-03   -0.19962E-02   274   0.194E-01    0.132E-01
RMM:  11    -0.224128788549E+03   -0.14570E-04   -0.57115E-03   271   0.105E-01    0.661E-02
RMM:  12    -0.224128919366E+03   -0.13082E-03   -0.16100E-03   268   0.606E-02    0.288E-02
RMM:  13    -0.224128948916E+03   -0.29550E-04   -0.31633E-04   221   0.279E-02
    174 T=   624. E= -.22849521E+03 F= -.22412895E+03 E0= -.22411435E+03  EK= 0.10249E+02 SP= -.15E+02 SK= 0.73E-02
    175 T=   618. E= -.22882118E+03 F= -.22429798E+03 E0= -.22429798E+03  EK= 0.10149E+02 SP= -.15E+02 SK= 0.53E-02
    176 T=   614. E= -.22882064E+03 F= -.22418254E+03 E0= -.22418254E+03  EK= 0.10083E+02 SP= -.15E+02 SK= 0.40E-02
    177 T=   613. E= -.22882043E+03 F= -.22412149E+03 E0= -.22412149E+03  EK= 0.10064E+02 SP= -.15E+02 SK= 0.30E-02
    178 T=   615. E= -.22882057E+03 F= -.22411829E+03 E0= -.22411829E+03  EK= 0.10096E+02 SP= -.15E+02 SK= 0.21E-02
    179 T=   620. E= -.22882105E+03 F= -.22417105E+03 E0= -.22417105E+03  EK= 0.10178E+02 SP= -.15E+02 SK= 0.13E-02
    180 T=   627. E= -.22882184E+03 F= -.22427261E+03 E0= -.22427261E+03  EK= 0.10299E+02 SP= -.15E+02 SK= 0.45E-03
    181 T=   636. E= -.22882282E+03 F= -.22441148E+03 E0= -.22441148E+03  EK= 0.10446E+02 SP= -.15E+02 SK= 0.45E-05
    182 T=   646. E= -.22882388E+03 F= -.22457337E+03 E0= -.22457337E+03  EK= 0.10599E+02 SP= -.15E+02 SK= 0.50E-03
    183 T=   654. E= -.22882491E+03 F= -.22474275E+03 E0= -.22474275E+03  EK= 0.10739E+02 SP= -.15E+02 SK= 0.27E-02
 bond charge predicted
       N       E                     dE             d eps       ncg     rms          rms(c)
DAV:   1    -0.226328300144E+03   -0.21994E+01   -0.25755E+02   264   0.251E+01
DAV:   2    -0.227394350118E+03   -0.10660E+01   -0.10651E+01   336   0.511E+00
DAV:   3    -0.227413259411E+03   -0.18909E-01   -0.18908E-01   348   0.768E-01
DAV:   4    -0.227413906706E+03   -0.64730E-03   -0.64728E-03   336   0.132E-01
DAV:   5    -0.227413931252E+03   -0.24546E-04   -0.24546E-04   300   0.279E-02    0.424E+00
RMM:   6    -0.225339241702E+03    0.20747E+01   -0.31981E+00   264   0.127E+00    0.230E+00
RMM:   7    -0.224766989862E+03    0.57225E+00   -0.61908E-01   264   0.866E-01    0.121E+00
RMM:   8    -0.224628049039E+03    0.13894E+00   -0.31031E-01   264   0.560E-01    0.484E-01
RMM:   9    -0.224622997343E+03    0.50517E-02   -0.89812E-02   264   0.350E-01    0.259E-01
RMM:  10    -0.224621525990E+03    0.14714E-02   -0.22772E-02   270   0.205E-01    0.150E-01
RMM:  11    -0.224621459892E+03    0.66098E-04   -0.63325E-03   265   0.113E-01    0.726E-02
RMM:  12    -0.224621652049E+03   -0.19216E-03   -0.20807E-03   272   0.676E-02    0.356E-02
RMM:  13    -0.224621684333E+03   -0.32284E-04   -0.46710E-04   234   0.317E-02
    184 T=   661. E= -.22854102E+03 F= -.22462168E+03 E0= -.22460805E+03  EK= 0.10849E+02 SP= -.15E+02 SK= 0.75E-02
    185 T=   665. E= -.22882164E+03 F= -.22504484E+03 E0= -.22504484E+03  EK= 0.10910E+02 SP= -.15E+02 SK= 0.15E-01
    186 T=   664. E= -.22882194E+03 F= -.22515268E+03 E0= -.22515268E+03  EK= 0.10906E+02 SP= -.15E+02 SK= 0.27E-01
    187 T=   660. E= -.22882182E+03 F= -.22522107E+03 E0= -.22522107E+03  EK= 0.10834E+02 SP= -.14E+02 SK= 0.40E-01
    188 T=   652. E= -.22882135E+03 F= -.22524830E+03 E0= -.22524830E+03  EK= 0.10696E+02 SP= -.14E+02 SK= 0.55E-01
 bond charge predicted
       N       E                     dE             d eps       ncg     rms          rms(c)
DAV:   1    -0.225511034585E+03   -0.88938E+00   -0.76889E+01   264   0.137E+01
DAV:   2    -0.225774362418E+03   -0.26333E+00   -0.26326E+00   336   0.259E+00
DAV:   3    -0.225779551096E+03   -0.51887E-02   -0.51886E-02   348   0.397E-01
DAV:   4    -0.225779733159E+03   -0.18206E-03   -0.18206E-03   336   0.704E-02
DAV:   5    -0.225779739003E+03   -0.58437E-05   -0.58442E-05   228   0.147E-02    0.239E+00
RMM:   6    -0.225133756000E+03    0.64598E+00   -0.86444E-01   264   0.677E-01    0.114E+00
RMM:   7    -0.225032844772E+03    0.10091E+00   -0.17490E-01   264   0.471E-01    0.677E-01
RMM:   8    -0.224988590236E+03    0.44255E-01   -0.69090E-02   264   0.282E-01    0.290E-01
RMM:   9    -0.224985377624E+03    0.32126E-02   -0.27168E-02   264   0.184E-01    0.124E-01
RMM:  10    -0.224985437852E+03   -0.60228E-04   -0.57543E-03   270   0.107E-01    0.761E-02
RMM:  11    -0.224985365447E+03    0.72405E-04   -0.17728E-03   268   0.587E-02    0.388E-02
RMM:  12    -0.224985399027E+03   -0.33580E-04   -0.50357E-04   252   0.341E-02
    189 T=   640. E= -.22856521E+03 F= -.22498540E+03 E0= -.22495942E+03  EK= 0.10503E+02 SP= -.14E+02 SK= 0.68E-01
    190 T=   625. E= -.22880342E+03 F= -.22518868E+03 E0= -.22518868E+03  EK= 0.10268E+02 SP= -.14E+02 SK= 0.79E-01
    191 T=   609. E= -.22880238E+03 F= -.22513174E+03 E0= -.22513174E+03  EK= 0.10005E+02 SP= -.14E+02 SK= 0.86E-01
    192 T=   593. E= -.22880140E+03 F= -.22507018E+03 E0= -.22507018E+03  EK= 0.97395E+01 SP= -.14E+02 SK= 0.86E-01
    193 T=   578. E= -.22880057E+03 F= -.22501676E+03 E0= -.22501676E+03  EK= 0.94891E+01 SP= -.13E+02 SK= 0.82E-01
    194 T=   565. E= -.22879997E+03 F= -.22498304E+03 E0= -.22498304E+03  EK= 0.92711E+01 SP= -.13E+02 SK= 0.73E-01
    195 T=   554. E= -.22879961E+03 F= -.22497809E+03 E0= -.22497809E+03  EK= 0.90984E+01 SP= -.13E+02 SK= 0.61E-01
    196 T=   547. E= -.22879945E+03 F= -.22500767E+03 E0= -.22500767E+03  EK= 0.89792E+01 SP= -.13E+02 SK= 0.48E-01
    197 T=   543. E= -.22879947E+03 F= -.22507422E+03 E0= -.22507422E+03  EK= 0.89173E+01 SP= -.13E+02 SK= 0.35E-01
    198 T=   543. E= -.22879965E+03 F= -.22517688E+03 E0= -.22517688E+03  EK= 0.89123E+01 SP= -.13E+02 SK= 0.24E-01
 bond charge predicted
       N       E                     dE             d eps       ncg     rms          rms(c)
DAV:   1    -0.226498658396E+03   -0.15133E+01   -0.23424E+02   264   0.242E+01
DAV:   2    -0.227416465384E+03   -0.91781E+00   -0.91724E+00   336   0.478E+00
DAV:   3    -0.227432882437E+03   -0.16417E-01   -0.16416E-01   348   0.718E-01
DAV:   4    -0.227433452099E+03   -0.56966E-03   -0.56966E-03   336   0.126E-01
DAV:   5    -0.227433471569E+03   -0.19470E-04   -0.19471E-04   264   0.262E-02    0.400E+00
RMM:   6    -0.225559270438E+03    0.18742E+01   -0.24742E+00   264   0.114E+00    0.193E+00
RMM:   7    -0.225260121051E+03    0.29915E+00   -0.54397E-01   264   0.806E-01    0.117E+00
RMM:   8    -0.225131787328E+03    0.12833E+00   -0.22489E-01   264   0.501E-01    0.492E-01
RMM:   9    -0.225125191329E+03    0.65960E-02   -0.75532E-02   264   0.318E-01    0.249E-01
RMM:  10    -0.225124658979E+03    0.53235E-03   -0.18283E-02   271   0.186E-01    0.148E-01
RMM:  11    -0.225124325482E+03    0.33350E-03   -0.52662E-03   268   0.102E-01    0.697E-02
RMM:  12    -0.225124442240E+03   -0.11676E-03   -0.16755E-03   268   0.614E-02    0.312E-02
RMM:  13    -0.225124462402E+03   -0.20162E-04   -0.36936E-04   226   0.290E-02
    199 T=   546. E= -.22861380E+03 F= -.22512446E+03 E0= -.22509997E+03  EK= 0.89584E+01 SP= -.12E+02 SK= 0.15E-01
    200 T=   551. E= -.22880234E+03 F= -.22547224E+03 E0= -.22547224E+03  EK= 0.90494E+01 SP= -.12E+02 SK= 0.85E-02
    201 T=   559. E= -.22880276E+03 F= -.22565119E+03 E0= -.22565119E+03  EK= 0.91766E+01 SP= -.12E+02 SK= 0.44E-02
    202 T=   568. E= -.22880318E+03 F= -.22584000E+03 E0= -.22584000E+03  EK= 0.93281E+01 SP= -.12E+02 SK= 0.21E-02
    203 T=   578. E= -.22880358E+03 F= -.22602998E+03 E0= -.22602998E+03  EK= 0.94920E+01 SP= -.12E+02 SK= 0.96E-03
    204 T=   588. E= -.22880396E+03 F= -.22621298E+03 E0= -.22621298E+03  EK= 0.96567E+01 SP= -.12E+02 SK= 0.48E-03
    205 T=   598. E= -.22880431E+03 F= -.22638163E+03 E0= -.22638163E+03  EK= 0.98111E+01 SP= -.12E+02 SK= 0.34E-03
    206 T=   606. E= -.22880461E+03 F= -.22652946E+03 E0= -.22652946E+03  EK= 0.99451E+01 SP= -.12E+02 SK= 0.41E-03
    207 T=   612. E= -.22880484E+03 F= -.22665107E+03 E0= -.22665107E+03  EK= 0.10050E+02 SP= -.12E+02 SK= 0.69E-03
    208 T=   616. E= -.22880496E+03 F= -.22674244E+03 E0= -.22674244E+03  EK= 0.10119E+02 SP= -.12E+02 SK= 0.13E-02
    209 T=   618. E= -.22880498E+03 F= -.22680113E+03 E0= -.22680113E+03  EK= 0.10148E+02 SP= -.12E+02 SK= 0.22E-02
    210 T=   617. E= -.22880485E+03 F= -.22682649E+03 E0= -.22682649E+03  EK= 0.10136E+02 SP= -.12E+02 SK= 0.33E-02
    211 T=   614. E= -.22880461E+03 F= -.22681980E+03 E0= -.22681980E+03  EK= 0.10085E+02 SP= -.12E+02 SK= 0.46E-02
    212 T=   609. E= -.22880422E+03 F= -.22678427E+03 E0= -.22678427E+03  EK= 0.99985E+01 SP= -.12E+02 SK= 0.57E-02
    213 T=   602. E= -.22880368E+03 F= -.22672533E+03 E0= -.22672533E+03  EK= 0.98854E+01 SP= -.12E+02 SK= 0.63E-02
    214 T=   594. E= -.22880305E+03 F= -.22665059E+03 E0= -.22665059E+03  EK= 0.97561E+01 SP= -.12E+02 SK= 0.63E-02
    215 T=   586. E= -.22880236E+03 F= -.22656939E+03 E0= -.22656939E+03  EK= 0.96229E+01 SP= -.12E+02 SK= 0.55E-02
    216 T=   579. E= -.22880170E+03 F= -.22649205E+03 E0= -.22649205E+03  EK= 0.94993E+01 SP= -.12E+02 SK= 0.41E-02
    217 T=   572. E= -.22880118E+03 F= -.22642861E+03 E0= -.22642861E+03  EK= 0.93979E+01 SP= -.12E+02 SK= 0.26E-02
    218 T=   568. E= -.22880088E+03 F= -.22638715E+03 E0= -.22638715E+03  EK= 0.93287E+01 SP= -.12E+02 SK= 0.11E-02
    219 T=   566. E= -.22880084E+03 F= -.22637249E+03 E0= -.22637249E+03  EK= 0.92980E+01 SP= -.12E+02 SK= 0.23E-03
 bond charge predicted
       N       E                     dE             d eps       ncg     rms          rms(c)
DAV:   1    -0.230159526340E+03   -0.50351E+01   -0.73610E+02   264   0.422E+01
DAV:   2    -0.233987520461E+03   -0.38280E+01   -0.38179E+01   336   0.946E+00
DAV:   3    -0.234055335032E+03   -0.67815E-01   -0.67790E-01   336   0.143E+00
DAV:   4    -0.234057446736E+03   -0.21117E-02   -0.21114E-02   348   0.240E-01
DAV:   5    -0.234057530602E+03   -0.83865E-04   -0.83857E-04   336   0.499E-02    0.719E+00
RMM:   6    -0.228037945230E+03    0.60196E+01   -0.83137E+00   264   0.209E+00    0.389E+00
RMM:   7    -0.226414271221E+03    0.16237E+01   -0.18441E+00   264   0.147E+00    0.215E+00
RMM:   8    -0.226001318483E+03    0.41295E+00   -0.10307E+00   264   0.101E+00    0.851E-01
RMM:   9    -0.225983858136E+03    0.17460E-01   -0.26982E-01   265   0.625E-01    0.445E-01
RMM:  10    -0.225984565682E+03   -0.70755E-03   -0.70511E-02   266   0.366E-01    0.279E-01
RMM:  11    -0.225983236539E+03    0.13291E-02   -0.20143E-02   267   0.200E-01    0.139E-01
RMM:  12    -0.225983800504E+03   -0.56396E-03   -0.64986E-03   275   0.120E-01    0.760E-02
RMM:  13    -0.225983857282E+03   -0.56779E-04   -0.12671E-03   267   0.552E-02    0.423E-02
RMM:  14    -0.225983855406E+03    0.18761E-05   -0.41324E-04   230   0.330E-02
    220 T=   567. E= -.22839946E+03 F= -.22598386E+03 E0= -.22595722E+03  EK= 0.93071E+01 SP= -.12E+02 SK= 0.16E-04
    221 T=   570. E= -.22880094E+03 F= -.22642296E+03 E0= -.22642296E+03  EK= 0.93533E+01 SP= -.12E+02 SK= 0.48E-03
    222 T=   574. E= -.22880159E+03 F= -.22647724E+03 E0= -.22647724E+03  EK= 0.94269E+01 SP= -.12E+02 SK= 0.14E-02
    223 T=   580. E= -.22880233E+03 F= -.22653852E+03 E0= -.22653852E+03  EK= 0.95171E+01 SP= -.12E+02 SK= 0.26E-02
    224 T=   585. E= -.22880305E+03 F= -.22659590E+03 E0= -.22659590E+03  EK= 0.96113E+01 SP= -.12E+02 SK= 0.36E-02
    225 T=   591. E= -.22880366E+03 F= -.22663883E+03 E0= -.22663883E+03  EK= 0.96969E+01 SP= -.12E+02 SK= 0.44E-02
    226 T=   595. E= -.22880408E+03 F= -.22665860E+03 E0= -.22665860E+03  EK= 0.97633E+01 SP= -.12E+02 SK= 0.49E-02
    227 T=   597. E= -.22880427E+03 F= -.22664957E+03 E0= -.22664957E+03  EK= 0.98030E+01 SP= -.12E+02 SK= 0.51E-02
    228 T=   598. E= -.22880419E+03 F= -.22660979E+03 E0= -.22660979E+03  EK= 0.98131E+01 SP= -.12E+02 SK= 0.52E-02
    229 T=   597. E= -.22880385E+03 F= -.22654145E+03 E0= -.22654145E+03  EK= 0.97954E+01 SP= -.12E+02 SK= 0.53E-02
    230 T=   594. E= -.22880333E+03 F= -.22645059E+03 E0= -.22645059E+03  EK= 0.97562E+01 SP= -.12E+02 SK= 0.56E-02
    231 T=   591. E= -.22880271E+03 F= -.22634610E+03 E0= -.22634610E+03  EK= 0.97050E+01 SP= -.12E+02 SK= 0.61E-02
    232 T=   588. E= -.22880210E+03 F= -.22623830E+03 E0= -.22623830E+03  EK= 0.96533E+01 SP= -.12E+02 SK= 0.70E-02
    233 T=   586. E= -.22880161E+03 F= -.22613723E+03 E0= -.22613723E+03  EK= 0.96122E+01 SP= -.12E+02 SK= 0.82E-02
    234 T=   584. E= -.22880132E+03 F= -.22605119E+03 E0= -.22605119E+03  EK= 0.95910E+01 SP= -.12E+02 SK= 0.98E-02
    235 T=   585. E= -.22880126E+03 F= -.22598551E+03 E0= -.22598551E+03  EK= 0.95957E+01 SP= -.12E+02 SK= 0.12E-01
    236 T=   586. E= -.22880146E+03 F= -.22594183E+03 E0= -.22594183E+03  EK= 0.96278E+01 SP= -.13E+02 SK= 0.13E-01
    237 T=   590. E= -.22880185E+03 F= -.22591805E+03 E0= -.22591805E+03  EK= 0.96850E+01 SP= -.13E+02 SK= 0.15E-01
    238 T=   595. E= -.22880237E+03 F= -.22590915E+03 E0= -.22590915E+03  EK= 0.97610E+01 SP= -.13E+02 SK= 0.16E-01
    239 T=   600. E= -.22880293E+03 F= -.22590824E+03 E0= -.22590824E+03  EK= 0.98474E+01 SP= -.13E+02 SK= 0.16E-01
    240 T=   605. E= -.22880341E+03 F= -.22590802E+03 E0= -.22590802E+03  EK= 0.99349E+01 SP= -.13E+02 SK= 0.16E-01
    241 T=   610. E= -.22880374E+03 F= -.22590249E+03 E0= -.22590249E+03  EK= 0.10015E+02 SP= -.13E+02 SK= 0.14E-01
    242 T=   614. E= -.22880390E+03 F= -.22588782E+03 E0= -.22588782E+03  EK= 0.10083E+02 SP= -.13E+02 SK= 0.12E-01
    243 T=   617. E= -.22880381E+03 F= -.22586293E+03 E0= -.22586293E+03  EK= 0.10135E+02 SP= -.13E+02 SK= 0.10E-01
    244 T=   620. E= -.22880359E+03 F= -.22582988E+03 E0= -.22582988E+03  EK= 0.10171E+02 SP= -.13E+02 SK= 0.81E-02
    245 T=   621. E= -.22880331E+03 F= -.22579268E+03 E0= -.22579268E+03  EK= 0.10195E+02 SP= -.13E+02 SK= 0.60E-02
    246 T=   622. E= -.22880306E+03 F= -.22575600E+03 E0= -.22575600E+03  EK= 0.10210E+02 SP= -.13E+02 SK= 0.42E-02
    247 T=   623. E= -.22880292E+03 F= -.22572385E+03 E0= -.22572385E+03  EK= 0.10219E+02 SP= -.13E+02 SK= 0.26E-02
    248 T=   623. E= -.22880292E+03 F= -.22569842E+03 E0= -.22569842E+03  EK= 0.10226E+02 SP= -.13E+02 SK= 0.14E-02
    249 T=   623. E= -.22880306E+03 F= -.22567968E+03 E0= -.22567968E+03  EK= 0.10229E+02 SP= -.13E+02 SK= 0.52E-03
    250 T=   623. E= -.22880330E+03 F= -.22566544E+03 E0= -.22566544E+03  EK= 0.10226E+02 SP= -.13E+02 SK= 0.77E-04
    251 T=   622. E= -.22880359E+03 F= -.22565185E+03 E0= -.22565185E+03  EK= 0.10213E+02 SP= -.13E+02 SK= 0.26E-04
    252 T=   621. E= -.22880383E+03 F= -.22563430E+03 E0= -.22563430E+03  EK= 0.10187E+02 SP= -.13E+02 SK= 0.33E-03
    253 T=   618. E= -.22880397E+03 F= -.22560861E+03 E0= -.22560861E+03  EK= 0.10144E+02 SP= -.13E+02 SK= 0.91E-03
    254 T=   614. E= -.22880400E+03 F= -.22557192E+03 E0= -.22557192E+03  EK= 0.10082E+02 SP= -.13E+02 SK= 0.16E-02
    255 T=   609. E= -.22880392E+03 F= -.22552290E+03 E0= -.22552290E+03  EK= 0.10001E+02 SP= -.13E+02 SK= 0.23E-02
    256 T=   603. E= -.22880373E+03 F= -.22546194E+03 E0= -.22546194E+03  EK= 0.99051E+01 SP= -.13E+02 SK= 0.27E-02
    257 T=   597. E= -.22880346E+03 F= -.22539109E+03 E0= -.22539109E+03  EK= 0.97978E+01 SP= -.13E+02 SK= 0.28E-02
    258 T=   590. E= -.22880316E+03 F= -.22531378E+03 E0= -.22531378E+03  EK= 0.96852E+01 SP= -.13E+02 SK= 0.25E-02
    259 T=   583. E= -.22880286E+03 F= -.22523420E+03 E0= -.22523420E+03  EK= 0.95744E+01 SP= -.13E+02 SK= 0.18E-02
    260 T=   577. E= -.22880260E+03 F= -.22515681E+03 E0= -.22515681E+03  EK= 0.94722E+01 SP= -.13E+02 SK= 0.10E-02
    261 T=   572. E= -.22880242E+03 F= -.22508565E+03 E0= -.22508565E+03  EK= 0.93849E+01 SP= -.13E+02 SK= 0.30E-03
    262 T=   568. E= -.22880233E+03 F= -.22502392E+03 E0= -.22502392E+03  EK= 0.93175E+01 SP= -.13E+02 SK= 0.11E-08
    263 T=   565. E= -.22880229E+03 F= -.22497377E+03 E0= -.22497377E+03  EK= 0.92737E+01 SP= -.13E+02 SK= 0.37E-03
    264 T=   564. E= -.22880226E+03 F= -.22493658E+03 E0= -.22493658E+03  EK= 0.92558E+01 SP= -.13E+02 SK= 0.16E-02
    265 T=   564. E= -.22880230E+03 F= -.22491326E+03 E0= -.22491326E+03  EK= 0.92650E+01 SP= -.13E+02 SK= 0.36E-02
    266 T=   567. E= -.22880235E+03 F= -.22490407E+03 E0= -.22490407E+03  EK= 0.93015E+01 SP= -.13E+02 SK= 0.63E-02
    267 T=   570. E= -.22880240E+03 F= -.22490876E+03 E0= -.22490876E+03  EK= 0.93646E+01 SP= -.13E+02 SK= 0.95E-02
    268 T=   576. E= -.22880243E+03 F= -.22492703E+03 E0= -.22492703E+03  EK= 0.94528E+01 SP= -.13E+02 SK= 0.13E-01
    269 T=   583. E= -.22880245E+03 F= -.22495886E+03 E0= -.22495886E+03  EK= 0.95642E+01 SP= -.13E+02 SK= 0.15E-01
    270 T=   591. E= -.22880252E+03 F= -.22500422E+03 E0= -.22500422E+03  EK= 0.96966E+01 SP= -.14E+02 SK= 0.17E-01
 bond charge predicted
       N       E                     dE             d eps       ncg     rms          rms(c)
DAV:   1    -0.227174288661E+03   -0.11904E+01   -0.12830E+03   264   0.549E+01
DAV:   2    -0.234834947183E+03   -0.76607E+01   -0.76062E+01   336   0.133E+01
DAV:   3    -0.234984358840E+03   -0.14941E+00   -0.14929E+00   324   0.209E+00
DAV:   4    -0.234988545783E+03   -0.41869E-02   -0.41864E-02   348   0.335E-01
DAV:   5    -0.234988709869E+03   -0.16409E-03   -0.16408E-03   324   0.699E-02    0.775E+00
RMM:   6    -0.227391570705E+03    0.75971E+01   -0.12187E+01   264   0.243E+00    0.449E+00
RMM:   7    -0.224926997084E+03    0.24646E+01   -0.24882E+00   264   0.174E+00    0.219E+00
RMM:   8    -0.224592616004E+03    0.33438E+00   -0.11056E+00   264   0.108E+00    0.109E+00
RMM:   9    -0.224582941707E+03    0.96743E-02   -0.29557E-01   269   0.661E-01    0.728E-01
RMM:  10    -0.224570666167E+03    0.12276E-01   -0.81462E-02   265   0.398E-01    0.390E-01
RMM:  11    -0.224571437076E+03   -0.77091E-03   -0.26256E-02   270   0.223E-01    0.202E-01
RMM:  12    -0.224571189582E+03    0.24749E-03   -0.77038E-03   268   0.129E-01    0.993E-02
RMM:  13    -0.224571208874E+03   -0.19291E-04   -0.20258E-03   270   0.652E-02    0.434E-02
RMM:  14    -0.224571221428E+03   -0.12554E-04   -0.44068E-04   239   0.347E-02
    271 T=   601. E= -.22829854E+03 F= -.22457122E+03 E0= -.22454237E+03  EK= 0.98593E+01 SP= -.14E+02 SK= 0.18E-01
    272 T=   611. E= -.22877705E+03 F= -.22513362E+03 E0= -.22513362E+03  EK= 0.10036E+02 SP= -.14E+02 SK= 0.17E-01
    273 T=   622. E= -.22877752E+03 F= -.22521216E+03 E0= -.22521216E+03  EK= 0.10203E+02 SP= -.14E+02 SK= 0.14E-01
    274 T=   631. E= -.22877812E+03 F= -.22529258E+03 E0= -.22529258E+03  EK= 0.10363E+02 SP= -.14E+02 SK= 0.11E-01
    275 T=   640. E= -.22877878E+03 F= -.22536771E+03 E0= -.22536771E+03  EK= 0.10506E+02 SP= -.14E+02 SK= 0.66E-02
    276 T=   647. E= -.22877941E+03 F= -.22542966E+03 E0= -.22542966E+03  EK= 0.10618E+02 SP= -.14E+02 SK= 0.30E-02
    277 T=   651. E= -.22877992E+03 F= -.22547086E+03 E0= -.22547086E+03  EK= 0.10689E+02 SP= -.14E+02 SK= 0.65E-03
    278 T=   652. E= -.22878020E+03 F= -.22548534E+03 E0= -.22548534E+03  EK= 0.10711E+02 SP= -.14E+02 SK= 0.33E-04
    279 T=   651. E= -.22878020E+03 F= -.22546986E+03 E0= -.22546986E+03  EK= 0.10680E+02 SP= -.14E+02 SK= 0.14E-02
    280 T=   645. E= -.22877997E+03 F= -.22542424E+03 E0= -.22542424E+03  EK= 0.10595E+02 SP= -.14E+02 SK= 0.43E-02
    281 T=   637. E= -.22877954E+03 F= -.22535116E+03 E0= -.22535116E+03  EK= 0.10464E+02 SP= -.14E+02 SK= 0.83E-02
    282 T=   627. E= -.22877898E+03 F= -.22525568E+03 E0= -.22525568E+03  EK= 0.10295E+02 SP= -.14E+02 SK= 0.12E-01
    283 T=   615. E= -.22877840E+03 F= -.22514444E+03 E0= -.22514444E+03  EK= 0.10100E+02 SP= -.14E+02 SK= 0.15E-01
    284 T=   603. E= -.22877785E+03 F= -.22502468E+03 E0= -.22502468E+03  EK= 0.98908E+01 SP= -.14E+02 SK= 0.17E-01
    285 T=   590. E= -.22877739E+03 F= -.22490352E+03 E0= -.22490352E+03  EK= 0.96807E+01 SP= -.14E+02 SK= 0.16E-01
    286 T=   578. E= -.22877703E+03 F= -.22478745E+03 E0= -.22478745E+03  EK= 0.94810E+01 SP= -.13E+02 SK= 0.14E-01
    287 T=   567. E= -.22877680E+03 F= -.22468179E+03 E0= -.22468179E+03  EK= 0.93015E+01 SP= -.13E+02 SK= 0.11E-01
    288 T=   557. E= -.22877665E+03 F= -.22459066E+03 E0= -.22459066E+03  EK= 0.91500E+01 SP= -.13E+02 SK= 0.67E-02
    289 T=   550. E= -.22877658E+03 F= -.22451699E+03 E0= -.22451699E+03  EK= 0.90322E+01 SP= -.13E+02 SK= 0.31E-02
    290 T=   545. E= -.22877654E+03 F= -.22446259E+03 E0= -.22446259E+03  EK= 0.89521E+01 SP= -.13E+02 SK= 0.65E-03
    291 T=   543. E= -.22877656E+03 F= -.22442849E+03 E0= -.22442849E+03  EK= 0.89121E+01 SP= -.13E+02 SK= 0.45E-04
    292 T=   543. E= -.22877658E+03 F= -.22441479E+03 E0= -.22441479E+03  EK= 0.89130E+01 SP= -.13E+02 SK= 0.16E-02
    293 T=   545. E= -.22877662E+03 F= -.22442105E+03 E0= -.22442105E+03  EK= 0.89543E+01 SP= -.13E+02 SK= 0.51E-02
    294 T=   550. E= -.22877669E+03 F= -.22444623E+03 E0= -.22444623E+03  EK= 0.90345E+01 SP= -.13E+02 SK= 0.10E-01
    295 T=   557. E= -.22877683E+03 F= -.22448853E+03 E0= -.22448853E+03  EK= 0.91505E+01 SP= -.13E+02 SK= 0.16E-01
    296 T=   566. E= -.22877709E+03 F= -.22454501E+03 E0= -.22454501E+03  EK= 0.92973E+01 SP= -.14E+02 SK= 0.22E-01
    297 T=   577. E= -.22877750E+03 F= -.22461117E+03 E0= -.22461117E+03  EK= 0.94678E+01 SP= -.14E+02 SK= 0.27E-01
    298 T=   588. E= -.22877807E+03 F= -.22468064E+03 E0= -.22468064E+03  EK= 0.96521E+01 SP= -.14E+02 SK= 0.31E-01
    299 T=   599. E= -.22877878E+03 F= -.22474547E+03 E0= -.22474547E+03  EK= 0.98382E+01 SP= -.14E+02 SK= 0.32E-01
    300 T=   610. E= -.22877954E+03 F= -.22479672E+03 E0= -.22479672E+03  EK= 0.10013E+02 SP= -.14E+02 SK= 0.30E-01
    301 T=   619. E= -.22878024E+03 F= -.22482546E+03 E0= -.22482546E+03  EK= 0.10162E+02 SP= -.14E+02 SK= 0.27E-01
    302 T=   626. E= -.22878078E+03 F= -.22482428E+03 E0= -.22482428E+03  EK= 0.10275E+02 SP= -.14E+02 SK= 0.23E-01
    303 T=   630. E= -.22878109E+03 F= -.22478849E+03 E0= -.22478849E+03  EK= 0.10343E+02 SP= -.14E+02 SK= 0.18E-01
    304 T=   631. E= -.22878112E+03 F= -.22471686E+03 E0= -.22471686E+03  EK= 0.10363E+02 SP= -.14E+02 SK= 0.13E-01
    305 T=   630. E= -.22878089E+03 F= -.22461192E+03 E0= -.22461192E+03  EK= 0.10336E+02 SP= -.15E+02 SK= 0.92E-02
    306 T=   625. E= -.22878046E+03 F= -.22447953E+03 E0= -.22447953E+03  EK= 0.10268E+02 SP= -.15E+02 SK= 0.62E-02
    307 T=   619. E= -.22877984E+03 F= -.22432823E+03 E0= -.22432823E+03  EK= 0.10169E+02 SP= -.15E+02 SK= 0.42E-02
    308 T=   612. E= -.22877917E+03 F= -.22416857E+03 E0= -.22416857E+03  EK= 0.10053E+02 SP= -.15E+02 SK= 0.30E-02
    309 T=   605. E= -.22877847E+03 F= -.22401201E+03 E0= -.22401201E+03  EK= 0.99341E+01 SP= -.15E+02 SK= 0.24E-02
    310 T=   599. E= -.22877781E+03 F= -.22387015E+03 E0= -.22387015E+03  EK= 0.98267E+01 SP= -.15E+02 SK= 0.22E-02
    311 T=   594. E= -.22877727E+03 F= -.22375373E+03 E0= -.22375373E+03  EK= 0.97442E+01 SP= -.15E+02 SK= 0.24E-02
 bond charge predicted
       N       E                     dE             d eps       ncg     rms          rms(c)
DAV:   1    -0.229562057946E+03   -0.49908E+01   -0.11571E+03   264   0.522E+01
DAV:   2    -0.237338989636E+03   -0.77769E+01   -0.77253E+01   336   0.133E+01
DAV:   3    -0.237491911296E+03   -0.15292E+00   -0.15278E+00   348   0.208E+00
DAV:   4    -0.237496201632E+03   -0.42903E-02   -0.42898E-02   324   0.340E-01
DAV:   5    -0.237496374513E+03   -0.17288E-03   -0.17286E-03   348   0.704E-02    0.888E+00
RMM:   6    -0.226558413412E+03    0.10938E+02   -0.17166E+01   264   0.283E+00    0.483E+00
RMM:   7    -0.223751217604E+03    0.28072E+01   -0.31661E+00   264   0.201E+00    0.248E+00
RMM:   8    -0.223207041183E+03    0.54418E+00   -0.13864E+00   264   0.121E+00    0.116E+00
RMM:   9    -0.223171116215E+03    0.35925E-01   -0.39574E-01   269   0.753E-01    0.650E-01
RMM:  10    -0.223164786619E+03    0.63296E-02   -0.11721E-01   266   0.455E-01    0.378E-01
RMM:  11    -0.223163260048E+03    0.15266E-02   -0.33756E-02   267   0.251E-01    0.188E-01
RMM:  12    -0.223164104692E+03   -0.84464E-03   -0.11507E-02   275   0.152E-01    0.911E-02
RMM:  13    -0.223164252234E+03   -0.14754E-03   -0.20075E-03   264   0.691E-02    0.505E-02
RMM:  14    -0.223164257453E+03   -0.52191E-05   -0.71728E-04   248   0.426E-02
    312 T=   591. E= -.22826033E+03 F= -.22316426E+03 E0= -.22313909E+03  EK= 0.97068E+01 SP= -.15E+02 SK= 0.28E-02
    313 T=   592. E= -.22875773E+03 F= -.22363220E+03 E0= -.22363220E+03  EK= 0.97153E+01 SP= -.15E+02 SK= 0.33E-02
    314 T=   595. E= -.22875774E+03 F= -.22363667E+03 E0= -.22363667E+03  EK= 0.97606E+01 SP= -.15E+02 SK= 0.37E-02
    315 T=   600. E= -.22875794E+03 F= -.22368514E+03 E0= -.22368514E+03  EK= 0.98515E+01 SP= -.15E+02 SK= 0.38E-02
    316 T=   608. E= -.22875829E+03 F= -.22377479E+03 E0= -.22377479E+03  EK= 0.99833E+01 SP= -.15E+02 SK= 0.35E-02
    317 T=   618. E= -.22875877E+03 F= -.22390049E+03 E0= -.22390049E+03  EK= 0.10148E+02 SP= -.15E+02 SK= 0.26E-02
    318 T=   629. E= -.22875936E+03 F= -.22405533E+03 E0= -.22405533E+03  EK= 0.10334E+02 SP= -.15E+02 SK= 0.13E-02
    319 T=   641. E= -.22876003E+03 F= -.22423093E+03 E0= -.22423093E+03  EK= 0.10527E+02 SP= -.15E+02 SK= 0.22E-03
    320 T=   653. E= -.22876079E+03 F= -.22441772E+03 E0= -.22441772E+03  EK= 0.10714E+02 SP= -.15E+02 SK= 0.18E-03
    321 T=   663. E= -.22876156E+03 F= -.22460510E+03 E0= -.22460510E+03  EK= 0.10877E+02 SP= -.15E+02 SK= 0.23E-02
 bond charge predicted
       N       E                     dE             d eps       ncg     rms          rms(c)
DAV:   1    -0.226280883422E+03   -0.31166E+01   -0.26020E+02   264   0.253E+01
DAV:   2    -0.227391304435E+03   -0.11104E+01   -0.11094E+01   348   0.517E+00
DAV:   3    -0.227411264950E+03   -0.19961E-01   -0.19959E-01   336   0.783E-01
DAV:   4    -0.227411951837E+03   -0.68689E-03   -0.68687E-03   348   0.135E-01
DAV:   5    -0.227411978883E+03   -0.27046E-04   -0.27045E-04   300   0.285E-02    0.448E+00
RMM:   6    -0.224795000339E+03    0.26170E+01   -0.32361E+00   264   0.131E+00    0.190E+00
RMM:   7    -0.224572132578E+03    0.22287E+00   -0.69744E-01   264   0.922E-01    0.120E+00
RMM:   8    -0.224431132073E+03    0.14100E+00   -0.25570E-01   264   0.549E-01    0.533E-01
RMM:   9    -0.224421279157E+03    0.98529E-02   -0.91034E-02   264   0.351E-01    0.248E-01
RMM:  10    -0.224421246897E+03    0.32260E-04   -0.22504E-02   271   0.206E-01    0.152E-01
RMM:  11    -0.224420884948E+03    0.36195E-03   -0.64554E-03   269   0.113E-01    0.796E-02
RMM:  12    -0.224421035952E+03   -0.15100E-03   -0.20340E-03   267   0.669E-02    0.388E-02
RMM:  13    -0.224421070766E+03   -0.34814E-04   -0.45803E-04   237   0.324E-02
    322 T=   670. E= -.22840158E+03 F= -.22442107E+03 E0= -.22440709E+03  EK= 0.11000E+02 SP= -.15E+02 SK= 0.77E-02
    323 T=   674. E= -.22871911E+03 F= -.22489408E+03 E0= -.22489408E+03  EK= 0.11070E+02 SP= -.15E+02 SK= 0.17E-01
    324 T=   675. E= -.22871929E+03 F= -.22501946E+03 E0= -.22501946E+03  EK= 0.11075E+02 SP= -.15E+02 SK= 0.31E-01
    325 T=   671. E= -.22871908E+03 F= -.22510877E+03 E0= -.22510877E+03  EK= 0.11010E+02 SP= -.15E+02 SK= 0.48E-01
    326 T=   663. E= -.22871847E+03 F= -.22516018E+03 E0= -.22516018E+03  EK= 0.10877E+02 SP= -.15E+02 SK= 0.67E-01
    327 T=   651. E= -.22871754E+03 F= -.22517648E+03 E0= -.22517648E+03  EK= 0.10683E+02 SP= -.14E+02 SK= 0.86E-01
    328 T=   636. E= -.22871641E+03 F= -.22516482E+03 E0= -.22516482E+03  EK= 0.10443E+02 SP= -.14E+02 SK= 0.10E+00
    329 T=   620. E= -.22871518E+03 F= -.22513562E+03 E0= -.22513562E+03  EK= 0.10175E+02 SP= -.14E+02 SK= 0.11E+00
    330 T=   603. E= -.22871403E+03 F= -.22510151E+03 E0= -.22510151E+03  EK= 0.98999E+01 SP= -.14E+02 SK= 0.12E+00
    331 T=   587. E= -.22871309E+03 F= -.22507551E+03 E0= -.22507551E+03  EK= 0.96376E+01 SP= -.13E+02 SK= 0.12E+00
    332 T=   573. E= -.22871245E+03 F= -.22506917E+03 E0= -.22506917E+03  EK= 0.94054E+01 SP= -.13E+02 SK= 0.11E+00
    333 T=   561. E= -.22871210E+03 F= -.22509097E+03 E0= -.22509097E+03  EK= 0.92159E+01 SP= -.13E+02 SK= 0.97E-01
    334 T=   553. E= -.22871205E+03 F= -.22514553E+03 E0= -.22514553E+03  EK= 0.90767E+01 SP= -.13E+02 SK= 0.82E-01
    335 T=   548. E= -.22871226E+03 F= -.22523323E+03 E0= -.22523323E+03  EK= 0.89898E+01 SP= -.13E+02 SK= 0.67E-01
 bond charge predicted
       N       E                     dE             d eps       ncg     rms          rms(c)
DAV:   1    -0.228958643600E+03   -0.45376E+01   -0.44204E+02   264   0.328E+01
DAV:   2    -0.231184397753E+03   -0.22258E+01   -0.22220E+01   336   0.727E+00
DAV:   3    -0.231222264723E+03   -0.37867E-01   -0.37860E-01   348   0.108E+00
DAV:   4    -0.231223516446E+03   -0.12517E-02   -0.12517E-02   324   0.183E-01
DAV:   5    -0.231223565947E+03   -0.49501E-04   -0.49498E-04   336   0.386E-02    0.612E+00
RMM:   6    -0.225894976933E+03    0.53286E+01   -0.66964E+00   264   0.186E+00    0.249E+00
RMM:   7    -0.225465928369E+03    0.42905E+00   -0.15111E+00   264   0.132E+00    0.158E+00
RMM:   8    -0.225231843719E+03    0.23408E+00   -0.48920E-01   264   0.783E-01    0.725E-01
RMM:   9    -0.225210120112E+03    0.21724E-01   -0.18524E-01   264   0.497E-01    0.331E-01
RMM:  10    -0.225210884055E+03   -0.76394E-03   -0.46013E-02   271   0.295E-01    0.194E-01
RMM:  11    -0.225210597084E+03    0.28697E-03   -0.13308E-02   271   0.159E-01    0.105E-01
RMM:  12    -0.225210757841E+03   -0.16076E-03   -0.35026E-03   268   0.905E-02    0.462E-02
RMM:  13    -0.225210832497E+03   -0.74656E-04   -0.84558E-04   261   0.456E-02
    336 T=   546. E= -.22856585E+03 F= -.22521083E+03 E0= -.22519785E+03  EK= 0.89596E+01 SP= -.12E+02 SK= 0.52E-01
    337 T=   547. E= -.22869784E+03 F= -.22549031E+03 E0= -.22549031E+03  EK= 0.89723E+01 SP= -.12E+02 SK= 0.39E-01
    338 T=   549. E= -.22869842E+03 F= -.22564204E+03 E0= -.22564204E+03  EK= 0.90078E+01 SP= -.12E+02 SK= 0.28E-01
    339 T=   552. E= -.22869898E+03 F= -.22579448E+03 E0= -.22579448E+03  EK= 0.90621E+01 SP= -.12E+02 SK= 0.19E-01
    340 T=   556. E= -.22869939E+03 F= -.22593711E+03 E0= -.22593711E+03  EK= 0.91236E+01 SP= -.12E+02 SK= 0.13E-01
    341 T=   559. E= -.22869963E+03 F= -.22606140E+03 E0= -.22606140E+03  EK= 0.91828E+01 SP= -.12E+02 SK= 0.77E-02
    342 T=   562. E= -.22869968E+03 F= -.22616162E+03 E0= -.22616162E+03  EK= 0.92327E+01 SP= -.12E+02 SK= 0.43E-02
    343 T=   565. E= -.22869954E+03 F= -.22623519E+03 E0= -.22623519E+03  EK= 0.92699E+01 SP= -.12E+02 SK= 0.21E-02
    344 T=   566. E= -.22869926E+03 F= -.22628259E+03 E0= -.22628259E+03  EK= 0.92941E+01 SP= -.12E+02 SK= 0.67E-03
    345 T=   567. E= -.22869891E+03 F= -.22630681E+03 E0= -.22630681E+03  EK= 0.93077E+01 SP= -.12E+02 SK= 0.51E-04
    346 T=   567. E= -.22869852E+03 F= -.22631243E+03 E0= -.22631243E+03  EK= 0.93151E+01 SP= -.12E+02 SK= 0.13E-03
    347 T=   568. E= -.22869818E+03 F= -.22630469E+03 E0= -.22630469E+03  EK= 0.93212E+01 SP= -.12E+02 SK= 0.88E-03
    348 T=   568. E= -.22869792E+03 F= -.22628844E+03 E0= -.22628844E+03  EK= 0.93308E+01 SP= -.12E+02 SK= 0.23E-02
    349 T=   569. E= -.22869774E+03 F= -.22626760E+03 E0= -.22626760E+03  EK= 0.93474E+01 SP= -.12E+02 SK= 0.42E-02
    350 T=   571. E= -.22869764E+03 F= -.22624499E+03 E0= -.22624499E+03  EK= 0.93738E+01 SP= -.12E+02 SK= 0.67E-02
    351 T=   573. E= -.22869764E+03 F= -.22622225E+03 E0= -.22622225E+03  EK= 0.94109E+01 SP= -.12E+02 SK= 0.96E-02
    352 T=   576. E= -.22869771E+03 F= -.22619979E+03 E0= -.22619979E+03  EK= 0.94584E+01 SP= -.12E+02 SK= 0.13E-01
    353 T=   580. E= -.22869782E+03 F= -.22617698E+03 E0= -.22617698E+03  EK= 0.95150E+01 SP= -.12E+02 SK= 0.15E-01
    354 T=   583. E= -.22869795E+03 F= -.22615277E+03 E0= -.22615277E+03  EK= 0.95782E+01 SP= -.12E+02 SK= 0.18E-01
    355 T=   588. E= -.22869806E+03 F= -.22612600E+03 E0= -.22612600E+03  EK= 0.96456E+01 SP= -.12E+02 SK= 0.20E-01
    356 T=   592. E= -.22869812E+03 F= -.22609591E+03 E0= -.22609591E+03  EK= 0.97150E+01 SP= -.12E+02 SK= 0.22E-01
    357 T=   596. E= -.22869811E+03 F= -.22606267E+03 E0= -.22606267E+03  EK= 0.97850E+01 SP= -.12E+02 SK= 0.23E-01
    358 T=   600. E= -.22869804E+03 F= -.22602746E+03 E0= -.22602746E+03  EK= 0.98549E+01 SP= -.13E+02 SK= 0.23E-01
    359 T=   605. E= -.22869792E+03 F= -.22599249E+03 E0= -.22599249E+03  EK= 0.99254E+01 SP= -.13E+02 SK= 0.22E-01
    360 T=   609. E= -.22869779E+03 F= -.22596070E+03 E0= -.22596070E+03  EK= 0.99975E+01 SP= -.13E+02 SK= 0.21E-01
    361 T=   614. E= -.22869768E+03 F= -.22593518E+03 E0= -.22593518E+03  EK= 0.10072E+02 SP= -.13E+02 SK= 0.19E-01
    362 T=   618. E= -.22869768E+03 F= -.22591855E+03 E0= -.22591855E+03  EK= 0.10151E+02 SP= -.13E+02 SK= 0.16E-01
    363 T=   623. E= -.22869783E+03 F= -.22591192E+03 E0= -.22591192E+03  EK= 0.10232E+02 SP= -.13E+02 SK= 0.13E-01
    364 T=   628. E= -.22869818E+03 F= -.22591430E+03 E0= -.22591430E+03  EK= 0.10312E+02 SP= -.13E+02 SK= 0.99E-02
 bond charge predicted
       N       E                     dE             d eps       ncg     rms          rms(c)
DAV:   1    -0.230415429171E+03   -0.52047E+01   -0.93982E+02   264   0.474E+01
DAV:   2    -0.235828073765E+03   -0.54126E+01   -0.53905E+01   336   0.112E+01
DAV:   3    -0.235928045744E+03   -0.99972E-01   -0.99930E-01   336   0.172E+00
DAV:   4    -0.235931028211E+03   -0.29825E-02   -0.29822E-02   336   0.284E-01
DAV:   5    -0.235931146693E+03   -0.11848E-03   -0.11848E-03   336   0.593E-02    0.783E+00
RMM:   6    -0.227670138886E+03    0.82610E+01   -0.11614E+01   264   0.240E+00    0.380E+00
RMM:   7    -0.226317066001E+03    0.13531E+01   -0.22542E+00   264   0.167E+00    0.224E+00
RMM:   8    -0.225859240396E+03    0.45783E+00   -0.10555E+00   264   0.106E+00    0.987E-01
RMM:   9    -0.225831490520E+03    0.27750E-01   -0.31514E-01   266   0.666E-01    0.517E-01
RMM:  10    -0.225827153132E+03    0.43374E-02   -0.86078E-02   269   0.398E-01    0.287E-01
RMM:  11    -0.225827241127E+03   -0.87995E-04   -0.23839E-02   269   0.217E-01    0.145E-01
RMM:  12    -0.225827867509E+03   -0.62638E-03   -0.71494E-03   272   0.127E-01    0.691E-02
RMM:  13    -0.225827969112E+03   -0.10160E-03   -0.15395E-03   268   0.600E-02    0.375E-02
RMM:  14    -0.225827978313E+03   -0.92016E-05   -0.42314E-04   231   0.340E-02
    365 T=   632. E= -.22861246E+03 F= -.22582798E+03 E0= -.22581159E+03  EK= 0.10377E+02 SP= -.13E+02 SK= 0.66E-02
    366 T=   635. E= -.22871469E+03 F= -.22593018E+03 E0= -.22593018E+03  EK= 0.10430E+02 SP= -.13E+02 SK= 0.37E-02
    367 T=   638. E= -.22871524E+03 F= -.22593185E+03 E0= -.22593185E+03  EK= 0.10468E+02 SP= -.13E+02 SK= 0.15E-02
    368 T=   638. E= -.22871570E+03 F= -.22592056E+03 E0= -.22592056E+03  EK= 0.10476E+02 SP= -.13E+02 SK= 0.25E-03
    369 T=   637. E= -.22871603E+03 F= -.22589070E+03 E0= -.22589070E+03  EK= 0.10450E+02 SP= -.13E+02 SK= 0.45E-04
    370 T=   633. E= -.22871616E+03 F= -.22583837E+03 E0= -.22583837E+03  EK= 0.10384E+02 SP= -.13E+02 SK= 0.77E-03
    371 T=   626. E= -.22871611E+03 F= -.22576203E+03 E0= -.22576203E+03  EK= 0.10281E+02 SP= -.13E+02 SK= 0.21E-02
    372 T=   618. E= -.22871594E+03 F= -.22566250E+03 E0= -.22566250E+03  EK= 0.10144E+02 SP= -.13E+02 SK= 0.35E-02
    373 T=   608. E= -.22871563E+03 F= -.22554271E+03 E0= -.22554271E+03  EK= 0.99787E+01 SP= -.13E+02 SK= 0.46E-02
    374 T=   597. E= -.22871517E+03 F= -.22540794E+03 E0= -.22540794E+03  EK= 0.97961E+01 SP= -.13E+02 SK= 0.49E-02
    375 T=   585. E= -.22871465E+03 F= -.22526571E+03 E0= -.22526571E+03  EK= 0.96079E+01 SP= -.13E+02 SK= 0.43E-02
    376 T=   574. E= -.22871410E+03 F= -.22512503E+03 E0= -.22512503E+03  EK= 0.94274E+01 SP= -.13E+02 SK= 0.29E-02
    377 T=   565. E= -.22871359E+03 F= -.22499564E+03 E0= -.22499564E+03  EK= 0.92684E+01 SP= -.13E+02 SK= 0.14E-02
    378 T=   557. E= -.22871318E+03 F= -.22488696E+03 E0= -.22488696E+03  EK= 0.91434E+01 SP= -.13E+02 SK= 0.21E-03
    379 T=   552. E= -.22871292E+03 F= -.22480692E+03 E0= -.22480692E+03  EK= 0.90627E+01 SP= -.13E+02 SK= 0.13E-03
    380 T=   550. E= -.22871284E+03 F= -.22476096E+03 E0= -.22476096E+03  EK= 0.90332E+01 SP= -.13E+02 SK= 0.16E-02
    381 T=   552. E= -.22871293E+03 F= -.22475150E+03 E0= -.22475150E+03  EK= 0.90581E+01 SP= -.13E+02 SK= 0.46E-02
    382 T=   557. E= -.22871320E+03 F= -.22477771E+03 E0= -.22477771E+03  EK= 0.91362E+01 SP= -.13E+02 SK= 0.89E-02
    383 T=   564. E= -.22871359E+03 F= -.22483592E+03 E0= -.22483592E+03  EK= 0.92628E+01 SP= -.13E+02 SK= 0.14E-01
    384 T=   574. E= -.22871403E+03 F= -.22492043E+03 E0= -.22492043E+03  EK= 0.94299E+01 SP= -.13E+02 SK= 0.18E-01
    385 T=   586. E= -.22871449E+03 F= -.22502464E+03 E0= -.22502464E+03  EK= 0.96279E+01 SP= -.13E+02 SK= 0.21E-01
    386 T=   600. E= -.22871491E+03 F= -.22514196E+03 E0= -.22514196E+03  EK= 0.98460E+01 SP= -.13E+02 SK= 0.22E-01
    387 T=   614. E= -.22871532E+03 F= -.22526653E+03 E0= -.22526653E+03  EK= 0.10073E+02 SP= -.14E+02 SK= 0.21E-01
    388 T=   627. E= -.22871569E+03 F= -.22539337E+03 E0= -.22539337E+03  EK= 0.10299E+02 SP= -.14E+02 SK= 0.17E-01
    389 T=   640. E= -.22871606E+03 F= -.22551835E+03 E0= -.22551835E+03  EK= 0.10513E+02 SP= -.14E+02 SK= 0.12E-01
    390 T=   652. E= -.22871646E+03 F= -.22563757E+03 E0= -.22563757E+03  EK= 0.10704E+02 SP= -.14E+02 SK= 0.68E-02
    391 T=   662. E= -.22871694E+03 F= -.22574656E+03 E0= -.22574656E+03  EK= 0.10863E+02 SP= -.14E+02 SK= 0.23E-02
    392 T=   669. E= -.22871752E+03 F= -.22583940E+03 E0= -.22583940E+03  EK= 0.10977E+02 SP= -.14E+02 SK= 0.89E-04
    393 T=   672. E= -.22871811E+03 F= -.22590848E+03 E0= -.22590848E+03  EK= 0.11037E+02 SP= -.14E+02 SK= 0.11E-02
    394 T=   672. E= -.22871859E+03 F= -.22594516E+03 E0= -.22594516E+03  EK= 0.11030E+02 SP= -.14E+02 SK= 0.58E-02
    395 T=   667. E= -.22871881E+03 F= -.22594133E+03 E0= -.22594133E+03  EK= 0.10951E+02 SP= -.14E+02 SK= 0.14E-01
    396 T=   658. E= -.22871871E+03 F= -.22589114E+03 E0= -.22589114E+03  EK= 0.10795E+02 SP= -.14E+02 SK= 0.24E-01
    397 T=   644. E= -.22871827E+03 F= -.22579234E+03 E0= -.22579234E+03  EK= 0.10568E+02 SP= -.14E+02 SK= 0.35E-01
    398 T=   626. E= -.22871749E+03 F= -.22564741E+03 E0= -.22564741E+03  EK= 0.10278E+02 SP= -.13E+02 SK= 0.43E-01
    399 T=   606. E= -.22871643E+03 F= -.22546413E+03 E0= -.22546413E+03  EK= 0.99435E+01 SP= -.13E+02 SK= 0.47E-01
    400 T=   584. E= -.22871519E+03 F= -.22525559E+03 E0= -.22525559E+03  EK= 0.95863E+01 SP= -.13E+02 SK= 0.46E-01
    401 T=   562. E= -.22871399E+03 F= -.22503900E+03 E0= -.22503900E+03  EK= 0.92323E+01 SP= -.13E+02 SK= 0.40E-01
 bond charge predicted
       N       E                     dE             d eps       ncg     rms          rms(c)
DAV:   1    -0.226506562450E+03   -0.67859E+00   -0.11001E+03   264   0.512E+01
DAV:   2    -0.232367393090E+03   -0.58608E+01   -0.58350E+01   336   0.117E+01
DAV:   3    -0.232476685373E+03   -0.10929E+00   -0.10924E+00   348   0.180E+00
DAV:   4    -0.232479859989E+03   -0.31746E-02   -0.31744E-02   336   0.294E-01
DAV:   5    -0.232479983157E+03   -0.12317E-03   -0.12316E-03   348   0.607E-02    0.704E+00
RMM:   6    -0.225738899689E+03    0.67411E+01   -0.83611E+00   264   0.207E+00    0.345E+00
RMM:   7    -0.224870326836E+03    0.86857E+00   -0.20074E+00   264   0.150E+00    0.222E+00
RMM:   8    -0.224450915891E+03    0.41941E+00   -0.89257E-01   264   0.974E-01    0.103E+00
RMM:   9    -0.224420674997E+03    0.30241E-01   -0.29926E-01   265   0.632E-01    0.547E-01
RMM:  10    -0.224418721091E+03    0.19539E-02   -0.78792E-02   270   0.376E-01    0.316E-01
RMM:  11    -0.224417709928E+03    0.10112E-02   -0.22328E-02   269   0.208E-01    0.157E-01
RMM:  12    -0.224418275845E+03   -0.56592E-03   -0.69535E-03   268   0.123E-01    0.778E-02
RMM:  13    -0.224418338493E+03   -0.62648E-04   -0.16587E-03   271   0.601E-02    0.457E-02
RMM:  14    -0.224418310216E+03    0.28277E-04   -0.40085E-04   235   0.324E-02
    402 T=   542. E= -.22830210E+03 F= -.22441831E+03 E0= -.22440124E+03  EK= 0.89035E+01 SP= -.13E+02 SK= 0.30E-01
    403 T=   525. E= -.22871961E+03 F= -.22465443E+03 E0= -.22465443E+03  EK= 0.86265E+01 SP= -.13E+02 SK= 0.18E-01
    404 T=   513. E= -.22871928E+03 F= -.22451751E+03 E0= -.22451751E+03  EK= 0.84226E+01 SP= -.13E+02 SK= 0.78E-02
    405 T=   506. E= -.22871926E+03 F= -.22443021E+03 E0= -.22443021E+03  EK= 0.82987E+01 SP= -.13E+02 SK= 0.13E-02
    406 T=   503. E= -.22871952E+03 F= -.22439463E+03 E0= -.22439463E+03  EK= 0.82583E+01 SP= -.13E+02 SK= 0.40E-03
    407 T=   506. E= -.22871993E+03 F= -.22440761E+03 E0= -.22440761E+03  EK= 0.82988E+01 SP= -.13E+02 SK= 0.57E-02
    408 T=   513. E= -.22872038E+03 F= -.22446240E+03 E0= -.22446240E+03  EK= 0.84134E+01 SP= -.13E+02 SK= 0.16E-01
    409 T=   523. E= -.22872076E+03 F= -.22455071E+03 E0= -.22455071E+03  EK= 0.85927E+01 SP= -.13E+02 SK= 0.31E-01
    410 T=   538. E= -.22872105E+03 F= -.22466462E+03 E0= -.22466462E+03  EK= 0.88270E+01 SP= -.13E+02 SK= 0.46E-01
    411 T=   555. E= -.22872129E+03 F= -.22479757E+03 E0= -.22479757E+03  EK= 0.91065E+01 SP= -.13E+02 SK= 0.61E-01
    412 T=   574. E= -.22872158E+03 F= -.22494419E+03 E0= -.22494419E+03  EK= 0.94212E+01 SP= -.13E+02 SK= 0.71E-01
    413 T=   595. E= -.22872205E+03 F= -.22509935E+03 E0= -.22509935E+03  EK= 0.97600E+01 SP= -.13E+02 SK= 0.76E-01
    414 T=   616. E= -.22872278E+03 F= -.22525670E+03 E0= -.22525670E+03  EK= 0.10109E+02 SP= -.14E+02 SK= 0.74E-01
    415 T=   637. E= -.22872374E+03 F= -.22540800E+03 E0= -.22540800E+03  EK= 0.10452E+02 SP= -.14E+02 SK= 0.65E-01
    416 T=   656. E= -.22872478E+03 F= -.22554330E+03 E0= -.22554330E+03  EK= 0.10768E+02 SP= -.14E+02 SK= 0.52E-01
    417 T=   672. E= -.22872577E+03 F= -.22565248E+03 E0= -.22565248E+03  EK= 0.11037E+02 SP= -.14E+02 SK= 0.36E-01
    418 T=   685. E= -.22872650E+03 F= -.22572701E+03 E0= -.22572701E+03  EK= 0.11241E+02 SP= -.14E+02 SK= 0.20E-01
    419 T=   693. E= -.22872681E+03 F= -.22576182E+03 E0= -.22576182E+03  EK= 0.11369E+02 SP= -.14E+02 SK= 0.79E-02
    420 T=   695. E= -.22872666E+03 F= -.22575635E+03 E0= -.22575635E+03  EK= 0.11413E+02 SP= -.14E+02 SK= 0.11E-02
    421 T=   693. E= -.22872612E+03 F= -.22571468E+03 E0= -.22571468E+03  EK= 0.11375E+02 SP= -.14E+02 SK= 0.53E-03
    422 T=   686. E= -.22872536E+03 F= -.22564445E+03 E0= -.22564445E+03  EK= 0.11266E+02 SP= -.14E+02 SK= 0.58E-02
    423 T=   676. E= -.22872450E+03 F= -.22555494E+03 E0= -.22555494E+03  EK= 0.11097E+02 SP= -.14E+02 SK= 0.16E-01
    424 T=   663. E= -.22872365E+03 F= -.22545555E+03 E0= -.22545555E+03  EK= 0.10885E+02 SP= -.14E+02 SK= 0.28E-01
    425 T=   648. E= -.22872293E+03 F= -.22535471E+03 E0= -.22535471E+03  EK= 0.10645E+02 SP= -.14E+02 SK= 0.40E-01
    426 T=   633. E= -.22872235E+03 F= -.22525913E+03 E0= -.22525913E+03  EK= 0.10392E+02 SP= -.14E+02 SK= 0.50E-01
    427 T=   618. E= -.22872189E+03 F= -.22517389E+03 E0= -.22517389E+03  EK= 0.10139E+02 SP= -.14E+02 SK= 0.57E-01
    428 T=   603. E= -.22872148E+03 F= -.22510295E+03 E0= -.22510295E+03  EK= 0.98957E+01 SP= -.14E+02 SK= 0.61E-01
    429 T=   589. E= -.22872119E+03 F= -.22504977E+03 E0= -.22504977E+03  EK= 0.96726E+01 SP= -.13E+02 SK= 0.60E-01
    430 T=   577. E= -.22872096E+03 F= -.22501697E+03 E0= -.22501697E+03  EK= 0.94773E+01 SP= -.13E+02 SK= 0.55E-01
    431 T=   567. E= -.22872082E+03 F= -.22500656E+03 E0= -.22500656E+03  EK= 0.93155E+01 SP= -.13E+02 SK= 0.48E-01
    432 T=   560. E= -.22872076E+03 F= -.22501944E+03 E0= -.22501944E+03  EK= 0.91912E+01 SP= -.13E+02 SK= 0.40E-01
    433 T=   555. E= -.22872080E+03 F= -.22505528E+03 E0= -.22505528E+03  EK= 0.91059E+01 SP= -.13E+02 SK= 0.30E-01
    434 T=   552. E= -.22872092E+03 F= -.22511216E+03 E0= -.22511216E+03  EK= 0.90589E+01 SP= -.13E+02 SK= 0.22E-01
    435 T=   551. E= -.22872114E+03 F= -.22518669E+03 E0= -.22518669E+03  EK= 0.90473E+01 SP= -.13E+02 SK= 0.14E-01
    436 T=   552. E= -.22872146E+03 F= -.22527387E+03 E0= -.22527387E+03  EK= 0.90660E+01 SP= -.13E+02 SK= 0.85E-02
    437 T=   555. E= -.22872184E+03 F= -.22536721E+03 E0= -.22536721E+03  EK= 0.91080E+01 SP= -.12E+02 SK= 0.43E-02
    438 T=   558. E= -.22872225E+03 F= -.22545929E+03 E0= -.22545929E+03  EK= 0.91650E+01 SP= -.12E+02 SK= 0.17E-02
    439 T=   562. E= -.22872263E+03 F= -.22554250E+03 E0= -.22554250E+03  EK= 0.92282E+01 SP= -.12E+02 SK= 0.35E-03
    440 T=   566. E= -.22872294E+03 F= -.22560988E+03 E0= -.22560988E+03  EK= 0.92897E+01 SP= -.12E+02 SK= 0.23E-05
    441 T=   569. E= -.22872310E+03 F= -.22565605E+03 E0= -.22565605E+03  EK= 0.93427E+01 SP= -.12E+02 SK= 0.39E-03
    442 T=   572. E= -.22872310E+03 F= -.22567809E+03 E0= -.22567809E+03  EK= 0.93833E+01 SP= -.12E+02 SK= 0.13E-02
    443 T=   573. E= -.22872291E+03 F= -.22567597E+03 E0= -.22567597E+03  EK= 0.94106E+01 SP= -.12E+02 SK= 0.27E-02
    444 T=   574. E= -.22872256E+03 F= -.22565290E+03 E0= -.22565290E+03  EK= 0.94272E+01 SP= -.13E+02 SK= 0.44E-02
    445 T=   575. E= -.22872207E+03 F= -.22561489E+03 E0= -.22561489E+03  EK= 0.94386E+01 SP= -.13E+02 SK= 0.64E-02
    446 T=   576. E= -.22872151E+03 F= -.22557025E+03 E0= -.22557025E+03  EK= 0.94528E+01 SP= -.13E+02 SK= 0.88E-02
    447 T=   577. E= -.22872094E+03 F= -.22552850E+03 E0= -.22552850E+03  EK= 0.94790E+01 SP= -.13E+02 SK= 0.11E-01
    448 T=   580. E= -.22872053E+03 F= -.22549908E+03 E0= -.22549908E+03  EK= 0.95260E+01 SP= -.13E+02 SK= 0.14E-01
    449 T=   585. E= -.22872033E+03 F= -.22548937E+03 E0= -.22548937E+03  EK= 0.96003E+01 SP= -.13E+02 SK= 0.16E-01
    450 T=   591. E= -.22872044E+03 F= -.22550333E+03 E0= -.22550333E+03  EK= 0.97042E+01 SP= -.13E+02 SK= 0.18E-01
    451 T=   599. E= -.22872088E+03 F= -.22554041E+03 E0= -.22554041E+03  EK= 0.98351E+01 SP= -.13E+02 SK= 0.19E-01
    452 T=   608. E= -.22872159E+03 F= -.22559543E+03 E0= -.22559543E+03  EK= 0.99850E+01 SP= -.13E+02 SK= 0.18E-01
    453 T=   618. E= -.22872252E+03 F= -.22565930E+03 E0= -.22565930E+03  EK= 0.10141E+02 SP= -.13E+02 SK= 0.16E-01
    454 T=   627. E= -.22872351E+03 F= -.22572030E+03 E0= -.22572030E+03  EK= 0.10288E+02 SP= -.13E+02 SK= 0.13E-01
    455 T=   634. E= -.22872443E+03 F= -.22576593E+03 E0= -.22576593E+03  EK= 0.10408E+02 SP= -.13E+02 SK= 0.88E-02
    456 T=   639. E= -.22872510E+03 F= -.22578493E+03 E0= -.22578493E+03  EK= 0.10488E+02 SP= -.13E+02 SK= 0.51E-02
    457 T=   641. E= -.22872540E+03 F= -.22576942E+03 E0= -.22576942E+03  EK= 0.10516E+02 SP= -.13E+02 SK= 0.23E-02
    458 T=   639. E= -.22872527E+03 F= -.22571655E+03 E0= -.22571655E+03  EK= 0.10490E+02 SP= -.13E+02 SK= 0.54E-03
    459 T=   634. E= -.22872467E+03 F= -.22562935E+03 E0= -.22562935E+03  EK= 0.10412E+02 SP= -.14E+02 SK= 0.67E-06
    460 T=   627. E= -.22872374E+03 F= -.22551700E+03 E0= -.22551700E+03  EK= 0.10295E+02 SP= -.14E+02 SK= 0.32E-03
    461 T=   619. E= -.22872258E+03 F= -.22539366E+03 E0= -.22539366E+03  EK= 0.10154E+02 SP= -.13E+02 SK= 0.10E-02
    462 T=   610. E= -.22872141E+03 F= -.22527659E+03 E0= -.22527659E+03  EK= 0.10012E+02 SP= -.13E+02 SK= 0.17E-02
    463 T=   602. E= -.22872044E+03 F= -.22518327E+03 E0= -.22518327E+03  EK= 0.98894E+01 SP= -.13E+02 SK= 0.20E-02
    464 T=   597. E= -.22871982E+03 F= -.22512834E+03 E0= -.22512834E+03  EK= 0.98035E+01 SP= -.13E+02 SK= 0.21E-02
    465 T=   595. E= -.22871965E+03 F= -.22512117E+03 E0= -.22512117E+03  EK= 0.97656E+01 SP= -.13E+02 SK= 0.19E-02
    466 T=   596. E= -.22871991E+03 F= -.22516452E+03 E0= -.22516452E+03  EK= 0.97794E+01 SP= -.13E+02 SK= 0.17E-02
    467 T=   599. E= -.22872053E+03 F= -.22525455E+03 E0= -.22525455E+03  EK= 0.98405E+01 SP= -.13E+02 SK= 0.16E-02
    468 T=   605. E= -.22872141E+03 F= -.22538173E+03 E0= -.22538173E+03  EK= 0.99379E+01 SP= -.13E+02 SK= 0.18E-02
    469 T=   613. E= -.22872243E+03 F= -.22553244E+03 E0= -.22553244E+03  EK= 0.10056E+02 SP= -.13E+02 SK= 0.23E-02
    470 T=   620. E= -.22872343E+03 F= -.22569095E+03 E0= -.22569095E+03  EK= 0.10175E+02 SP= -.13E+02 SK= 0.34E-02
    471 T=   626. E= -.22872426E+03 F= -.22584162E+03 E0= -.22584162E+03  EK= 0.10277E+02 SP= -.13E+02 SK= 0.53E-02
    472 T=   630. E= -.22872480E+03 F= -.22597104E+03 E0= -.22597104E+03  EK= 0.10347E+02 SP= -.13E+02 SK= 0.81E-02
    473 T=   632. E= -.22872499E+03 F= -.22606973E+03 E0= -.22606973E+03  EK= 0.10372E+02 SP= -.13E+02 SK= 0.12E-01
    474 T=   630. E= -.22872483E+03 F= -.22613299E+03 E0= -.22613299E+03  EK= 0.10348E+02 SP= -.13E+02 SK= 0.16E-01
    475 T=   626. E= -.22872439E+03 F= -.22616084E+03 E0= -.22616084E+03  EK= 0.10276E+02 SP= -.13E+02 SK= 0.21E-01
    476 T=   619. E= -.22872372E+03 F= -.22615755E+03 E0= -.22615755E+03  EK= 0.10163E+02 SP= -.13E+02 SK= 0.26E-01
    477 T=   610. E= -.22872295E+03 F= -.22613071E+03 E0= -.22613071E+03  EK= 0.10019E+02 SP= -.13E+02 SK= 0.29E-01
    478 T=   601. E= -.22872211E+03 F= -.22609007E+03 E0= -.22609007E+03  EK= 0.98587E+01 SP= -.13E+02 SK= 0.30E-01
    479 T=   591. E= -.22872138E+03 F= -.22604638E+03 E0= -.22604638E+03  EK= 0.96963E+01 SP= -.12E+02 SK= 0.29E-01
 bond charge predicted
       N       E                     dE             d eps       ncg     rms          rms(c)
DAV:   1    -0.227217157025E+03   -0.27988E+01   -0.14827E+03   264   0.581E+01
DAV:   2    -0.236201452301E+03   -0.89843E+01   -0.88958E+01   336   0.142E+01
DAV:   3    -0.236388674510E+03   -0.18722E+00   -0.18688E+00   336   0.229E+00
DAV:   4    -0.236393661782E+03   -0.49873E-02   -0.49856E-02   336   0.364E-01
DAV:   5    -0.236393854108E+03   -0.19233E-03   -0.19231E-03   348   0.751E-02    0.808E+00
RMM:   6    -0.229184809610E+03    0.72090E+01   -0.11969E+01   264   0.241E+00    0.493E+00
RMM:   7    -0.226347558303E+03    0.28373E+01   -0.23158E+00   264   0.171E+00    0.249E+00
RMM:   8    -0.225869627967E+03    0.47793E+00   -0.12523E+00   264   0.111E+00    0.119E+00
RMM:   9    -0.225853469672E+03    0.16158E-01   -0.33992E-01   265   0.691E-01    0.754E-01
RMM:  10    -0.225833625229E+03    0.19844E-01   -0.99260E-02   266   0.420E-01    0.399E-01
RMM:  11    -0.225834047209E+03   -0.42198E-03   -0.29035E-02   272   0.238E-01    0.188E-01
RMM:  12    -0.225834662535E+03   -0.61533E-03   -0.87527E-03   270   0.141E-01    0.995E-02
RMM:  13    -0.225834620176E+03    0.42358E-04   -0.20222E-03   266   0.692E-02    0.527E-02
RMM:  14    -0.225834606665E+03    0.13511E-04   -0.60882E-04   257   0.412E-02
    480 T=   582. E= -.22853982E+03 F= -.22583461E+03 E0= -.22581343E+03  EK= 0.95519E+01 SP= -.12E+02 SK= 0.27E-01
    481 T=   574. E= -.22870761E+03 F= -.22598586E+03 E0= -.22598586E+03  EK= 0.94292E+01 SP= -.12E+02 SK= 0.23E-01
    482 T=   568. E= -.22870751E+03 F= -.22598100E+03 E0= -.22598100E+03  EK= 0.93290E+01 SP= -.12E+02 SK= 0.18E-01
    483 T=   564. E= -.22870762E+03 F= -.22599595E+03 E0= -.22599595E+03  EK= 0.92610E+01 SP= -.12E+02 SK= 0.14E-01
    484 T=   562. E= -.22870788E+03 F= -.22602868E+03 E0= -.22602868E+03  EK= 0.92242E+01 SP= -.12E+02 SK= 0.91E-02
    485 T=   561. E= -.22870825E+03 F= -.22607454E+03 E0= -.22607454E+03  EK= 0.92145E+01 SP= -.12E+02 SK= 0.54E-02
    486 T=   562. E= -.22870864E+03 F= -.22612713E+03 E0= -.22612713E+03  EK= 0.92258E+01 SP= -.12E+02 SK= 0.27E-02
    487 T=   564. E= -.22870896E+03 F= -.22617953E+03 E0= -.22617953E+03  EK= 0.92509E+01 SP= -.12E+02 SK= 0.94E-03
    488 T=   565. E= -.22870918E+03 F= -.22622558E+03 E0= -.22622558E+03  EK= 0.92832E+01 SP= -.12E+02 SK= 0.11E-03
    489 T=   568. E= -.22870925E+03 F= -.22626066E+03 E0= -.22626066E+03  EK= 0.93173E+01 SP= -.12E+02 SK= 0.66E-04
    490 T=   570. E= -.22870919E+03 F= -.22628229E+03 E0= -.22628229E+03  EK= 0.93502E+01 SP= -.12E+02 SK= 0.66E-03
    491 T=   571. E= -.22870906E+03 F= -.22629004E+03 E0= -.22629004E+03  EK= 0.93807E+01 SP= -.12E+02 SK= 0.18E-02
    492 T=   573. E= -.22870888E+03 F= -.22628492E+03 E0= -.22628492E+03  EK= 0.94090E+01 SP= -.12E+02 SK= 0.33E-02
    493 T=   575. E= -.22870867E+03 F= -.22626889E+03 E0= -.22626889E+03  EK= 0.94365E+01 SP= -.12E+02 SK= 0.52E-02
    494 T=   577. E= -.22870849E+03 F= -.22624449E+03 E0= -.22624449E+03  EK= 0.94652E+01 SP= -.12E+02 SK= 0.73E-02
    495 T=   578. E= -.22870838E+03 F= -.22621402E+03 E0= -.22621402E+03  EK= 0.94966E+01 SP= -.12E+02 SK= 0.96E-02
    496 T=   581. E= -.22870834E+03 F= -.22617906E+03 E0= -.22617906E+03  EK= 0.95317E+01 SP= -.12E+02 SK= 0.12E-01
    497 T=   583. E= -.22870838E+03 F= -.22614021E+03 E0= -.22614021E+03  EK= 0.95703E+01 SP= -.12E+02 SK= 0.14E-01
    498 T=   585. E= -.22870852E+03 F= -.22609708E+03 E0= -.22609708E+03  EK= 0.96111E+01 SP= -.12E+02 SK= 0.16E-01
    499 T=   588. E= -.22870869E+03 F= -.22604830E+03 E0= -.22604830E+03  EK= 0.96520E+01 SP= -.12E+02 SK= 0.18E-01
    500 T=   590. E= -.22870887E+03 F= -.22599202E+03 E0= -.22599202E+03  EK= 0.96901E+01 SP= -.12E+02 SK= 0.20E-01
    501 T=   592. E= -.22870902E+03 F= -.22592640E+03 E0= -.22592640E+03  EK= 0.97227E+01 SP= -.13E+02 SK= 0.21E-01
    502 T=   594. E= -.22870914E+03 F= -.22585021E+03 E0= -.22585021E+03  EK= 0.97478E+01 SP= -.13E+02 SK= 0.22E-01
    503 T=   595. E= -.22870920E+03 F= -.22576310E+03 E0= -.22576310E+03  EK= 0.97643E+01 SP= -.13E+02 SK= 0.23E-01
    504 T=   595. E= -.22870920E+03 F= -.22566572E+03 E0= -.22566572E+03  EK= 0.97724E+01 SP= -.13E+02 SK= 0.24E-01
    505 T=   595. E= -.22870915E+03 F= -.22555981E+03 E0= -.22555981E+03  EK= 0.97735E+01 SP= -.13E+02 SK= 0.24E-01
    506 T=   595. E= -.22870908E+03 F= -.22544799E+03 E0= -.22544799E+03  EK= 0.97701E+01 SP= -.13E+02 SK= 0.25E-01
    507 T=   595. E= -.22870899E+03 F= -.22533337E+03 E0= -.22533337E+03  EK= 0.97654E+01 SP= -.13E+02 SK= 0.26E-01
    508 T=   595. E= -.22870889E+03 F= -.22521943E+03 E0= -.22521943E+03  EK= 0.97630E+01 SP= -.13E+02 SK= 0.26E-01
    509 T=   595. E= -.22870875E+03 F= -.22511003E+03 E0= -.22511003E+03  EK= 0.97668E+01 SP= -.13E+02 SK= 0.27E-01
    510 T=   596. E= -.22870859E+03 F= -.22500946E+03 E0= -.22500946E+03  EK= 0.97812E+01 SP= -.14E+02 SK= 0.28E-01
    511 T=   598. E= -.22870841E+03 F= -.22492234E+03 E0= -.22492234E+03  EK= 0.98104E+01 SP= -.14E+02 SK= 0.28E-01
    512 T=   601. E= -.22870825E+03 F= -.22485336E+03 E0= -.22485336E+03  EK= 0.98586E+01 SP= -.14E+02 SK= 0.28E-01
    513 T=   605. E= -.22870820E+03 F= -.22480664E+03 E0= -.22480664E+03  EK= 0.99290E+01 SP= -.14E+02 SK= 0.27E-01
    514 T=   611. E= -.22870832E+03 F= -.22478460E+03 E0= -.22478460E+03  EK= 0.10022E+02 SP= -.14E+02 SK= 0.26E-01
    515 T=   617. E= -.22870865E+03 F= -.22478704E+03 E0= -.22478704E+03  EK= 0.10136E+02 SP= -.14E+02 SK= 0.23E-01
    516 T=   625. E= -.22870920E+03 F= -.22481068E+03 E0= -.22481068E+03  EK= 0.10265E+02 SP= -.14E+02 SK= 0.19E-01
    517 T=   633. E= -.22870987E+03 F= -.22484929E+03 E0= -.22484929E+03  EK= 0.10398E+02 SP= -.14E+02 SK= 0.15E-01
    518 T=   641. E= -.22871059E+03 F= -.22489473E+03 E0= -.22489473E+03  EK= 0.10524E+02 SP= -.14E+02 SK= 0.97E-02
    519 T=   648. E= -.22871122E+03 F= -.22493819E+03 E0= -.22493819E+03  EK= 0.10631E+02 SP= -.14E+02 SK= 0.52E-02
    520 T=   652. E= -.22871168E+03 F= -.22497171E+03 E0= -.22497171E+03  EK= 0.10707E+02 SP= -.14E+02 SK= 0.18E-02
    521 T=   655. E= -.22871189E+03 F= -.22498943E+03 E0= -.22498943E+03  EK= 0.10745E+02 SP= -.14E+02 SK= 0.98E-04
    522 T=   654. E= -.22871190E+03 F= -.22498819E+03 E0= -.22498819E+03  EK= 0.10738E+02 SP= -.14E+02 SK= 0.52E-03
    523 T=   651. E= -.22871175E+03 F= -.22496710E+03 E0= -.22496710E+03  EK= 0.10688E+02 SP= -.14E+02 SK= 0.30E-02
    524 T=   645. E= -.22871146E+03 F= -.22492704E+03 E0= -.22492704E+03  EK= 0.10596E+02 SP= -.14E+02 SK= 0.70E-02
    525 T=   638. E= -.22871108E+03 F= -.22487024E+03 E0= -.22487024E+03  EK= 0.10468E+02 SP= -.14E+02 SK= 0.12E-01
    526 T=   628. E= -.22871065E+03 F= -.22480000E+03 E0= -.22480000E+03  EK= 0.10311E+02 SP= -.14E+02 SK= 0.17E-01
    527 T=   617. E= -.22871019E+03 F= -.22472021E+03 E0= -.22472021E+03  EK= 0.10133E+02 SP= -.14E+02 SK= 0.20E-01
    528 T=   606. E= -.22870971E+03 F= -.22463552E+03 E0= -.22463552E+03  EK= 0.99447E+01 SP= -.14E+02 SK= 0.23E-01
    529 T=   594. E= -.22870923E+03 F= -.22455130E+03 E0= -.22455130E+03  EK= 0.97559E+01 SP= -.14E+02 SK= 0.23E-01
    530 T=   583. E= -.22870873E+03 F= -.22447348E+03 E0= -.22447348E+03  EK= 0.95773E+01 SP= -.14E+02 SK= 0.21E-01
    531 T=   574. E= -.22870824E+03 F= -.22440865E+03 E0= -.22440865E+03  EK= 0.94194E+01 SP= -.14E+02 SK= 0.18E-01
    532 T=   566. E= -.22870779E+03 F= -.22436379E+03 E0= -.22436379E+03  EK= 0.92926E+01 SP= -.14E+02 SK= 0.13E-01
    533 T=   561. E= -.22870744E+03 F= -.22434556E+03 E0= -.22434556E+03  EK= 0.92056E+01 SP= -.14E+02 SK= 0.90E-02
    534 T=   558. E= -.22870723E+03 F= -.22435915E+03 E0= -.22435915E+03  EK= 0.91651E+01 SP= -.14E+02 SK= 0.52E-02
    535 T=   559. E= -.22870724E+03 F= -.22440736E+03 E0= -.22440736E+03  EK= 0.91744E+01 SP= -.13E+02 SK= 0.23E-02
    536 T=   562. E= -.22870750E+03 F= -.22448948E+03 E0= -.22448948E+03  EK= 0.92323E+01 SP= -.13E+02 SK= 0.65E-03
    537 T=   569. E= -.22870799E+03 F= -.22460085E+03 E0= -.22460085E+03  EK= 0.93329E+01 SP= -.13E+02 SK= 0.33E-04
    538 T=   577. E= -.22870868E+03 F= -.22473319E+03 E0= -.22473319E+03  EK= 0.94659E+01 SP= -.13E+02 SK= 0.94E-04
    539 T=   586. E= -.22870946E+03 F= -.22487543E+03 E0= -.22487543E+03  EK= 0.96174E+01 SP= -.13E+02 SK= 0.40E-03
    540 T=   595. E= -.22871023E+03 F= -.22501525E+03 E0= -.22501525E+03  EK= 0.97719E+01 SP= -.13E+02 SK= 0.61E-03
    541 T=   604. E= -.22871091E+03 F= -.22514067E+03 E0= -.22514067E+03  EK= 0.99137E+01 SP= -.13E+02 SK= 0.59E-03
    542 T=   611. E= -.22871137E+03 F= -.22524163E+03 E0= -.22524163E+03  EK= 0.10030E+02 SP= -.13E+02 SK= 0.36E-03
    543 T=   616. E= -.22871158E+03 F= -.22531133E+03 E0= -.22531133E+03  EK= 0.10109E+02 SP= -.14E+02 SK= 0.11E-03
    544 T=   618. E= -.22871155E+03 F= -.22534679E+03 E0= -.22534679E+03  EK= 0.10148E+02 SP= -.14E+02 SK= 0.33E-06
    545 T=   618. E= -.22871127E+03 F= -.22534881E+03 E0= -.22534881E+03  EK= 0.10146E+02 SP= -.14E+02 SK= 0.15E-03
    546 T=   616. E= -.22871085E+03 F= -.22532150E+03 E0= -.22532150E+03  EK= 0.10107E+02 SP= -.13E+02 SK= 0.52E-03
    547 T=   611. E= -.22871032E+03 F= -.22527114E+03 E0= -.22527114E+03  EK= 0.10038E+02 SP= -.13E+02 SK= 0.99E-03
    548 T=   606. E= -.22870979E+03 F= -.22520528E+03 E0= -.22520528E+03  EK= 0.99478E+01 SP= -.13E+02 SK= 0.14E-02
    549 T=   600. E= -.22870936E+03 F= -.22513156E+03 E0= -.22513156E+03  EK= 0.98474E+01 SP= -.13E+02 SK= 0.16E-02
    550 T=   594. E= -.22870899E+03 F= -.22505673E+03 E0= -.22505673E+03  EK= 0.97458E+01 SP= -.13E+02 SK= 0.15E-02
    551 T=   588. E= -.22870873E+03 F= -.22498654E+03 E0= -.22498654E+03  EK= 0.96509E+01 SP= -.13E+02 SK= 0.11E-02
    552 T=   583. E= -.22870861E+03 F= -.22492520E+03 E0= -.22492520E+03  EK= 0.95694E+01 SP= -.13E+02 SK= 0.67E-03
    553 T=   579. E= -.22870858E+03 F= -.22487514E+03 E0= -.22487514E+03  EK= 0.95054E+01 SP= -.13E+02 SK= 0.24E-03
    554 T=   576. E= -.22870870E+03 F= -.22483715E+03 E0= -.22483715E+03  EK= 0.94611E+01 SP= -.13E+02 SK= 0.87E-05
    555 T=   575. E= -.22870895E+03 F= -.22481004E+03 E0= -.22481004E+03  EK= 0.94364E+01 SP= -.13E+02 SK= 0.11E-03
    556 T=   574. E= -.22870931E+03 F= -.22479075E+03 E0= -.22479075E+03  EK= 0.94286E+01 SP= -.13E+02 SK= 0.62E-03
    557 T=   575. E= -.22870968E+03 F= -.22477480E+03 E0= -.22477480E+03  EK= 0.94337E+01 SP= -.13E+02 SK= 0.15E-02
    558 T=   575. E= -.22871003E+03 F= -.22475741E+03 E0= -.22475741E+03  EK= 0.94468E+01 SP= -.13E+02 SK= 0.28E-02
    559 T=   576. E= -.22871026E+03 F= -.22473458E+03 E0= -.22473458E+03  EK= 0.94637E+01 SP= -.13E+02 SK= 0.44E-02
    560 T=   578. E= -.22871032E+03 F= -.22470420E+03 E0= -.22470420E+03  EK= 0.94820E+01 SP= -.13E+02 SK= 0.62E-02
    561 T=   579. E= -.22871020E+03 F= -.22466677E+03 E0= -.22466677E+03  EK= 0.95017E+01 SP= -.14E+02 SK= 0.82E-02
    562 T=   580. E= -.22870993E+03 F= -.22462550E+03 E0= -.22462550E+03  EK= 0.95258E+01 SP= -.14E+02 SK= 0.10E-01
    563 T=   582. E= -.22870956E+03 F= -.22458595E+03 E0= -.22458595E+03  EK= 0.95591E+01 SP= -.14E+02 SK= 0.13E-01
    564 T=   585. E= -.22870920E+03 F= -.22455485E+03 E0= -.22455485E+03  EK= 0.96077E+01 SP= -.14E+02 SK= 0.15E-01
    565 T=   589. E= -.22870893E+03 F= -.22453881E+03 E0= -.22453881E+03  EK= 0.96770E+01 SP= -.14E+02 SK= 0.16E-01
    566 T=   595. E= -.22870881E+03 F= -.22454303E+03 E0= -.22454303E+03  EK= 0.97708E+01 SP= -.14E+02 SK= 0.17E-01
    567 T=   602. E= -.22870887E+03 F= -.22457039E+03 E0= -.22457039E+03  EK= 0.98899E+01 SP= -.14E+02 SK= 0.17E-01
    568 T=   611. E= -.22870906E+03 F= -.22462131E+03 E0= -.22462131E+03  EK= 0.10032E+02 SP= -.14E+02 SK= 0.16E-01
    569 T=   621. E= -.22870933E+03 F= -.22469436E+03 E0= -.22469436E+03  EK= 0.10193E+02 SP= -.14E+02 SK= 0.14E-01
    570 T=   631. E= -.22870970E+03 F= -.22478676E+03 E0= -.22478676E+03  EK= 0.10364E+02 SP= -.14E+02 SK= 0.10E-01
    571 T=   642. E= -.22871015E+03 F= -.22489450E+03 E0= -.22489450E+03  EK= 0.10538E+02 SP= -.14E+02 SK= 0.63E-02
 bond charge predicted
       N       E                     dE             d eps       ncg     rms          rms(c)
DAV:   1    -0.226353042497E+03   -0.51842E+00   -0.15571E+03   264   0.589E+01
DAV:   2    -0.235798146551E+03   -0.94451E+01   -0.93490E+01   348   0.146E+01
DAV:   3    -0.235995962260E+03   -0.19782E+00   -0.19757E+00   336   0.235E+00
DAV:   4    -0.236001062726E+03   -0.51005E-02   -0.50996E-02   336   0.372E-01
DAV:   5    -0.236001258868E+03   -0.19614E-03   -0.19613E-03   336   0.763E-02    0.822E+00
RMM:   6    -0.226677181653E+03    0.93241E+01   -0.12437E+01   264   0.253E+00    0.414E+00
RMM:   7    -0.225279016880E+03    0.13982E+01   -0.26798E+00   264   0.179E+00    0.250E+00
RMM:   8    -0.224766694996E+03    0.51232E+00   -0.11819E+00   264   0.113E+00    0.120E+00
RMM:   9    -0.224749650376E+03    0.17045E-01   -0.36573E-01   264   0.719E-01    0.694E-01
RMM:  10    -0.224740637451E+03    0.90129E-02   -0.10250E-01   274   0.430E-01    0.402E-01
RMM:  11    -0.224739788804E+03    0.84865E-03   -0.28484E-02   267   0.238E-01    0.185E-01
RMM:  12    -0.224740574555E+03   -0.78575E-03   -0.88928E-03   270   0.142E-01    0.902E-02
RMM:  13    -0.224740487794E+03    0.86761E-04   -0.17993E-03   266   0.660E-02    0.476E-02
RMM:  14    -0.224740477156E+03    0.10638E-04   -0.58163E-04   254   0.398E-02
    572 T=   653. E= -.22842981E+03 F= -.22474048E+03 E0= -.22472717E+03  EK= 0.10714E+02 SP= -.14E+02 SK= 0.26E-02
    573 T=   662. E= -.22864318E+03 F= -.22508610E+03 E0= -.22508610E+03  EK= 0.10872E+02 SP= -.14E+02 SK= 0.27E-03
    574 T=   669. E= -.22864394E+03 F= -.22520423E+03 E0= -.22520423E+03  EK= 0.10987E+02 SP= -.14E+02 SK= 0.52E-03
    575 T=   673. E= -.22864461E+03 F= -.22530635E+03 E0= -.22530635E+03  EK= 0.11054E+02 SP= -.14E+02 SK= 0.43E-02
    576 T=   674. E= -.22864512E+03 F= -.22538154E+03 E0= -.22538154E+03  EK= 0.11060E+02 SP= -.14E+02 SK= 0.12E-01
    577 T=   670. E= -.22864527E+03 F= -.22542022E+03 E0= -.22542022E+03  EK= 0.10996E+02 SP= -.14E+02 SK= 0.23E-01
    578 T=   661. E= -.22864497E+03 F= -.22541645E+03 E0= -.22541645E+03  EK= 0.10858E+02 SP= -.14E+02 SK= 0.37E-01
    579 T=   649. E= -.22864417E+03 F= -.22536964E+03 E0= -.22536964E+03  EK= 0.10653E+02 SP= -.14E+02 SK= 0.51E-01
    580 T=   633. E= -.22864297E+03 F= -.22528578E+03 E0= -.22528578E+03  EK= 0.10393E+02 SP= -.14E+02 SK= 0.63E-01
    581 T=   615. E= -.22864159E+03 F= -.22517691E+03 E0= -.22517691E+03  EK= 0.10098E+02 SP= -.14E+02 SK= 0.70E-01
    582 T=   597. E= -.22864030E+03 F= -.22505864E+03 E0= -.22505864E+03  EK= 0.97926E+01 SP= -.13E+02 SK= 0.72E-01
    583 T=   579. E= -.22863929E+03 F= -.22494688E+03 E0= -.22494688E+03  EK= 0.95001E+01 SP= -.13E+02 SK= 0.69E-01
    584 T=   563. E= -.22863863E+03 F= -.22485521E+03 E0= -.22485521E+03  EK= 0.92402E+01 SP= -.13E+02 SK= 0.60E-01
    585 T=   550. E= -.22863830E+03 F= -.22479331E+03 E0= -.22479331E+03  EK= 0.90276E+01 SP= -.13E+02 SK= 0.49E-01
    586 T=   540. E= -.22863825E+03 F= -.22476662E+03 E0= -.22476662E+03  EK= 0.88710E+01 SP= -.13E+02 SK= 0.36E-01
    587 T=   534. E= -.22863843E+03 F= -.22477634E+03 E0= -.22477634E+03  EK= 0.87735E+01 SP= -.13E+02 SK= 0.23E-01
    588 T=   532. E= -.22863877E+03 F= -.22481989E+03 E0= -.22481989E+03  EK= 0.87337E+01 SP= -.13E+02 SK= 0.13E-01
    589 T=   533. E= -.22863919E+03 F= -.22489187E+03 E0= -.22489187E+03  EK= 0.87464E+01 SP= -.12E+02 SK= 0.57E-02
    590 T=   536. E= -.22863966E+03 F= -.22498509E+03 E0= -.22498509E+03  EK= 0.88039E+01 SP= -.12E+02 SK= 0.14E-02
    591 T=   542. E= -.22864014E+03 F= -.22509130E+03 E0= -.22509130E+03  EK= 0.88968E+01 SP= -.12E+02 SK= 0.86E-05
    592 T=   549. E= -.22864059E+03 F= -.22520210E+03 E0= -.22520210E+03  EK= 0.90152E+01 SP= -.12E+02 SK= 0.80E-03
    593 T=   557. E= -.22864098E+03 F= -.22530957E+03 E0= -.22530957E+03  EK= 0.91490E+01 SP= -.12E+02 SK= 0.30E-02
    594 T=   566. E= -.22864125E+03 F= -.22540717E+03 E0= -.22540717E+03  EK= 0.92893E+01 SP= -.13E+02 SK= 0.59E-02
    595 T=   574. E= -.22864135E+03 F= -.22549064E+03 E0= -.22549064E+03  EK= 0.94290E+01 SP= -.13E+02 SK= 0.87E-02
    596 T=   583. E= -.22864129E+03 F= -.22555860E+03 E0= -.22555860E+03  EK= 0.95638E+01 SP= -.13E+02 SK= 0.11E-01
    597 T=   590. E= -.22864108E+03 F= -.22561270E+03 E0= -.22561270E+03  EK= 0.96923E+01 SP= -.13E+02 SK= 0.13E-01
    598 T=   598. E= -.22864078E+03 F= -.22565714E+03 E0= -.22565714E+03  EK= 0.98157E+01 SP= -.13E+02 SK= 0.13E-01
    599 T=   605. E= -.22864043E+03 F= -.22569788E+03 E0= -.22569788E+03  EK= 0.99367E+01 SP= -.13E+02 SK= 0.13E-01
    600 T=   613. E= -.22864016E+03 F= -.22574164E+03 E0= -.22574164E+03  EK= 0.10059E+02 SP= -.13E+02 SK= 0.12E-01
    601 T=   620. E= -.22863995E+03 F= -.22579456E+03 E0= -.22579456E+03  EK= 0.10185E+02 SP= -.13E+02 SK= 0.94E-02
    602 T=   629. E= -.22863984E+03 F= -.22586153E+03 E0= -.22586153E+03  EK= 0.10318E+02 SP= -.13E+02 SK= 0.68E-02
    603 T=   637. E= -.22863988E+03 F= -.22594579E+03 E0= -.22594579E+03  EK= 0.10455E+02 SP= -.13E+02 SK= 0.39E-02
    604 T=   645. E= -.22864003E+03 F= -.22604840E+03 E0= -.22604840E+03  EK= 0.10595E+02 SP= -.13E+02 SK= 0.14E-02
    605 T=   654. E= -.22864032E+03 F= -.22616834E+03 E0= -.22616834E+03  EK= 0.10732E+02 SP= -.13E+02 SK= 0.69E-04
    606 T=   661. E= -.22864076E+03 F= -.22630222E+03 E0= -.22630222E+03  EK= 0.10859E+02 SP= -.13E+02 SK= 0.68E-03
    607 T=   668. E= -.22864132E+03 F= -.22644414E+03 E0= -.22644414E+03  EK= 0.10965E+02 SP= -.13E+02 SK= 0.42E-02
    608 T=   672. E= -.22864197E+03 F= -.22658563E+03 E0= -.22658563E+03  EK= 0.11039E+02 SP= -.13E+02 SK= 0.11E-01
    609 T=   674. E= -.22864263E+03 F= -.22671602E+03 E0= -.22671602E+03  EK= 0.11069E+02 SP= -.13E+02 SK= 0.23E-01
    610 T=   673. E= -.22864318E+03 F= -.22682334E+03 E0= -.22682334E+03  EK= 0.11040E+02 SP= -.13E+02 SK= 0.38E-01
    611 T=   667. E= -.22864351E+03 F= -.22689574E+03 E0= -.22689574E+03  EK= 0.10945E+02 SP= -.13E+02 SK= 0.55E-01
    612 T=   656. E= -.22864355E+03 F= -.22692302E+03 E0= -.22692302E+03  EK= 0.10776E+02 SP= -.13E+02 SK= 0.74E-01
    613 T=   642. E= -.22864325E+03 F= -.22689820E+03 E0= -.22689820E+03  EK= 0.10534E+02 SP= -.12E+02 SK= 0.91E-01
    614 T=   623. E= -.22864262E+03 F= -.22681879E+03 E0= -.22681879E+03  EK= 0.10225E+02 SP= -.12E+02 SK= 0.10E+00
    615 T=   601. E= -.22864173E+03 F= -.22668765E+03 E0= -.22668765E+03  EK= 0.98626E+01 SP= -.12E+02 SK= 0.11E+00
    616 T=   577. E= -.22864069E+03 F= -.22651304E+03 E0= -.22651304E+03  EK= 0.94647E+01 SP= -.12E+02 SK= 0.11E+00
    617 T=   552. E= -.22863962E+03 F= -.22630784E+03 E0= -.22630784E+03  EK= 0.90543E+01 SP= -.11E+02 SK= 0.92E-01
    618 T=   527. E= -.22863860E+03 F= -.22608835E+03 E0= -.22608835E+03  EK= 0.86558E+01 SP= -.11E+02 SK= 0.73E-01
    619 T=   505. E= -.22863771E+03 F= -.22587258E+03 E0= -.22587258E+03  EK= 0.82938E+01 SP= -.11E+02 SK= 0.49E-01
    620 T=   487. E= -.22863702E+03 F= -.22567844E+03 E0= -.22567844E+03  EK= 0.79904E+01 SP= -.11E+02 SK= 0.26E-01
    621 T=   473. E= -.22863652E+03 F= -.22552176E+03 E0= -.22552176E+03  EK= 0.77641E+01 SP= -.11E+02 SK= 0.82E-02
    622 T=   465. E= -.22863624E+03 F= -.22541481E+03 E0= -.22541481E+03  EK= 0.76288E+01 SP= -.11E+02 SK= 0.21E-03
    623 T=   463. E= -.22863618E+03 F= -.22536495E+03 E0= -.22536495E+03  EK= 0.75926E+01 SP= -.11E+02 SK= 0.42E-02
    624 T=   466. E= -.22863631E+03 F= -.22537393E+03 E0= -.22537393E+03  EK= 0.76577E+01 SP= -.11E+02 SK= 0.21E-01
    625 T=   476. E= -.22863664E+03 F= -.22543796E+03 E0= -.22543796E+03  EK= 0.78206E+01 SP= -.11E+02 SK= 0.48E-01
    626 T=   492. E= -.22863712E+03 F= -.22554830E+03 E0= -.22554830E+03  EK= 0.80723E+01 SP= -.11E+02 SK= 0.82E-01
    627 T=   512. E= -.22863776E+03 F= -.22569257E+03 E0= -.22569257E+03  EK= 0.83992E+01 SP= -.11E+02 SK= 0.12E+00
    628 T=   535. E= -.22863854E+03 F= -.22585601E+03 E0= -.22585601E+03  EK= 0.87840E+01 SP= -.12E+02 SK= 0.15E+00
    629 T=   561. E= -.22863949E+03 F= -.22602287E+03 E0= -.22602287E+03  EK= 0.92062E+01 SP= -.12E+02 SK= 0.17E+00
    630 T=   587. E= -.22864056E+03 F= -.22617742E+03 E0= -.22617742E+03  EK= 0.96431E+01 SP= -.12E+02 SK= 0.19E+00
    631 T=   613. E= -.22864170E+03 F= -.22630523E+03 E0= -.22630523E+03  EK= 0.10071E+02 SP= -.13E+02 SK= 0.18E+00
    632 T=   638. E= -.22864285E+03 F= -.22639416E+03 E0= -.22639416E+03  EK= 0.10466E+02 SP= -.13E+02 SK= 0.17E+00
    633 T=   658. E= -.22864387E+03 F= -.22643520E+03 E0= -.22643520E+03  EK= 0.10808E+02 SP= -.13E+02 SK= 0.15E+00
    634 T=   675. E= -.22864461E+03 F= -.22642338E+03 E0= -.22642338E+03  EK= 0.11080E+02 SP= -.13E+02 SK= 0.12E+00
    635 T=   686. E= -.22864498E+03 F= -.22635851E+03 E0= -.22635851E+03  EK= 0.11269E+02 SP= -.14E+02 SK= 0.88E-01
    636 T=   693. E= -.22864495E+03 F= -.22624549E+03 E0= -.22624549E+03  EK= 0.11373E+02 SP= -.14E+02 SK= 0.59E-01
    637 T=   694. E= -.22864450E+03 F= -.22609380E+03 E0= -.22609380E+03  EK= 0.11396E+02 SP= -.14E+02 SK= 0.35E-01
    638 T=   691. E= -.22864371E+03 F= -.22591685E+03 E0= -.22591685E+03  EK= 0.11349E+02 SP= -.14E+02 SK= 0.18E-01
    639 T=   685. E= -.22864275E+03 F= -.22573072E+03 E0= -.22573072E+03  EK= 0.11249E+02 SP= -.14E+02 SK= 0.64E-02
    640 T=   677. E= -.22864179E+03 F= -.22555211E+03 E0= -.22555211E+03  EK= 0.11116E+02 SP= -.14E+02 SK= 0.10E-02
    641 T=   668. E= -.22864104E+03 F= -.22539612E+03 E0= -.22539612E+03  EK= 0.10969E+02 SP= -.14E+02 SK= 0.13E-03
    642 T=   659. E= -.22864060E+03 F= -.22527398E+03 E0= -.22527398E+03  EK= 0.10824E+02 SP= -.14E+02 SK= 0.24E-02
    643 T=   651. E= -.22864052E+03 F= -.22519175E+03 E0= -.22519175E+03  EK= 0.10691E+02 SP= -.14E+02 SK= 0.67E-02
    644 T=   644. E= -.22864077E+03 F= -.22514967E+03 E0= -.22514967E+03  EK= 0.10576E+02 SP= -.14E+02 SK= 0.12E-01
    645 T=   638. E= -.22864123E+03 F= -.22514280E+03 E0= -.22514280E+03  EK= 0.10477E+02 SP= -.14E+02 SK= 0.18E-01
    646 T=   633. E= -.22864176E+03 F= -.22516245E+03 E0= -.22516245E+03  EK= 0.10388E+02 SP= -.14E+02 SK= 0.25E-01
    647 T=   628. E= -.22864227E+03 F= -.22519810E+03 E0= -.22519810E+03  EK= 0.10301E+02 SP= -.14E+02 SK= 0.31E-01
    648 T=   622. E= -.22864256E+03 F= -.22523946E+03 E0= -.22523946E+03  EK= 0.10209E+02 SP= -.14E+02 SK= 0.36E-01
    649 T=   616. E= -.22864265E+03 F= -.22527830E+03 E0= -.22527830E+03  EK= 0.10107E+02 SP= -.14E+02 SK= 0.41E-01
    650 T=   609. E= -.22864252E+03 F= -.22530940E+03 E0= -.22530940E+03  EK= 0.99909E+01 SP= -.13E+02 SK= 0.44E-01
    651 T=   601. E= -.22864218E+03 F= -.22533101E+03 E0= -.22533101E+03  EK= 0.98635E+01 SP= -.13E+02 SK= 0.46E-01
    652 T=   593. E= -.22864170E+03 F= -.22534449E+03 E0= -.22534449E+03  EK= 0.97293E+01 SP= -.13E+02 SK= 0.45E-01
    653 T=   584. E= -.22864118E+03 F= -.22535356E+03 E0= -.22535356E+03  EK= 0.95951E+01 SP= -.13E+02 SK= 0.43E-01
    654 T=   577. E= -.22864066E+03 F= -.22536331E+03 E0= -.22536331E+03  EK= 0.94692E+01 SP= -.13E+02 SK= 0.38E-01
    655 T=   570. E= -.22864019E+03 F= -.22537926E+03 E0= -.22537926E+03  EK= 0.93597E+01 SP= -.13E+02 SK= 0.33E-01
    656 T=   565. E= -.22863983E+03 F= -.22540666E+03 E0= -.22540666E+03  EK= 0.92737E+01 SP= -.13E+02 SK= 0.27E-01
    657 T=   561. E= -.22863960E+03 F= -.22544951E+03 E0= -.22544951E+03  EK= 0.92168E+01 SP= -.12E+02 SK= 0.20E-01
    658 T=   560. E= -.22863951E+03 F= -.22550994E+03 E0= -.22550994E+03  EK= 0.91920E+01 SP= -.12E+02 SK= 0.14E-01
    659 T=   560. E= -.22863956E+03 F= -.22558793E+03 E0= -.22558793E+03  EK= 0.91993E+01 SP= -.12E+02 SK= 0.94E-02
    660 T=   563. E= -.22863973E+03 F= -.22568147E+03 E0= -.22568147E+03  EK= 0.92365E+01 SP= -.12E+02 SK= 0.56E-02
    661 T=   566. E= -.22863997E+03 F= -.22578678E+03 E0= -.22578678E+03  EK= 0.92988E+01 SP= -.12E+02 SK= 0.30E-02
    662 T=   571. E= -.22864025E+03 F= -.22589884E+03 E0= -.22589884E+03  EK= 0.93800E+01 SP= -.12E+02 SK= 0.14E-02
    663 T=   577. E= -.22864053E+03 F= -.22601211E+03 E0= -.22601211E+03  EK= 0.94728E+01 SP= -.12E+02 SK= 0.53E-03
    664 T=   583. E= -.22864075E+03 F= -.22612136E+03 E0= -.22612136E+03  EK= 0.95699E+01 SP= -.12E+02 SK= 0.15E-03
    665 T=   589. E= -.22864092E+03 F= -.22622229E+03 E0= -.22622229E+03  EK= 0.96650E+01 SP= -.12E+02 SK= 0.21E-04
    666 T=   594. E= -.22864098E+03 F= -.22631178E+03 E0= -.22631178E+03  EK= 0.97527E+01 SP= -.12E+02 SK= 0.10E-06
    667 T=   599. E= -.22864102E+03 F= -.22638816E+03 E0= -.22638816E+03  EK= 0.98293E+01 SP= -.12E+02 SK= 0.10E-05
    668 T=   603. E= -.22864102E+03 F= -.22645058E+03 E0= -.22645058E+03  EK= 0.98920E+01 SP= -.12E+02 SK= 0.21E-07
    669 T=   605. E= -.22864100E+03 F= -.22649882E+03 E0= -.22649882E+03  EK= 0.99391E+01 SP= -.12E+02 SK= 0.11E-04
    670 T=   607. E= -.22864099E+03 F= -.22653293E+03 E0= -.22653293E+03  EK= 0.99693E+01 SP= -.12E+02 SK= 0.60E-04
    671 T=   608. E= -.22864099E+03 F= -.22655297E+03 E0= -.22655297E+03  EK= 0.99820E+01 SP= -.12E+02 SK= 0.17E-03
    672 T=   608. E= -.22864101E+03 F= -.22655875E+03 E0= -.22655875E+03  EK= 0.99767E+01 SP= -.12E+02 SK= 0.34E-03
    673 T=   606. E= -.22864100E+03 F= -.22654992E+03 E0= -.22654992E+03  EK= 0.99532E+01 SP= -.12E+02 SK= 0.54E-03
    674 T=   604. E= -.22864098E+03 F= -.22652630E+03 E0= -.22652630E+03  EK= 0.99119E+01 SP= -.12E+02 SK= 0.73E-03
    675 T=   600. E= -.22864092E+03 F= -.22648807E+03 E0= -.22648807E+03  EK= 0.98542E+01 SP= -.12E+02 SK= 0.83E-03
    676 T=   596. E= -.22864079E+03 F= -.22643620E+03 E0= -.22643620E+03  EK= 0.97825E+01 SP= -.12E+02 SK= 0.81E-03
    677 T=   591. E= -.22864054E+03 F= -.22637293E+03 E0= -.22637293E+03  EK= 0.97008E+01 SP= -.12E+02 SK= 0.64E-03
    678 T=   586. E= -.22864017E+03 F= -.22630232E+03 E0= -.22630232E+03  EK= 0.96153E+01 SP= -.12E+02 SK= 0.37E-03
    679 T=   581. E= -.22863970E+03 F= -.22623043E+03 E0= -.22623043E+03  EK= 0.95339E+01 SP= -.12E+02 SK= 0.10E-03
    680 T=   577. E= -.22863918E+03 F= -.22616495E+03 E0= -.22616495E+03  EK= 0.94661E+01 SP= -.12E+02 SK= 0.30E-05
    681 T=   574. E= -.22863871E+03 F= -.22611427E+03 E0= -.22611427E+03  EK= 0.94217E+01 SP= -.12E+02 SK= 0.24E-03
    682 T=   573. E= -.22863837E+03 F= -.22608606E+03 E0= -.22608606E+03  EK= 0.94093E+01 SP= -.12E+02 SK= 0.94E-03
    683 T=   575. E= -.22863828E+03 F= -.22608572E+03 E0= -.22608572E+03  EK= 0.94344E+01 SP= -.12E+02 SK= 0.21E-02
    684 T=   579. E= -.22863846E+03 F= -.22611482E+03 E0= -.22611482E+03  EK= 0.94981E+01 SP= -.12E+02 SK= 0.34E-02
    685 T=   585. E= -.22863897E+03 F= -.22617047E+03 E0= -.22617047E+03  EK= 0.95963E+01 SP= -.12E+02 SK= 0.47E-02
    686 T=   592. E= -.22863971E+03 F= -.22624523E+03 E0= -.22624523E+03  EK= 0.97196E+01 SP= -.12E+02 SK= 0.56E-02
    687 T=   600. E= -.22864056E+03 F= -.22632819E+03 E0= -.22632819E+03  EK= 0.98543E+01 SP= -.12E+02 SK= 0.59E-02
    688 T=   608. E= -.22864142E+03 F= -.22640674E+03 E0= -.22640674E+03  EK= 0.99847E+01 SP= -.12E+02 SK= 0.54E-02
    689 T=   615. E= -.22864218E+03 F= -.22646842E+03 E0= -.22646842E+03  EK= 0.10095E+02 SP= -.12E+02 SK= 0.43E-02
    690 T=   620. E= -.22864270E+03 F= -.22650272E+03 E0= -.22650272E+03  EK= 0.10172E+02 SP= -.12E+02 SK= 0.30E-02
    691 T=   622. E= -.22864296E+03 F= -.22650244E+03 E0= -.22650244E+03  EK= 0.10207E+02 SP= -.12E+02 SK= 0.17E-02
    692 T=   621. E= -.22864294E+03 F= -.22646411E+03 E0= -.22646411E+03  EK= 0.10194E+02 SP= -.12E+02 SK= 0.80E-03
    693 T=   617. E= -.22864270E+03 F= -.22638833E+03 E0= -.22638833E+03  EK= 0.10134E+02 SP= -.12E+02 SK= 0.26E-03
    694 T=   611. E= -.22864223E+03 F= -.22627927E+03 E0= -.22627927E+03  EK= 0.10034E+02 SP= -.12E+02 SK= 0.48E-04
    695 T=   603. E= -.22864160E+03 F= -.22614437E+03 E0= -.22614437E+03  EK= 0.99026E+01 SP= -.12E+02 SK= 0.34E-05
    696 T=   594. E= -.22864089E+03 F= -.22599359E+03 E0= -.22599359E+03  EK= 0.97538E+01 SP= -.12E+02 SK= 0.34E-05
    697 T=   585. E= -.22864017E+03 F= -.22583837E+03 E0= -.22583837E+03  EK= 0.96024E+01 SP= -.12E+02 SK= 0.53E-04
    698 T=   576. E= -.22863951E+03 F= -.22569049E+03 E0= -.22569049E+03  EK= 0.94637E+01 SP= -.12E+02 SK= 0.32E-03
    699 T=   570. E= -.22863904E+03 F= -.22556076E+03 E0= -.22556076E+03  EK= 0.93515E+01 SP= -.12E+02 SK= 0.11E-02
    700 T=   565. E= -.22863878E+03 F= -.22545749E+03 E0= -.22545749E+03  EK= 0.92764E+01 SP= -.12E+02 SK= 0.27E-02
    701 T=   563. E= -.22863877E+03 F= -.22538536E+03 E0= -.22538536E+03  EK= 0.92450E+01 SP= -.13E+02 SK= 0.52E-02
    702 T=   564. E= -.22863906E+03 F= -.22534469E+03 E0= -.22534469E+03  EK= 0.92582E+01 SP= -.13E+02 SK= 0.86E-02
    703 T=   567. E= -.22863961E+03 F= -.22533117E+03 E0= -.22533117E+03  EK= 0.93117E+01 SP= -.13E+02 SK= 0.13E-01
    704 T=   572. E= -.22864036E+03 F= -.22533645E+03 E0= -.22533645E+03  EK= 0.93965E+01 SP= -.13E+02 SK= 0.17E-01
    705 T=   579. E= -.22864126E+03 F= -.22534910E+03 E0= -.22534910E+03  EK= 0.94996E+01 SP= -.13E+02 SK= 0.21E-01
    706 T=   585. E= -.22864219E+03 F= -.22535596E+03 E0= -.22535596E+03  EK= 0.96059E+01 SP= -.13E+02 SK= 0.23E-01
    707 T=   591. E= -.22864306E+03 F= -.22534381E+03 E0= -.22534381E+03  EK= 0.96998E+01 SP= -.13E+02 SK= 0.25E-01
    708 T=   595. E= -.22864376E+03 F= -.22530097E+03 E0= -.22530097E+03  EK= 0.97672E+01 SP= -.13E+02 SK= 0.26E-01
    709 T=   597. E= -.22864423E+03 F= -.22521877E+03 E0= -.22521877E+03  EK= 0.97977E+01 SP= -.13E+02 SK= 0.27E-01
    710 T=   596. E= -.22864437E+03 F= -.22509258E+03 E0= -.22509258E+03  EK= 0.97856E+01 SP= -.13E+02 SK= 0.27E-01
    711 T=   593. E= -.22864427E+03 F= -.22492254E+03 E0= -.22492254E+03  EK= 0.97305E+01 SP= -.13E+02 SK= 0.28E-01
    712 T=   587. E= -.22864390E+03 F= -.22471303E+03 E0= -.22471303E+03  EK= 0.96378E+01 SP= -.14E+02 SK= 0.30E-01
    713 T=   580. E= -.22864335E+03 F= -.22447241E+03 E0= -.22447241E+03  EK= 0.95176E+01 SP= -.14E+02 SK= 0.33E-01
    714 T=   572. E= -.22864268E+03 F= -.22421190E+03 E0= -.22421190E+03  EK= 0.93833E+01 SP= -.14E+02 SK= 0.38E-01
    715 T=   564. E= -.22864202E+03 F= -.22394434E+03 E0= -.22394434E+03  EK= 0.92507E+01 SP= -.14E+02 SK= 0.45E-01
    716 T=   556. E= -.22864137E+03 F= -.22368279E+03 E0= -.22368279E+03  EK= 0.91355E+01 SP= -.14E+02 SK= 0.55E-01
    717 T=   551. E= -.22864082E+03 F= -.22343946E+03 E0= -.22343946E+03  EK= 0.90526E+01 SP= -.14E+02 SK= 0.68E-01
    718 T=   549. E= -.22864039E+03 F= -.22322469E+03 E0= -.22322469E+03  EK= 0.90147E+01 SP= -.15E+02 SK= 0.84E-01
    719 T=   550. E= -.22864013E+03 F= -.22304631E+03 E0= -.22304631E+03  EK= 0.90311E+01 SP= -.15E+02 SK= 0.10E+00
    720 T=   555. E= -.22864003E+03 F= -.22290908E+03 E0= -.22290908E+03  EK= 0.91075E+01 SP= -.15E+02 SK= 0.12E+00
    721 T=   563. E= -.22864008E+03 F= -.22281474E+03 E0= -.22281474E+03  EK= 0.92457E+01 SP= -.15E+02 SK= 0.14E+00
 bond charge predicted
       N       E                     dE             d eps       ncg     rms          rms(c)
DAV:   1    -0.224062988500E+03    0.67750E+00   -0.18278E+03   264   0.628E+01
DAV:   2    -0.235883390480E+03   -0.11820E+02   -0.11673E+02   336   0.161E+01
DAV:   3    -0.236153561218E+03   -0.27017E+00   -0.26971E+00   324   0.266E+00
DAV:   4    -0.236160169573E+03   -0.66084E-02   -0.66071E-02   324   0.420E-01
DAV:   5    -0.236160423870E+03   -0.25430E-03   -0.25428E-03   336   0.854E-02    0.893E+00
RMM:   6    -0.224353308959E+03    0.11807E+02   -0.14720E+01   264   0.270E+00    0.400E+00
RMM:   7    -0.223159451009E+03    0.11939E+01   -0.30692E+00   264   0.194E+00    0.245E+00
RMM:   8    -0.222722663101E+03    0.43679E+00   -0.11739E+00   264   0.116E+00    0.130E+00
RMM:   9    -0.222684053978E+03    0.38609E-01   -0.40505E-01   264   0.749E-01    0.648E-01
RMM:  10    -0.222683781094E+03    0.27288E-03   -0.11499E-01   272   0.450E-01    0.375E-01
RMM:  11    -0.222683313260E+03    0.46783E-03   -0.29312E-02   269   0.241E-01    0.183E-01
RMM:  12    -0.222683665563E+03   -0.35230E-03   -0.84703E-03   266   0.142E-01    0.723E-02
RMM:  13    -0.222683835520E+03   -0.16996E-03   -0.22054E-03   272   0.715E-02    0.382E-02
RMM:  14    -0.222683827863E+03    0.76570E-05   -0.55027E-04   244   0.363E-02
    722 T=   575. E= -.22856130E+03 F= -.22268383E+03 E0= -.22266844E+03  EK= 0.94441E+01 SP= -.15E+02 SK= 0.15E+00
    723 T=   591. E= -.22863947E+03 F= -.22275236E+03 E0= -.22275236E+03  EK= 0.97002E+01 SP= -.16E+02 SK= 0.16E+00
    724 T=   609. E= -.22863991E+03 F= -.22277766E+03 E0= -.22277766E+03  EK= 0.10002E+02 SP= -.16E+02 SK= 0.16E+00
    725 T=   630. E= -.22864046E+03 F= -.22283372E+03 E0= -.22283372E+03  EK= 0.10338E+02 SP= -.16E+02 SK= 0.15E+00
    726 T=   652. E= -.22864110E+03 F= -.22291565E+03 E0= -.22291565E+03  EK= 0.10697E+02 SP= -.17E+02 SK= 0.13E+00
    727 T=   674. E= -.22864186E+03 F= -.22301876E+03 E0= -.22301876E+03  EK= 0.11062E+02 SP= -.17E+02 SK= 0.10E+00
    728 T=   696. E= -.22864269E+03 F= -.22313847E+03 E0= -.22313847E+03  EK= 0.11418E+02 SP= -.17E+02 SK= 0.74E-01
    729 T=   716. E= -.22864355E+03 F= -.22327021E+03 E0= -.22327021E+03  EK= 0.11747E+02 SP= -.17E+02 SK= 0.44E-01
    730 T=   733. E= -.22864436E+03 F= -.22340940E+03 E0= -.22340940E+03  EK= 0.12031E+02 SP= -.17E+02 SK= 0.18E-01
    731 T=   746. E= -.22864501E+03 F= -.22355147E+03 E0= -.22355147E+03  EK= 0.12254E+02 SP= -.17E+02 SK= 0.29E-02
    732 T=   756. E= -.22864537E+03 F= -.22369238E+03 E0= -.22369238E+03  EK= 0.12403E+02 SP= -.17E+02 SK= 0.13E-02
    733 T=   759. E= -.22864540E+03 F= -.22382913E+03 E0= -.22382913E+03  EK= 0.12467E+02 SP= -.17E+02 SK= 0.17E-01
    734 T=   758. E= -.22864509E+03 F= -.22395970E+03 E0= -.22395970E+03  EK= 0.12442E+02 SP= -.17E+02 SK= 0.50E-01
    735 T=   751. E= -.22864448E+03 F= -.22408297E+03 E0= -.22408297E+03  EK= 0.12330E+02 SP= -.17E+02 SK= 0.99E-01
    736 T=   739. E= -.22864361E+03 F= -.22419855E+03 E0= -.22419855E+03  EK= 0.12136E+02 SP= -.17E+02 SK= 0.16E+00
    737 T=   723. E= -.22864256E+03 F= -.22430678E+03 E0= -.22430678E+03  EK= 0.11872E+02 SP= -.16E+02 SK= 0.23E+00
    738 T=   704. E= -.22864145E+03 F= -.22440886E+03 E0= -.22440886E+03  EK= 0.11550E+02 SP= -.16E+02 SK= 0.30E+00
    739 T=   682. E= -.22864038E+03 F= -.22450671E+03 E0= -.22450671E+03  EK= 0.11188E+02 SP= -.16E+02 SK= 0.36E+00
    740 T=   658. E= -.22863943E+03 F= -.22460255E+03 E0= -.22460255E+03  EK= 0.10801E+02 SP= -.15E+02 SK= 0.41E+00
    741 T=   634. E= -.22863866E+03 F= -.22469864E+03 E0= -.22469864E+03  EK= 0.10406E+02 SP= -.15E+02 SK= 0.45E+00
    742 T=   610. E= -.22863808E+03 F= -.22479703E+03 E0= -.22479703E+03  EK= 0.10016E+02 SP= -.14E+02 SK= 0.46E+00
    743 T=   588. E= -.22863769E+03 F= -.22489960E+03 E0= -.22489960E+03  EK= 0.96446E+01 SP= -.14E+02 SK= 0.46E+00
    744 T=   567. E= -.22863744E+03 F= -.22500801E+03 E0= -.22500801E+03  EK= 0.93002E+01 SP= -.13E+02 SK= 0.45E+00
    745 T=   548. E= -.22863731E+03 F= -.22512366E+03 E0= -.22512366E+03  EK= 0.89908E+01 SP= -.13E+02 SK= 0.41E+00
    746 T=   531. E= -.22863727E+03 F= -.22524772E+03 E0= -.22524772E+03  EK= 0.87218E+01 SP= -.12E+02 SK= 0.37E+00
    747 T=   518. E= -.22863729E+03 F= -.22538101E+03 E0= -.22538101E+03  EK= 0.84970E+01 SP= -.12E+02 SK= 0.32E+00
    748 T=   507. E= -.22863734E+03 F= -.22552406E+03 E0= -.22552406E+03  EK= 0.83184E+01 SP= -.12E+02 SK= 0.26E+00
    749 T=   499. E= -.22863741E+03 F= -.22567706E+03 E0= -.22567706E+03  EK= 0.81870E+01 SP= -.11E+02 SK= 0.21E+00
    750 T=   494. E= -.22863752E+03 F= -.22583953E+03 E0= -.22583953E+03  EK= 0.81024E+01 SP= -.11E+02 SK= 0.16E+00
    751 T=   491. E= -.22863767E+03 F= -.22600994E+03 E0= -.22600994E+03  EK= 0.80626E+01 SP= -.11E+02 SK= 0.11E+00
    752 T=   491. E= -.22863788E+03 F= -.22618541E+03 E0= -.22618541E+03  EK= 0.80641E+01 SP= -.11E+02 SK= 0.74E-01
    753 T=   494. E= -.22863815E+03 F= -.22636152E+03 E0= -.22636152E+03  EK= 0.81015E+01 SP= -.10E+02 SK= 0.44E-01
    754 T=   498. E= -.22863845E+03 F= -.22653259E+03 E0= -.22653259E+03  EK= 0.81684E+01 SP= -.10E+02 SK= 0.23E-01
    755 T=   503. E= -.22863872E+03 F= -.22669211E+03 E0= -.22669211E+03  EK= 0.82570E+01 SP= -.10E+02 SK= 0.86E-02
    756 T=   509. E= -.22863897E+03 F= -.22683366E+03 E0= -.22683366E+03  EK= 0.83598E+01 SP= -.10E+02 SK= 0.15E-02
    757 T=   516. E= -.22863914E+03 F= -.22695153E+03 E0= -.22695153E+03  EK= 0.84696E+01 SP= -.10E+02 SK= 0.14E-03
    758 T=   523. E= -.22863924E+03 F= -.22704144E+03 E0= -.22704144E+03  EK= 0.85807E+01 SP= -.10E+02 SK= 0.34E-02
    759 T=   529. E= -.22863929E+03 F= -.22710071E+03 E0= -.22710071E+03  EK= 0.86886E+01 SP= -.10E+02 SK= 0.10E-01
    760 T=   535. E= -.22863925E+03 F= -.22712835E+03 E0= -.22712835E+03  EK= 0.87907E+01 SP= -.10E+02 SK= 0.19E-01
    761 T=   541. E= -.22863915E+03 F= -.22712525E+03 E0= -.22712525E+03  EK= 0.88862E+01 SP= -.10E+02 SK= 0.31E-01
    762 T=   547. E= -.22863897E+03 F= -.22709399E+03 E0= -.22709399E+03  EK= 0.89759E+01 SP= -.11E+02 SK= 0.43E-01
    763 T=   552. E= -.22863876E+03 F= -.22703863E+03 E0= -.22703863E+03  EK= 0.90622E+01 SP= -.11E+02 SK= 0.55E-01
    764 T=   557. E= -.22863851E+03 F= -.22696443E+03 E0= -.22696443E+03  EK= 0.91487E+01 SP= -.11E+02 SK= 0.68E-01
    765 T=   563. E= -.22863826E+03 F= -.22687729E+03 E0= -.22687729E+03  EK= 0.92396E+01 SP= -.11E+02 SK= 0.81E-01
    766 T=   569. E= -.22863805E+03 F= -.22678329E+03 E0= -.22678329E+03  EK= 0.93392E+01 SP= -.11E+02 SK= 0.92E-01
    767 T=   576. E= -.22863786E+03 F= -.22668817E+03 E0= -.22668817E+03  EK= 0.94516E+01 SP= -.12E+02 SK= 0.10E+00
    768 T=   584. E= -.22863773E+03 F= -.22659718E+03 E0= -.22659718E+03  EK= 0.95797E+01 SP= -.12E+02 SK= 0.11E+00
    769 T=   592. E= -.22863767E+03 F= -.22651486E+03 E0= -.22651486E+03  EK= 0.97257E+01 SP= -.12E+02 SK= 0.11E+00
    770 T=   602. E= -.22863768E+03 F= -.22644488E+03 E0= -.22644488E+03  EK= 0.98902E+01 SP= -.12E+02 SK= 0.11E+00
    771 T=   614. E= -.22863775E+03 F= -.22639000E+03 E0= -.22639000E+03  EK= 0.10072E+02 SP= -.12E+02 SK= 0.11E+00
    772 T=   626. E= -.22863797E+03 F= -.22635199E+03 E0= -.22635199E+03  EK= 0.10270E+02 SP= -.13E+02 SK= 0.10E+00
    773 T=   638. E= -.22863833E+03 F= -.22633088E+03 E0= -.22633088E+03  EK= 0.10477E+02 SP= -.13E+02 SK= 0.91E-01
    774 T=   651. E= -.22863891E+03 F= -.22632457E+03 E0= -.22632457E+03  EK= 0.10686E+02 SP= -.13E+02 SK= 0.76E-01
    775 T=   663. E= -.22863961E+03 F= -.22632845E+03 E0= -.22632845E+03  EK= 0.10887E+02 SP= -.13E+02 SK= 0.58E-01
    776 T=   674. E= -.22864041E+03 F= -.22633595E+03 E0= -.22633595E+03  EK= 0.11065E+02 SP= -.13E+02 SK= 0.40E-01
    777 T=   683. E= -.22864120E+03 F= -.22633917E+03 E0= -.22633917E+03  EK= 0.11207E+02 SP= -.14E+02 SK= 0.24E-01
    778 T=   688. E= -.22864183E+03 F= -.22633004E+03 E0= -.22633004E+03  EK= 0.11300E+02 SP= -.14E+02 SK= 0.11E-01
 bond charge predicted
       N       E                     dE             d eps       ncg     rms          rms(c)
DAV:   1    -0.228444448329E+03   -0.57606E+01   -0.14601E+03   264   0.580E+01
DAV:   2    -0.236979710698E+03   -0.85353E+01   -0.84731E+01   336   0.140E+01
DAV:   3    -0.237152035855E+03   -0.17233E+00   -0.17211E+00   336   0.222E+00
DAV:   4    -0.237156654178E+03   -0.46183E-02   -0.46178E-02   336   0.355E-01
DAV:   5    -0.237156835766E+03   -0.18159E-03   -0.18158E-03   336   0.736E-02    0.813E+00
RMM:   6    -0.227879784622E+03    0.92771E+01   -0.12777E+01   264   0.246E+00    0.402E+00
RMM:   7    -0.226519475302E+03    0.13603E+01   -0.26720E+00   264   0.182E+00    0.242E+00
RMM:   8    -0.226047579810E+03    0.47190E+00   -0.95926E-01   264   0.107E+00    0.119E+00
RMM:   9    -0.226023166056E+03    0.24414E-01   -0.29913E-01   266   0.666E-01    0.709E-01
RMM:  10    -0.226015654714E+03    0.75113E-02   -0.91078E-02   267   0.405E-01    0.392E-01
RMM:  11    -0.226013819514E+03    0.18352E-02   -0.26414E-02   271   0.224E-01    0.201E-01
RMM:  12    -0.226014384782E+03   -0.56527E-03   -0.84114E-03   267   0.136E-01    0.785E-02
RMM:  13    -0.226014461732E+03   -0.76949E-04   -0.19529E-03   271   0.683E-02    0.427E-02
RMM:  14    -0.226014451019E+03    0.10713E-04   -0.54505E-04   244   0.380E-02
    779 T=   690. E= -.22836173E+03 F= -.22601445E+03 E0= -.22598689E+03  EK= 0.11325E+02 SP= -.14E+02 SK= 0.25E-02
    780 T=   688. E= -.22865569E+03 F= -.22625171E+03 E0= -.22625171E+03  EK= 0.11287E+02 SP= -.14E+02 SK= 0.97E-05
    781 T=   682. E= -.22865545E+03 F= -.22617635E+03 E0= -.22617635E+03  EK= 0.11190E+02 SP= -.14E+02 SK= 0.29E-02
    782 T=   672. E= -.22865492E+03 F= -.22607734E+03 E0= -.22607734E+03  EK= 0.11031E+02 SP= -.14E+02 SK= 0.98E-02
    783 T=   659. E= -.22865423E+03 F= -.22595919E+03 E0= -.22595919E+03  EK= 0.10821E+02 SP= -.14E+02 SK= 0.19E-01
    784 T=   644. E= -.22865347E+03 F= -.22582842E+03 E0= -.22582842E+03  EK= 0.10575E+02 SP= -.13E+02 SK= 0.29E-01
    785 T=   628. E= -.22865269E+03 F= -.22569279E+03 E0= -.22569279E+03  EK= 0.10306E+02 SP= -.13E+02 SK= 0.36E-01
    786 T=   611. E= -.22865197E+03 F= -.22556070E+03 E0= -.22556070E+03  EK= 0.10033E+02 SP= -.13E+02 SK= 0.41E-01
    787 T=   595. E= -.22865139E+03 F= -.22544042E+03 E0= -.22544042E+03  EK= 0.97701E+01 SP= -.13E+02 SK= 0.42E-01
    788 T=   581. E= -.22865101E+03 F= -.22533902E+03 E0= -.22533902E+03  EK= 0.95310E+01 SP= -.13E+02 SK= 0.39E-01
    789 T=   568. E= -.22865082E+03 F= -.22526173E+03 E0= -.22526173E+03  EK= 0.93260E+01 SP= -.13E+02 SK= 0.34E-01
    790 T=   558. E= -.22865084E+03 F= -.22521136E+03 E0= -.22521136E+03  EK= 0.91620E+01 SP= -.13E+02 SK= 0.27E-01
    791 T=   551. E= -.22865102E+03 F= -.22518802E+03 E0= -.22518802E+03  EK= 0.90418E+01 SP= -.13E+02 SK= 0.19E-01
    792 T=   546. E= -.22865135E+03 F= -.22518925E+03 E0= -.22518925E+03  EK= 0.89649E+01 SP= -.12E+02 SK= 0.11E-01
    793 T=   544. E= -.22865180E+03 F= -.22521018E+03 E0= -.22521018E+03  EK= 0.89275E+01 SP= -.12E+02 SK= 0.57E-02
    794 T=   544. E= -.22865232E+03 F= -.22524396E+03 E0= -.22524396E+03  EK= 0.89233E+01 SP= -.12E+02 SK= 0.19E-02
    795 T=   545. E= -.22865288E+03 F= -.22528253E+03 E0= -.22528253E+03  EK= 0.89441E+01 SP= -.12E+02 SK= 0.12E-03
    796 T=   547. E= -.22865339E+03 F= -.22531737E+03 E0= -.22531737E+03  EK= 0.89811E+01 SP= -.12E+02 SK= 0.39E-03
    797 T=   550. E= -.22865377E+03 F= -.22534088E+03 E0= -.22534088E+03  EK= 0.90262E+01 SP= -.12E+02 SK= 0.24E-02
    798 T=   553. E= -.22865397E+03 F= -.22534761E+03 E0= -.22534761E+03  EK= 0.90731E+01 SP= -.12E+02 SK= 0.59E-02
    799 T=   555. E= -.22865396E+03 F= -.22533532E+03 E0= -.22533532E+03  EK= 0.91188E+01 SP= -.12E+02 SK= 0.11E-01
    800 T=   558. E= -.22865367E+03 F= -.22530544E+03 E0= -.22530544E+03  EK= 0.91638E+01 SP= -.13E+02 SK= 0.16E-01
    801 T=   561. E= -.22865315E+03 F= -.22526367E+03 E0= -.22526367E+03  EK= 0.92130E+01 SP= -.13E+02 SK= 0.23E-01
    802 T=   565. E= -.22865242E+03 F= -.22521950E+03 E0= -.22521950E+03  EK= 0.92748E+01 SP= -.13E+02 SK= 0.29E-01
    803 T=   570. E= -.22865161E+03 F= -.22518526E+03 E0= -.22518526E+03  EK= 0.93604E+01 SP= -.13E+02 SK= 0.36E-01
    804 T=   578. E= -.22865083E+03 F= -.22517436E+03 E0= -.22517436E+03  EK= 0.94817E+01 SP= -.13E+02 SK= 0.42E-01
    805 T=   588. E= -.22865028E+03 F= -.22519914E+03 E0= -.22519914E+03  EK= 0.96488E+01 SP= -.13E+02 SK= 0.46E-01
    806 T=   601. E= -.22865011E+03 F= -.22526839E+03 E0= -.22526839E+03  EK= 0.98672E+01 SP= -.13E+02 SK= 0.47E-01
    807 T=   617. E= -.22865042E+03 F= -.22538528E+03 E0= -.22538528E+03  EK= 0.10136E+02 SP= -.13E+02 SK= 0.45E-01
    808 T=   636. E= -.22865121E+03 F= -.22554636E+03 E0= -.22554636E+03  EK= 0.10444E+02 SP= -.14E+02 SK= 0.38E-01
    809 T=   656. E= -.22865242E+03 F= -.22574195E+03 E0= -.22574195E+03  EK= 0.10775E+02 SP= -.14E+02 SK= 0.28E-01
    810 T=   676. E= -.22865391E+03 F= -.22595727E+03 E0= -.22595727E+03  EK= 0.11103E+02 SP= -.14E+02 SK= 0.16E-01
    811 T=   694. E= -.22865545E+03 F= -.22617421E+03 E0= -.22617421E+03  EK= 0.11401E+02 SP= -.14E+02 SK= 0.60E-02
    812 T=   709. E= -.22865686E+03 F= -.22637379E+03 E0= -.22637379E+03  EK= 0.11638E+02 SP= -.14E+02 SK= 0.29E-03
    813 T=   718. E= -.22865787E+03 F= -.22653835E+03 E0= -.22653835E+03  EK= 0.11787E+02 SP= -.14E+02 SK= 0.25E-02
    814 T=   721. E= -.22865832E+03 F= -.22665372E+03 E0= -.22665372E+03  EK= 0.11830E+02 SP= -.14E+02 SK= 0.15E-01
    815 T=   716. E= -.22865820E+03 F= -.22671062E+03 E0= -.22671062E+03  EK= 0.11756E+02 SP= -.14E+02 SK= 0.37E-01
    816 T=   705. E= -.22865752E+03 F= -.22670500E+03 E0= -.22670500E+03  EK= 0.11565E+02 SP= -.14E+02 SK= 0.66E-01
    817 T=   686. E= -.22865638E+03 F= -.22663812E+03 E0= -.22663812E+03  EK= 0.11268E+02 SP= -.13E+02 SK= 0.99E-01
    818 T=   663. E= -.22865498E+03 F= -.22651637E+03 E0= -.22651637E+03  EK= 0.10883E+02 SP= -.13E+02 SK= 0.13E+00
    819 T=   636. E= -.22865349E+03 F= -.22635045E+03 E0= -.22635045E+03  EK= 0.10436E+02 SP= -.13E+02 SK= 0.15E+00
    820 T=   606. E= -.22865210E+03 F= -.22615422E+03 E0= -.22615422E+03  EK= 0.99552E+01 SP= -.13E+02 SK= 0.16E+00
    821 T=   577. E= -.22865094E+03 F= -.22594319E+03 E0= -.22594319E+03  EK= 0.94702E+01 SP= -.12E+02 SK= 0.16E+00
    822 T=   549. E= -.22865008E+03 F= -.22573301E+03 E0= -.22573301E+03  EK= 0.90077E+01 SP= -.12E+02 SK= 0.14E+00
    823 T=   523. E= -.22864956E+03 F= -.22553809E+03 E0= -.22553809E+03  EK= 0.85905E+01 SP= -.12E+02 SK= 0.11E+00
    824 T=   502. E= -.22864930E+03 F= -.22537044E+03 E0= -.22537044E+03  EK= 0.82362E+01 SP= -.12E+02 SK= 0.83E-01
    825 T=   485. E= -.22864925E+03 F= -.22523919E+03 E0= -.22523919E+03  EK= 0.79575E+01 SP= -.11E+02 SK= 0.51E-01
    826 T=   473. E= -.22864934E+03 F= -.22515036E+03 E0= -.22515036E+03  EK= 0.77623E+01 SP= -.11E+02 SK= 0.24E-01
    827 T=   466. E= -.22864952E+03 F= -.22510679E+03 E0= -.22510679E+03  EK= 0.76542E+01 SP= -.11E+02 SK= 0.64E-02
    828 T=   465. E= -.22864974E+03 F= -.22510828E+03 E0= -.22510828E+03  EK= 0.76333E+01 SP= -.11E+02 SK= 0.36E-05
    829 T=   469. E= -.22864998E+03 F= -.22515195E+03 E0= -.22515195E+03  EK= 0.76967E+01 SP= -.11E+02 SK= 0.57E-02
    830 T=   478. E= -.22865025E+03 F= -.22523257E+03 E0= -.22523257E+03  EK= 0.78387E+01 SP= -.11E+02 SK= 0.22E-01
    831 T=   490. E= -.22865056E+03 F= -.22534289E+03 E0= -.22534289E+03  EK= 0.80516E+01 SP= -.11E+02 SK= 0.47E-01
    832 T=   507. E= -.22865094E+03 F= -.22547406E+03 E0= -.22547406E+03  EK= 0.83249E+01 SP= -.12E+02 SK= 0.76E-01
    833 T=   527. E= -.22865141E+03 F= -.22561616E+03 E0= -.22561616E+03  EK= 0.86462E+01 SP= -.12E+02 SK= 0.10E+00
    834 T=   548. E= -.22865198E+03 F= -.22575862E+03 E0= -.22575862E+03  EK= 0.90014E+01 SP= -.12E+02 SK= 0.13E+00
    835 T=   571. E= -.22865271E+03 F= -.22589069E+03 E0= -.22589069E+03  EK= 0.93740E+01 SP= -.12E+02 SK= 0.15E+00
    836 T=   594. E= -.22865353E+03 F= -.22600176E+03 E0= -.22600176E+03  EK= 0.97463E+01 SP= -.13E+02 SK= 0.15E+00
    837 T=   615. E= -.22865443E+03 F= -.22608210E+03 E0= -.22608210E+03  EK= 0.10100E+02 SP= -.13E+02 SK= 0.15E+00
    838 T=   635. E= -.22865532E+03 F= -.22612329E+03 E0= -.22612329E+03  EK= 0.10417E+02 SP= -.13E+02 SK= 0.14E+00
    839 T=   651. E= -.22865612E+03 F= -.22611917E+03 E0= -.22611917E+03  EK= 0.10682E+02 SP= -.13E+02 SK= 0.12E+00
    840 T=   663. E= -.22865674E+03 F= -.22606627E+03 E0= -.22606627E+03  EK= 0.10880E+02 SP= -.14E+02 SK= 0.98E-01
    841 T=   670. E= -.22865715E+03 F= -.22596416E+03 E0= -.22596416E+03  EK= 0.11005E+02 SP= -.14E+02 SK= 0.74E-01
    842 T=   673. E= -.22865730E+03 F= -.22581518E+03 E0= -.22581518E+03  EK= 0.11052E+02 SP= -.14E+02 SK= 0.53E-01
    843 T=   672. E= -.22865719E+03 F= -.22562454E+03 E0= -.22562454E+03  EK= 0.11025E+02 SP= -.14E+02 SK= 0.35E-01
    844 T=   666. E= -.22865676E+03 F= -.22540021E+03 E0= -.22540021E+03  EK= 0.10930E+02 SP= -.14E+02 SK= 0.21E-01
    845 T=   657. E= -.22865610E+03 F= -.22515319E+03 E0= -.22515319E+03  EK= 0.10781E+02 SP= -.14E+02 SK= 0.12E-01
    846 T=   645. E= -.22865527E+03 F= -.22489673E+03 E0= -.22489673E+03  EK= 0.10596E+02 SP= -.14E+02 SK= 0.60E-02
    847 T=   633. E= -.22865442E+03 F= -.22464555E+03 E0= -.22464555E+03  EK= 0.10394E+02 SP= -.14E+02 SK= 0.29E-02
    848 T=   621. E= -.22865367E+03 F= -.22441418E+03 E0= -.22441418E+03  EK= 0.10197E+02 SP= -.14E+02 SK= 0.14E-02
    849 T=   610. E= -.22865311E+03 F= -.22421548E+03 E0= -.22421548E+03  EK= 0.10022E+02 SP= -.14E+02 SK= 0.75E-03
    850 T=   602. E= -.22865276E+03 F= -.22405939E+03 E0= -.22405939E+03  EK= 0.98840E+01 SP= -.14E+02 SK= 0.54E-03
    851 T=   597. E= -.22865265E+03 F= -.22395233E+03 E0= -.22395233E+03  EK= 0.97932E+01 SP= -.14E+02 SK= 0.54E-03
    852 T=   594. E= -.22865280E+03 F= -.22389671E+03 E0= -.22389671E+03  EK= 0.97543E+01 SP= -.15E+02 SK= 0.65E-03
    853 T=   595. E= -.22865315E+03 F= -.22389091E+03 E0= -.22389091E+03  EK= 0.97666E+01 SP= -.15E+02 SK= 0.79E-03
    854 T=   598. E= -.22865365E+03 F= -.22392980E+03 E0= -.22392980E+03  EK= 0.98250E+01 SP= -.15E+02 SK= 0.87E-03
    855 T=   604. E= -.22865425E+03 F= -.22400568E+03 E0= -.22400568E+03  EK= 0.99204E+01 SP= -.15E+02 SK= 0.78E-03
    856 T=   612. E= -.22865492E+03 F= -.22410914E+03 E0= -.22410914E+03  EK= 0.10041E+02 SP= -.15E+02 SK= 0.51E-03
    857 T=   620. E= -.22865562E+03 F= -.22422963E+03 E0= -.22422963E+03  EK= 0.10174E+02 SP= -.15E+02 SK= 0.16E-03
    858 T=   628. E= -.22865631E+03 F= -.22435607E+03 E0= -.22435607E+03  EK= 0.10303E+02 SP= -.15E+02 SK= 0.39E-05
    859 T=   634. E= -.22865692E+03 F= -.22447765E+03 E0= -.22447765E+03  EK= 0.10416E+02 SP= -.15E+02 SK= 0.44E-03
    860 T=   640. E= -.22865734E+03 F= -.22458469E+03 E0= -.22458469E+03  EK= 0.10498E+02 SP= -.15E+02 SK= 0.19E-02
    861 T=   642. E= -.22865742E+03 F= -.22467024E+03 E0= -.22467024E+03  EK= 0.10542E+02 SP= -.15E+02 SK= 0.47E-02
    862 T=   642. E= -.22865715E+03 F= -.22473157E+03 E0= -.22473157E+03  EK= 0.10543E+02 SP= -.14E+02 SK= 0.89E-02
    863 T=   640. E= -.22865655E+03 F= -.22477065E+03 E0= -.22477065E+03  EK= 0.10503E+02 SP= -.14E+02 SK= 0.14E-01
    864 T=   635. E= -.22865578E+03 F= -.22479359E+03 E0= -.22479359E+03  EK= 0.10429E+02 SP= -.14E+02 SK= 0.20E-01
    865 T=   629. E= -.22865507E+03 F= -.22480862E+03 E0= -.22480862E+03  EK= 0.10333E+02 SP= -.14E+02 SK= 0.26E-01
    866 T=   623. E= -.22865457E+03 F= -.22482315E+03 E0= -.22482315E+03  EK= 0.10225E+02 SP= -.14E+02 SK= 0.32E-01
    867 T=   616. E= -.22865432E+03 F= -.22484177E+03 E0= -.22484177E+03  EK= 0.10111E+02 SP= -.14E+02 SK= 0.36E-01
    868 T=   609. E= -.22865437E+03 F= -.22486532E+03 E0= -.22486532E+03  EK= 0.99964E+01 SP= -.14E+02 SK= 0.39E-01
    869 T=   602. E= -.22865461E+03 F= -.22489060E+03 E0= -.22489060E+03  EK= 0.98806E+01 SP= -.14E+02 SK= 0.41E-01
    870 T=   595. E= -.22865495E+03 F= -.22491138E+03 E0= -.22491138E+03  EK= 0.97607E+01 SP= -.14E+02 SK= 0.41E-01
    871 T=   587. E= -.22865520E+03 F= -.22492016E+03 E0= -.22492016E+03  EK= 0.96322E+01 SP= -.13E+02 SK= 0.39E-01
    872 T=   578. E= -.22865523E+03 F= -.22491062E+03 E0= -.22491062E+03  EK= 0.94923E+01 SP= -.13E+02 SK= 0.35E-01
    873 T=   569. E= -.22865500E+03 F= -.22487973E+03 E0= -.22487973E+03  EK= 0.93413E+01 SP= -.13E+02 SK= 0.30E-01
    874 T=   559. E= -.22865453E+03 F= -.22482885E+03 E0= -.22482885E+03  EK= 0.91839E+01 SP= -.13E+02 SK= 0.23E-01
    875 T=   550. E= -.22865389E+03 F= -.22476356E+03 E0= -.22476356E+03  EK= 0.90288E+01 SP= -.13E+02 SK= 0.16E-01
    876 T=   541. E= -.22865324E+03 F= -.22469256E+03 E0= -.22469256E+03  EK= 0.88876E+01 SP= -.13E+02 SK= 0.92E-02
    877 T=   534. E= -.22865268E+03 F= -.22462558E+03 E0= -.22462558E+03  EK= 0.87722E+01 SP= -.13E+02 SK= 0.37E-02
    878 T=   530. E= -.22865230E+03 F= -.22457149E+03 E0= -.22457149E+03  EK= 0.86931E+01 SP= -.13E+02 SK= 0.45E-03
    879 T=   527. E= -.22865216E+03 F= -.22453657E+03 E0= -.22453657E+03  EK= 0.86579E+01 SP= -.13E+02 SK= 0.40E-03
    880 T=   528. E= -.22865224E+03 F= -.22452348E+03 E0= -.22452348E+03  EK= 0.86698E+01 SP= -.13E+02 SK= 0.38E-02
    881 T=   532. E= -.22865246E+03 F= -.22453142E+03 E0= -.22453142E+03  EK= 0.87279E+01 SP= -.13E+02 SK= 0.10E-01
    882 T=   538. E= -.22865274E+03 F= -.22455715E+03 E0= -.22455715E+03  EK= 0.88285E+01 SP= -.13E+02 SK= 0.19E-01
    883 T=   546. E= -.22865301E+03 F= -.22459634E+03 E0= -.22459634E+03  EK= 0.89659E+01 SP= -.13E+02 SK= 0.30E-01
    884 T=   556. E= -.22865321E+03 F= -.22464476E+03 E0= -.22464476E+03  EK= 0.91339E+01 SP= -.13E+02 SK= 0.40E-01
    885 T=   568. E= -.22865334E+03 F= -.22469919E+03 E0= -.22469919E+03  EK= 0.93264E+01 SP= -.13E+02 SK= 0.49E-01
    886 T=   581. E= -.22865342E+03 F= -.22475792E+03 E0= -.22475792E+03  EK= 0.95383E+01 SP= -.13E+02 SK= 0.56E-01
    887 T=   595. E= -.22865350E+03 F= -.22482029E+03 E0= -.22482029E+03  EK= 0.97644E+01 SP= -.14E+02 SK= 0.59E-01
    888 T=   609. E= -.22865361E+03 F= -.22488617E+03 E0= -.22488617E+03  EK= 0.99995E+01 SP= -.14E+02 SK= 0.58E-01
    889 T=   624. E= -.22865383E+03 F= -.22495543E+03 E0= -.22495543E+03  EK= 0.10238E+02 SP= -.14E+02 SK= 0.53E-01
    890 T=   638. E= -.22865417E+03 F= -.22502718E+03 E0= -.22502718E+03  EK= 0.10471E+02 SP= -.14E+02 SK= 0.45E-01
    891 T=   651. E= -.22865459E+03 F= -.22509948E+03 E0= -.22509948E+03  EK= 0.10692E+02 SP= -.14E+02 SK= 0.34E-01
    892 T=   663. E= -.22865507E+03 F= -.22516954E+03 E0= -.22516954E+03  EK= 0.10890E+02 SP= -.14E+02 SK= 0.23E-01
    893 T=   673. E= -.22865558E+03 F= -.22523386E+03 E0= -.22523386E+03  EK= 0.11056E+02 SP= -.14E+02 SK= 0.12E-01
    894 T=   681. E= -.22865612E+03 F= -.22528814E+03 E0= -.22528814E+03  EK= 0.11178E+02 SP= -.15E+02 SK= 0.41E-02
    895 T=   685. E= -.22865672E+03 F= -.22532694E+03 E0= -.22532694E+03  EK= 0.11247E+02 SP= -.15E+02 SK= 0.21E-03
    896 T=   686. E= -.22865728E+03 F= -.22534318E+03 E0= -.22534318E+03  EK= 0.11254E+02 SP= -.15E+02 SK= 0.13E-02
    897 T=   682. E= -.22865774E+03 F= -.22532893E+03 E0= -.22532893E+03  EK= 0.11191E+02 SP= -.15E+02 SK= 0.75E-02
    898 T=   673. E= -.22865795E+03 F= -.22527632E+03 E0= -.22527632E+03  EK= 0.11051E+02 SP= -.14E+02 SK= 0.18E-01
    899 T=   660. E= -.22865783E+03 F= -.22517949E+03 E0= -.22517949E+03  EK= 0.10836E+02 SP= -.14E+02 SK= 0.30E-01
    900 T=   643. E= -.22865732E+03 F= -.22503643E+03 E0= -.22503643E+03  EK= 0.10550E+02 SP= -.14E+02 SK= 0.42E-01
    901 T=   622. E= -.22865638E+03 F= -.22485073E+03 E0= -.22485073E+03  EK= 0.10208E+02 SP= -.14E+02 SK= 0.50E-01
    902 T=   599. E= -.22865509E+03 F= -.22463287E+03 E0= -.22463287E+03  EK= 0.98301E+01 SP= -.14E+02 SK= 0.53E-01
    903 T=   575. E= -.22865361E+03 F= -.22440002E+03 E0= -.22440002E+03  EK= 0.94434E+01 SP= -.14E+02 SK= 0.50E-01
    904 T=   553. E= -.22865219E+03 F= -.22417402E+03 E0= -.22417402E+03  EK= 0.90785E+01 SP= -.14E+02 SK= 0.41E-01
    905 T=   534. E= -.22865108E+03 F= -.22397761E+03 E0= -.22397761E+03  EK= 0.87648E+01 SP= -.13E+02 SK= 0.29E-01
 bond charge predicted
       N       E                     dE             d eps       ncg     rms          rms(c)
DAV:   1    -0.222630721477E+03    0.33837E+01   -0.17042E+03   264   0.613E+01
DAV:   2    -0.231963846609E+03   -0.93331E+01   -0.92421E+01   348   0.145E+01
DAV:   3    -0.232165983195E+03   -0.20214E+00   -0.20182E+00   324   0.236E+00
DAV:   4    -0.232171243521E+03   -0.52603E-02   -0.52592E-02   336   0.372E-01
DAV:   5    -0.232171444433E+03   -0.20091E-03   -0.20088E-03   336   0.766E-02    0.753E+00
RMM:   6    -0.224349994467E+03    0.78214E+01   -0.92020E+00   264   0.220E+00    0.343E+00
RMM:   7    -0.223807611578E+03    0.54238E+00   -0.22834E+00   264   0.161E+00    0.232E+00
RMM:   8    -0.223402882245E+03    0.40473E+00   -0.77872E-01   264   0.974E-01    0.123E+00
RMM:   9    -0.223359511694E+03    0.43371E-01   -0.30347E-01   264   0.640E-01    0.606E-01
RMM:  10    -0.223359524023E+03   -0.12330E-04   -0.82194E-02   270   0.384E-01    0.327E-01
RMM:  11    -0.223358991512E+03    0.53251E-03   -0.21278E-02   274   0.204E-01    0.180E-01
RMM:  12    -0.223359041567E+03   -0.50055E-04   -0.57511E-03   266   0.117E-01    0.841E-02
RMM:  13    -0.223359113025E+03   -0.71457E-04   -0.15087E-03   267   0.614E-02    0.467E-02
RMM:  14    -0.223359067897E+03    0.45127E-04   -0.41987E-04   238   0.341E-02
    906 T=   520. E= -.22817184E+03 F= -.22335907E+03 E0= -.22331560E+03  EK= 0.85339E+01 SP= -.13E+02 SK= 0.17E-01
    907 T=   511. E= -.22863523E+03 F= -.22374781E+03 E0= -.22374781E+03  EK= 0.83968E+01 SP= -.13E+02 SK= 0.63E-02
    908 T=   509. E= -.22863541E+03 F= -.22373366E+03 E0= -.22373366E+03  EK= 0.83507E+01 SP= -.13E+02 SK= 0.75E-03
    909 T=   512. E= -.22863596E+03 F= -.22378609E+03 E0= -.22378609E+03  EK= 0.84018E+01 SP= -.13E+02 SK= 0.61E-03
    910 T=   520. E= -.22863684E+03 F= -.22389595E+03 E0= -.22389595E+03  EK= 0.85401E+01 SP= -.13E+02 SK= 0.54E-02
    911 T=   533. E= -.22863788E+03 F= -.22404817E+03 E0= -.22404817E+03  EK= 0.87491E+01 SP= -.13E+02 SK= 0.13E-01
    912 T=   549. E= -.22863891E+03 F= -.22422462E+03 E0= -.22422462E+03  EK= 0.90079E+01 SP= -.13E+02 SK= 0.22E-01
    913 T=   566. E= -.22863972E+03 F= -.22440779E+03 E0= -.22440779E+03  EK= 0.92951E+01 SP= -.14E+02 SK= 0.30E-01
    914 T=   584. E= -.22864026E+03 F= -.22458399E+03 E0= -.22458399E+03  EK= 0.95916E+01 SP= -.14E+02 SK= 0.35E-01
    915 T=   602. E= -.22864055E+03 F= -.22474465E+03 E0= -.22474465E+03  EK= 0.98824E+01 SP= -.14E+02 SK= 0.36E-01
    916 T=   619. E= -.22864068E+03 F= -.22488613E+03 E0= -.22488613E+03  EK= 0.10157E+02 SP= -.14E+02 SK= 0.34E-01
    917 T=   634. E= -.22864070E+03 F= -.22500846E+03 E0= -.22500846E+03  EK= 0.10407E+02 SP= -.14E+02 SK= 0.28E-01
    918 T=   647. E= -.22864068E+03 F= -.22511388E+03 E0= -.22511388E+03  EK= 0.10628E+02 SP= -.14E+02 SK= 0.20E-01
    919 T=   659. E= -.22864066E+03 F= -.22520579E+03 E0= -.22520579E+03  EK= 0.10816E+02 SP= -.14E+02 SK= 0.12E-01
    920 T=   668. E= -.22864071E+03 F= -.22528730E+03 E0= -.22528730E+03  EK= 0.10968E+02 SP= -.14E+02 SK= 0.53E-02
    921 T=   675. E= -.22864085E+03 F= -.22536004E+03 E0= -.22536004E+03  EK= 0.11081E+02 SP= -.14E+02 SK= 0.90E-03
    922 T=   679. E= -.22864104E+03 F= -.22542369E+03 E0= -.22542369E+03  EK= 0.11150E+02 SP= -.14E+02 SK= 0.26E-03
    923 T=   680. E= -.22864123E+03 F= -.22547616E+03 E0= -.22547616E+03  EK= 0.11171E+02 SP= -.14E+02 SK= 0.40E-02
    924 T=   679. E= -.22864130E+03 F= -.22551438E+03 E0= -.22551438E+03  EK= 0.11140E+02 SP= -.14E+02 SK= 0.12E-01
    925 T=   673. E= -.22864118E+03 F= -.22553546E+03 E0= -.22553546E+03  EK= 0.11056E+02 SP= -.14E+02 SK= 0.24E-01
    926 T=   665. E= -.22864085E+03 F= -.22553789E+03 E0= -.22553789E+03  EK= 0.10920E+02 SP= -.14E+02 SK= 0.39E-01
    927 T=   654. E= -.22864036E+03 F= -.22552224E+03 E0= -.22552224E+03  EK= 0.10739E+02 SP= -.14E+02 SK= 0.55E-01
    928 T=   641. E= -.22863969E+03 F= -.22549120E+03 E0= -.22549120E+03  EK= 0.10522E+02 SP= -.14E+02 SK= 0.69E-01
    929 T=   626. E= -.22863893E+03 F= -.22544980E+03 E0= -.22544980E+03  EK= 0.10280E+02 SP= -.14E+02 SK= 0.80E-01
    930 T=   611. E= -.22863815E+03 F= -.22540497E+03 E0= -.22540497E+03  EK= 0.10029E+02 SP= -.13E+02 SK= 0.87E-01
    931 T=   596. E= -.22863746E+03 F= -.22536466E+03 E0= -.22536466E+03  EK= 0.97815E+01 SP= -.13E+02 SK= 0.88E-01
    932 T=   582. E= -.22863689E+03 F= -.22533679E+03 E0= -.22533679E+03  EK= 0.95528E+01 SP= -.13E+02 SK= 0.85E-01
    933 T=   570. E= -.22863651E+03 F= -.22532818E+03 E0= -.22532818E+03  EK= 0.93543E+01 SP= -.13E+02 SK= 0.77E-01
    934 T=   560. E= -.22863631E+03 F= -.22534370E+03 E0= -.22534370E+03  EK= 0.91943E+01 SP= -.13E+02 SK= 0.66E-01
    935 T=   553. E= -.22863630E+03 F= -.22538572E+03 E0= -.22538572E+03  EK= 0.90778E+01 SP= -.12E+02 SK= 0.54E-01
    936 T=   549. E= -.22863646E+03 F= -.22545381E+03 E0= -.22545381E+03  EK= 0.90059E+01 SP= -.12E+02 SK= 0.42E-01
    937 T=   547. E= -.22863673E+03 F= -.22554485E+03 E0= -.22554485E+03  EK= 0.89761E+01 SP= -.12E+02 SK= 0.30E-01
    938 T=   547. E= -.22863704E+03 F= -.22565371E+03 E0= -.22565371E+03  EK= 0.89835E+01 SP= -.12E+02 SK= 0.21E-01
    939 T=   550. E= -.22863737E+03 F= -.22577411E+03 E0= -.22577411E+03  EK= 0.90213E+01 SP= -.12E+02 SK= 0.13E-01
    940 T=   553. E= -.22863772E+03 F= -.22589912E+03 E0= -.22589912E+03  EK= 0.90815E+01 SP= -.12E+02 SK= 0.75E-02
    941 T=   558. E= -.22863806E+03 F= -.22602149E+03 E0= -.22602149E+03  EK= 0.91559E+01 SP= -.12E+02 SK= 0.37E-02
    942 T=   563. E= -.22863839E+03 F= -.22613419E+03 E0= -.22613419E+03  EK= 0.92357E+01 SP= -.12E+02 SK= 0.15E-02
    943 T=   567. E= -.22863869E+03 F= -.22623049E+03 E0= -.22623049E+03  EK= 0.93128E+01 SP= -.12E+02 SK= 0.36E-03
    944 T=   571. E= -.22863893E+03 F= -.22630450E+03 E0= -.22630450E+03  EK= 0.93797E+01 SP= -.12E+02 SK= 0.32E-05
    945 T=   574. E= -.22863904E+03 F= -.22635177E+03 E0= -.22635177E+03  EK= 0.94306E+01 SP= -.12E+02 SK= 0.17E-03
    946 T=   576. E= -.22863904E+03 F= -.22636981E+03 E0= -.22636981E+03  EK= 0.94621E+01 SP= -.12E+02 SK= 0.71E-03
    947 T=   577. E= -.22863891E+03 F= -.22635847E+03 E0= -.22635847E+03  EK= 0.94731E+01 SP= -.12E+02 SK= 0.16E-02
    948 T=   577. E= -.22863866E+03 F= -.22631988E+03 E0= -.22631988E+03  EK= 0.94656E+01 SP= -.12E+02 SK= 0.27E-02
    949 T=   575. E= -.22863834E+03 F= -.22625809E+03 E0= -.22625809E+03  EK= 0.94436E+01 SP= -.12E+02 SK= 0.43E-02
    950 T=   573. E= -.22863802E+03 F= -.22617835E+03 E0= -.22617835E+03  EK= 0.94127E+01 SP= -.12E+02 SK= 0.64E-02
    951 T=   571. E= -.22863776E+03 F= -.22608623E+03 E0= -.22608623E+03  EK= 0.93792E+01 SP= -.12E+02 SK= 0.91E-02
    952 T=   569. E= -.22863755E+03 F= -.22598682E+03 E0= -.22598682E+03  EK= 0.93488E+01 SP= -.12E+02 SK= 0.13E-01
    953 T=   568. E= -.22863745E+03 F= -.22588430E+03 E0= -.22588430E+03  EK= 0.93263E+01 SP= -.12E+02 SK= 0.17E-01
    954 T=   567. E= -.22863745E+03 F= -.22578153E+03 E0= -.22578153E+03  EK= 0.93150E+01 SP= -.12E+02 SK= 0.22E-01
    955 T=   568. E= -.22863753E+03 F= -.22568004E+03 E0= -.22568004E+03  EK= 0.93171E+01 SP= -.12E+02 SK= 0.28E-01
    956 T=   569. E= -.22863766E+03 F= -.22558039E+03 E0= -.22558039E+03  EK= 0.93330E+01 SP= -.12E+02 SK= 0.34E-01
    957 T=   570. E= -.22863782E+03 F= -.22548245E+03 E0= -.22548245E+03  EK= 0.93626E+01 SP= -.13E+02 SK= 0.41E-01
    958 T=   573. E= -.22863797E+03 F= -.22538588E+03 E0= -.22538588E+03  EK= 0.94051E+01 SP= -.13E+02 SK= 0.47E-01
    959 T=   576. E= -.22863810E+03 F= -.22529054E+03 E0= -.22529054E+03  EK= 0.94597E+01 SP= -.13E+02 SK= 0.54E-01
    960 T=   580. E= -.22863824E+03 F= -.22519662E+03 E0= -.22519662E+03  EK= 0.95254E+01 SP= -.13E+02 SK= 0.59E-01
    961 T=   585. E= -.22863836E+03 F= -.22510445E+03 E0= -.22510445E+03  EK= 0.96015E+01 SP= -.13E+02 SK= 0.64E-01
    962 T=   590. E= -.22863849E+03 F= -.22501461E+03 E0= -.22501461E+03  EK= 0.96868E+01 SP= -.13E+02 SK= 0.67E-01
    963 T=   596. E= -.22863868E+03 F= -.22492764E+03 E0= -.22492764E+03  EK= 0.97800E+01 SP= -.14E+02 SK= 0.69E-01
    964 T=   602. E= -.22863892E+03 F= -.22484361E+03 E0= -.22484361E+03  EK= 0.98791E+01 SP= -.14E+02 SK= 0.69E-01
    965 T=   608. E= -.22863924E+03 F= -.22476197E+03 E0= -.22476197E+03  EK= 0.99812E+01 SP= -.14E+02 SK= 0.67E-01
    966 T=   614. E= -.22863958E+03 F= -.22468148E+03 E0= -.22468148E+03  EK= 0.10082E+02 SP= -.14E+02 SK= 0.64E-01
    967 T=   620. E= -.22863991E+03 F= -.22460082E+03 E0= -.22460082E+03  EK= 0.10179E+02 SP= -.14E+02 SK= 0.58E-01
    968 T=   625. E= -.22864017E+03 F= -.22451904E+03 E0= -.22451904E+03  EK= 0.10267E+02 SP= -.14E+02 SK= 0.52E-01
    969 T=   630. E= -.22864032E+03 F= -.22443636E+03 E0= -.22443636E+03  EK= 0.10344E+02 SP= -.15E+02 SK= 0.44E-01
    970 T=   634. E= -.22864035E+03 F= -.22435449E+03 E0= -.22435449E+03  EK= 0.10410E+02 SP= -.15E+02 SK= 0.36E-01
    971 T=   638. E= -.22864035E+03 F= -.22427640E+03 E0= -.22427640E+03  EK= 0.10465E+02 SP= -.15E+02 SK= 0.29E-01
    972 T=   640. E= -.22864030E+03 F= -.22420544E+03 E0= -.22420544E+03  EK= 0.10512E+02 SP= -.15E+02 SK= 0.21E-01
    973 T=   643. E= -.22864030E+03 F= -.22414481E+03 E0= -.22414481E+03  EK= 0.10550E+02 SP= -.15E+02 SK= 0.15E-01
    974 T=   645. E= -.22864042E+03 F= -.22409655E+03 E0= -.22409655E+03  EK= 0.10583E+02 SP= -.15E+02 SK= 0.89E-02
    975 T=   646. E= -.22864062E+03 F= -.22406075E+03 E0= -.22406075E+03  EK= 0.10607E+02 SP= -.15E+02 SK= 0.45E-02
    976 T=   647. E= -.22864086E+03 F= -.22403576E+03 E0= -.22403576E+03  EK= 0.10622E+02 SP= -.15E+02 SK= 0.15E-02
    977 T=   647. E= -.22864114E+03 F= -.22401865E+03 E0= -.22401865E+03  EK= 0.10624E+02 SP= -.15E+02 SK= 0.12E-03
    978 T=   646. E= -.22864136E+03 F= -.22400573E+03 E0= -.22400573E+03  EK= 0.10608E+02 SP= -.15E+02 SK= 0.30E-03
    979 T=   644. E= -.22864154E+03 F= -.22399319E+03 E0= -.22399319E+03  EK= 0.10572E+02 SP= -.15E+02 SK= 0.20E-02
    980 T=   640. E= -.22864162E+03 F= -.22397745E+03 E0= -.22397745E+03  EK= 0.10513E+02 SP= -.15E+02 SK= 0.49E-02
    981 T=   635. E= -.22864159E+03 F= -.22395576E+03 E0= -.22395576E+03  EK= 0.10431E+02 SP= -.15E+02 SK= 0.87E-02
    982 T=   629. E= -.22864145E+03 F= -.22392668E+03 E0= -.22392668E+03  EK= 0.10326E+02 SP= -.15E+02 SK= 0.13E-01
    983 T=   621. E= -.22864119E+03 F= -.22389034E+03 E0= -.22389034E+03  EK= 0.10202E+02 SP= -.15E+02 SK= 0.16E-01
    984 T=   613. E= -.22864084E+03 F= -.22384863E+03 E0= -.22384863E+03  EK= 0.10065E+02 SP= -.15E+02 SK= 0.19E-01
    985 T=   604. E= -.22864046E+03 F= -.22380484E+03 E0= -.22380484E+03  EK= 0.99205E+01 SP= -.15E+02 SK= 0.21E-01
    986 T=   596. E= -.22864006E+03 F= -.22376325E+03 E0= -.22376325E+03  EK= 0.97776E+01 SP= -.15E+02 SK= 0.21E-01
    987 T=   587. E= -.22863970E+03 F= -.22372864E+03 E0= -.22372864E+03  EK= 0.96443E+01 SP= -.15E+02 SK= 0.20E-01
    988 T=   580. E= -.22863938E+03 F= -.22370569E+03 E0= -.22370569E+03  EK= 0.95282E+01 SP= -.14E+02 SK= 0.18E-01
    989 T=   575. E= -.22863914E+03 F= -.22369870E+03 E0= -.22369870E+03  EK= 0.94362E+01 SP= -.14E+02 SK= 0.15E-01
    990 T=   571. E= -.22863895E+03 F= -.22371118E+03 E0= -.22371118E+03  EK= 0.93735E+01 SP= -.14E+02 SK= 0.11E-01
    991 T=   569. E= -.22863883E+03 F= -.22374569E+03 E0= -.22374569E+03  EK= 0.93437E+01 SP= -.14E+02 SK= 0.79E-02
    992 T=   569. E= -.22863882E+03 F= -.22380353E+03 E0= -.22380353E+03  EK= 0.93486E+01 SP= -.14E+02 SK= 0.51E-02
    993 T=   572. E= -.22863890E+03 F= -.22388435E+03 E0= -.22388435E+03  EK= 0.93874E+01 SP= -.14E+02 SK= 0.30E-02
    994 T=   576. E= -.22863910E+03 F= -.22398622E+03 E0= -.22398622E+03  EK= 0.94574E+01 SP= -.14E+02 SK= 0.16E-02
    995 T=   582. E= -.22863939E+03 F= -.22410548E+03 E0= -.22410548E+03  EK= 0.95531E+01 SP= -.14E+02 SK= 0.82E-03
    996 T=   589. E= -.22863972E+03 F= -.22423710E+03 E0= -.22423710E+03  EK= 0.96675E+01 SP= -.14E+02 SK= 0.44E-03
    997 T=   597. E= -.22864005E+03 F= -.22437551E+03 E0= -.22437551E+03  EK= 0.97924E+01 SP= -.14E+02 SK= 0.30E-03
    998 T=   604. E= -.22864038E+03 F= -.22451520E+03 E0= -.22451520E+03  EK= 0.99192E+01 SP= -.14E+02 SK= 0.34E-03
    999 T=   612. E= -.22864057E+03 F= -.22465123E+03 E0= -.22465123E+03  EK= 0.10040E+02 SP= -.14E+02 SK= 0.57E-03
   1000 T=   618. E= -.22864067E+03 F= -.22478037E+03 E0= -.22478037E+03  EK= 0.10149E+02 SP= -.14E+02 SK= 0.11E-02
   1001 T=   624. E= -.22864060E+03 F= -.22490115E+03 E0= -.22490115E+03  EK= 0.10241E+02 SP= -.14E+02 SK= 0.22E-02
   1002 T=   628. E= -.22864041E+03 F= -.22501420E+03 E0= -.22501420E+03  EK= 0.10314E+02 SP= -.14E+02 SK= 0.39E-02
   1003 T=   632. E= -.22864014E+03 F= -.22512181E+03 E0= -.22512181E+03  EK= 0.10369E+02 SP= -.14E+02 SK= 0.65E-02
   1004 T=   634. E= -.22863988E+03 F= -.22522706E+03 E0= -.22522706E+03  EK= 0.10408E+02 SP= -.14E+02 SK= 0.10E-01
   1005 T=   635. E= -.22863967E+03 F= -.22533283E+03 E0= -.22533283E+03  EK= 0.10431E+02 SP= -.14E+02 SK= 0.15E-01
   1006 T=   636. E= -.22863957E+03 F= -.22544082E+03 E0= -.22544082E+03  EK= 0.10441E+02 SP= -.14E+02 SK= 0.21E-01
   1007 T=   636. E= -.22863956E+03 F= -.22555078E+03 E0= -.22555078E+03  EK= 0.10437E+02 SP= -.14E+02 SK= 0.27E-01
   1008 T=   635. E= -.22863966E+03 F= -.22566055E+03 E0= -.22566055E+03  EK= 0.10416E+02 SP= -.13E+02 SK= 0.35E-01
   1009 T=   632. E= -.22863981E+03 F= -.22576598E+03 E0= -.22576598E+03  EK= 0.10376E+02 SP= -.13E+02 SK= 0.43E-01
   1010 T=   628. E= -.22863991E+03 F= -.22586185E+03 E0= -.22586185E+03  EK= 0.10313E+02 SP= -.13E+02 SK= 0.51E-01
   1011 T=   623. E= -.22863993E+03 F= -.22594301E+03 E0= -.22594301E+03  EK= 0.10224E+02 SP= -.13E+02 SK= 0.58E-01
   1012 T=   616. E= -.22863990E+03 F= -.22600494E+03 E0= -.22600494E+03  EK= 0.10108E+02 SP= -.13E+02 SK= 0.64E-01
   1013 T=   607. E= -.22863980E+03 F= -.22604386E+03 E0= -.22604386E+03  EK= 0.99638E+01 SP= -.13E+02 SK= 0.68E-01
   1014 T=   597. E= -.22863966E+03 F= -.22605700E+03 E0= -.22605700E+03  EK= 0.97936E+01 SP= -.12E+02 SK= 0.69E-01
   1015 T=   585. E= -.22863946E+03 F= -.22604260E+03 E0= -.22604260E+03  EK= 0.96001E+01 SP= -.12E+02 SK= 0.67E-01
   1016 T=   572. E= -.22863919E+03 F= -.22600031E+03 E0= -.22600031E+03  EK= 0.93881E+01 SP= -.12E+02 SK= 0.61E-01
   1017 T=   558. E= -.22863885E+03 F= -.22593173E+03 E0= -.22593173E+03  EK= 0.91642E+01 SP= -.12E+02 SK= 0.51E-01
   1018 T=   544. E= -.22863844E+03 F= -.22584049E+03 E0= -.22584049E+03  EK= 0.89366E+01 SP= -.12E+02 SK= 0.40E-01
   1019 T=   531. E= -.22863797E+03 F= -.22573230E+03 E0= -.22573230E+03  EK= 0.87154E+01 SP= -.12E+02 SK= 0.27E-01
   1020 T=   518. E= -.22863745E+03 F= -.22561470E+03 E0= -.22561470E+03  EK= 0.85116E+01 SP= -.12E+02 SK= 0.14E-01
   1021 T=   508. E= -.22863688E+03 F= -.22549688E+03 E0= -.22549688E+03  EK= 0.83375E+01 SP= -.11E+02 SK= 0.49E-02
   1022 T=   500. E= -.22863628E+03 F= -.22538918E+03 E0= -.22538918E+03  EK= 0.82055E+01 SP= -.11E+02 SK= 0.21E-03
   1023 T=   495. E= -.22863565E+03 F= -.22530238E+03 E0= -.22530238E+03  EK= 0.81281E+01 SP= -.11E+02 SK= 0.20E-02
   1024 T=   494. E= -.22863505E+03 F= -.22524693E+03 E0= -.22524693E+03  EK= 0.81165E+01 SP= -.12E+02 SK= 0.11E-01
   1025 T=   498. E= -.22863455E+03 F= -.22523164E+03 E0= -.22523164E+03  EK= 0.81801E+01 SP= -.12E+02 SK= 0.28E-01
   1026 T=   507. E= -.22863425E+03 F= -.22526234E+03 E0= -.22526234E+03  EK= 0.83245E+01 SP= -.12E+02 SK= 0.49E-01
   1027 T=   521. E= -.22863423E+03 F= -.22534054E+03 E0= -.22534054E+03  EK= 0.85505E+01 SP= -.12E+02 SK= 0.74E-01
   1028 T=   539. E= -.22863455E+03 F= -.22546267E+03 E0= -.22546267E+03  EK= 0.88526E+01 SP= -.12E+02 SK= 0.98E-01
   1029 T=   562. E= -.22863522E+03 F= -.22562004E+03 E0= -.22562004E+03  EK= 0.92187E+01 SP= -.12E+02 SK= 0.12E+00
   1030 T=   587. E= -.22863627E+03 F= -.22579950E+03 E0= -.22579950E+03  EK= 0.96300E+01 SP= -.13E+02 SK= 0.13E+00
   1031 T=   613. E= -.22863762E+03 F= -.22598447E+03 E0= -.22598447E+03  EK= 0.10062E+02 SP= -.13E+02 SK= 0.13E+00
   1032 T=   639. E= -.22863916E+03 F= -.22615669E+03 E0= -.22615669E+03  EK= 0.10486E+02 SP= -.13E+02 SK= 0.12E+00
   1033 T=   662. E= -.22864074E+03 F= -.22629809E+03 E0= -.22629809E+03  EK= 0.10872E+02 SP= -.13E+02 SK= 0.96E-01
   1034 T=   682. E= -.22864217E+03 F= -.22639254E+03 E0= -.22639254E+03  EK= 0.11190E+02 SP= -.14E+02 SK= 0.71E-01
   1035 T=   695. E= -.22864329E+03 F= -.22642741E+03 E0= -.22642741E+03  EK= 0.11416E+02 SP= -.14E+02 SK= 0.45E-01
   1036 T=   703. E= -.22864391E+03 F= -.22639470E+03 E0= -.22639470E+03  EK= 0.11533E+02 SP= -.14E+02 SK= 0.24E-01
   1037 T=   702. E= -.22864397E+03 F= -.22629188E+03 E0= -.22629188E+03  EK= 0.11531E+02 SP= -.14E+02 SK= 0.86E-02
   1038 T=   695. E= -.22864346E+03 F= -.22612227E+03 E0= -.22612227E+03  EK= 0.11414E+02 SP= -.14E+02 SK= 0.12E-02
   1039 T=   682. E= -.22864244E+03 F= -.22589518E+03 E0= -.22589518E+03  EK= 0.11194E+02 SP= -.14E+02 SK= 0.36E-03
   1040 T=   664. E= -.22864105E+03 F= -.22562522E+03 E0= -.22562522E+03  EK= 0.10893E+02 SP= -.14E+02 SK= 0.39E-02
   1041 T=   642. E= -.22863949E+03 F= -.22533131E+03 E0= -.22533131E+03  EK= 0.10541E+02 SP= -.14E+02 SK= 0.89E-02
   1042 T=   620. E= -.22863796E+03 F= -.22503506E+03 E0= -.22503506E+03  EK= 0.10170E+02 SP= -.14E+02 SK= 0.13E-01
   1043 T=   598. E= -.22863664E+03 F= -.22475859E+03 E0= -.22475859E+03  EK= 0.98132E+01 SP= -.14E+02 SK= 0.14E-01
   1044 T=   579. E= -.22863567E+03 F= -.22452213E+03 E0= -.22452213E+03  EK= 0.94988E+01 SP= -.14E+02 SK= 0.13E-01
   1045 T=   563. E= -.22863512E+03 F= -.22434182E+03 E0= -.22434182E+03  EK= 0.92501E+01 SP= -.14E+02 SK= 0.91E-02
   1046 T=   553. E= -.22863499E+03 F= -.22422804E+03 E0= -.22422804E+03  EK= 0.90823E+01 SP= -.13E+02 SK= 0.51E-02
   1047 T=   548. E= -.22863522E+03 F= -.22418470E+03 E0= -.22418470E+03  EK= 0.90021E+01 SP= -.13E+02 SK= 0.18E-02
   1048 T=   549. E= -.22863574E+03 F= -.22420940E+03 E0= -.22420940E+03  EK= 0.90084E+01 SP= -.13E+02 SK= 0.18E-03
   1049 T=   554. E= -.22863644E+03 F= -.22429445E+03 E0= -.22429445E+03  EK= 0.90932E+01 SP= -.13E+02 SK= 0.22E-03
   1050 T=   563. E= -.22863725E+03 F= -.22442844E+03 E0= -.22442844E+03  EK= 0.92437E+01 SP= -.13E+02 SK= 0.15E-02
   1051 T=   575. E= -.22863809E+03 F= -.22459771E+03 E0= -.22459771E+03  EK= 0.94434E+01 SP= -.13E+02 SK= 0.31E-02
   1052 T=   589. E= -.22863892E+03 F= -.22478794E+03 E0= -.22478794E+03  EK= 0.96741E+01 SP= -.14E+02 SK= 0.43E-02
   1053 T=   604. E= -.22863975E+03 F= -.22498525E+03 E0= -.22498525E+03  EK= 0.99166E+01 SP= -.14E+02 SK= 0.45E-02
   1054 T=   618. E= -.22864046E+03 F= -.22517666E+03 E0= -.22517666E+03  EK= 0.10152E+02 SP= -.14E+02 SK= 0.35E-02
   1055 T=   631. E= -.22864109E+03 F= -.22535103E+03 E0= -.22535103E+03  EK= 0.10364E+02 SP= -.14E+02 SK= 0.19E-02
   1056 T=   642. E= -.22864155E+03 F= -.22549935E+03 E0= -.22549935E+03  EK= 0.10536E+02 SP= -.14E+02 SK= 0.47E-03
   1057 T=   649. E= -.22864184E+03 F= -.22561503E+03 E0= -.22561503E+03  EK= 0.10657E+02 SP= -.14E+02 SK= 0.35E-04
   1058 T=   653. E= -.22864186E+03 F= -.22569418E+03 E0= -.22569418E+03  EK= 0.10720E+02 SP= -.14E+02 SK= 0.14E-02
   1059 T=   653. E= -.22864166E+03 F= -.22573605E+03 E0= -.22573605E+03  EK= 0.10722E+02 SP= -.14E+02 SK= 0.47E-02
   1060 T=   650. E= -.22864125E+03 F= -.22574267E+03 E0= -.22574267E+03  EK= 0.10665E+02 SP= -.14E+02 SK= 0.10E-01
   1061 T=   643. E= -.22864066E+03 F= -.22571840E+03 E0= -.22571840E+03  EK= 0.10555E+02 SP= -.13E+02 SK= 0.16E-01
   1062 T=   634. E= -.22864001E+03 F= -.22566945E+03 E0= -.22566945E+03  EK= 0.10403E+02 SP= -.13E+02 SK= 0.23E-01
   1063 T=   623. E= -.22863929E+03 F= -.22560315E+03 E0= -.22560315E+03  EK= 0.10221E+02 SP= -.13E+02 SK= 0.28E-01
   1064 T=   610. E= -.22863859E+03 F= -.22552767E+03 E0= -.22552767E+03  EK= 0.10021E+02 SP= -.13E+02 SK= 0.32E-01
   1065 T=   598. E= -.22863790E+03 F= -.22545154E+03 E0= -.22545154E+03  EK= 0.98189E+01 SP= -.13E+02 SK= 0.33E-01
   1066 T=   586. E= -.22863730E+03 F= -.22538339E+03 E0= -.22538339E+03  EK= 0.96272E+01 SP= -.13E+02 SK= 0.32E-01
   1067 T=   576. E= -.22863681E+03 F= -.22533117E+03 E0= -.22533117E+03  EK= 0.94584E+01 SP= -.13E+02 SK= 0.28E-01
   1068 T=   568. E= -.22863650E+03 F= -.22530143E+03 E0= -.22530143E+03  EK= 0.93225E+01 SP= -.13E+02 SK= 0.23E-01
   1069 T=   562. E= -.22863636E+03 F= -.22529841E+03 E0= -.22529841E+03  EK= 0.92263E+01 SP= -.13E+02 SK= 0.17E-01
 bond charge predicted
       N       E                     dE             d eps       ncg     rms          rms(c)
DAV:   1    -0.224671520857E+03   -0.13124E+01   -0.17976E+03   264   0.624E+01
DAV:   2    -0.235209790914E+03   -0.10538E+02   -0.10406E+02   336   0.154E+01
DAV:   3    -0.235442385321E+03   -0.23259E+00   -0.23208E+00   336   0.250E+00
DAV:   4    -0.235448237177E+03   -0.58519E-02   -0.58493E-02   336   0.393E-01
DAV:   5    -0.235448459908E+03   -0.22273E-03   -0.22270E-03   336   0.805E-02    0.802E+00
RMM:   6    -0.227218256808E+03    0.82302E+01   -0.11788E+01   264   0.241E+00    0.432E+00
RMM:   7    -0.225398228654E+03    0.18200E+01   -0.24683E+00   264   0.173E+00    0.243E+00
RMM:   8    -0.224965149929E+03    0.43308E+00   -0.11902E+00   264   0.111E+00    0.115E+00
RMM:   9    -0.224957497024E+03    0.76529E-02   -0.31620E-01   266   0.695E-01    0.715E-01
RMM:  10    -0.224946150123E+03    0.11347E-01   -0.10071E-01   269   0.421E-01    0.385E-01
RMM:  11    -0.224946514869E+03   -0.36475E-03   -0.29118E-02   273   0.235E-01    0.191E-01
RMM:  12    -0.224947133708E+03   -0.61884E-03   -0.79633E-03   266   0.136E-01    0.919E-02
RMM:  13    -0.224946998066E+03    0.13564E-03   -0.18868E-03   267   0.663E-02    0.470E-02
RMM:  14    -0.224946992004E+03    0.60613E-05   -0.53134E-04   248   0.379E-02
   1070 T=   558. E= -.22826556E+03 F= -.22494699E+03 E0= -.22492685E+03  EK= 0.91670E+01 SP= -.12E+02 SK= 0.12E-01
   1071 T=   557. E= -.22864759E+03 F= -.22537703E+03 E0= -.22537703E+03  EK= 0.91519E+01 SP= -.12E+02 SK= 0.73E-02
   1072 T=   559. E= -.22864801E+03 F= -.22545246E+03 E0= -.22545246E+03  EK= 0.91792E+01 SP= -.12E+02 SK= 0.38E-02
   1073 T=   563. E= -.22864851E+03 F= -.22554271E+03 E0= -.22554271E+03  EK= 0.92361E+01 SP= -.12E+02 SK= 0.15E-02
   1074 T=   567. E= -.22864910E+03 F= -.22563918E+03 E0= -.22563918E+03  EK= 0.93127E+01 SP= -.12E+02 SK= 0.38E-03
   1075 T=   572. E= -.22864966E+03 F= -.22573250E+03 E0= -.22573250E+03  EK= 0.93982E+01 SP= -.12E+02 SK= 0.66E-05
   1076 T=   578. E= -.22865012E+03 F= -.22581382E+03 E0= -.22581382E+03  EK= 0.94819E+01 SP= -.12E+02 SK= 0.13E-03
   1077 T=   582. E= -.22865044E+03 F= -.22587599E+03 E0= -.22587599E+03  EK= 0.95551E+01 SP= -.12E+02 SK= 0.49E-03
   1078 T=   585. E= -.22865061E+03 F= -.22591441E+03 E0= -.22591441E+03  EK= 0.96113E+01 SP= -.12E+02 SK= 0.95E-03
   1079 T=   588. E= -.22865058E+03 F= -.22592732E+03 E0= -.22592732E+03  EK= 0.96477E+01 SP= -.12E+02 SK= 0.14E-02
   1080 T=   589. E= -.22865039E+03 F= -.22591607E+03 E0= -.22591607E+03  EK= 0.96645E+01 SP= -.12E+02 SK= 0.19E-02
   1081 T=   589. E= -.22865004E+03 F= -.22588484E+03 E0= -.22588484E+03  EK= 0.96657E+01 SP= -.12E+02 SK= 0.25E-02
   1082 T=   588. E= -.22864962E+03 F= -.22584016E+03 E0= -.22584016E+03  EK= 0.96574E+01 SP= -.12E+02 SK= 0.31E-02
   1083 T=   588. E= -.22864910E+03 F= -.22579002E+03 E0= -.22579002E+03  EK= 0.96479E+01 SP= -.13E+02 SK= 0.38E-02
   1084 T=   588. E= -.22864861E+03 F= -.22574348E+03 E0= -.22574348E+03  EK= 0.96463E+01 SP= -.13E+02 SK= 0.47E-02
   1085 T=   589. E= -.22864820E+03 F= -.22570932E+03 E0= -.22570932E+03  EK= 0.96615E+01 SP= -.13E+02 SK= 0.56E-02
   1086 T=   591. E= -.22864793E+03 F= -.22569490E+03 E0= -.22569490E+03  EK= 0.97004E+01 SP= -.13E+02 SK= 0.64E-02
   1087 T=   595. E= -.22864778E+03 F= -.22570541E+03 E0= -.22570541E+03  EK= 0.97675E+01 SP= -.13E+02 SK= 0.70E-02
   1088 T=   601. E= -.22864783E+03 F= -.22574368E+03 E0= -.22574368E+03  EK= 0.98642E+01 SP= -.13E+02 SK= 0.71E-02
   1089 T=   608. E= -.22864803E+03 F= -.22580962E+03 E0= -.22580962E+03  EK= 0.99881E+01 SP= -.13E+02 SK= 0.66E-02
   1090 T=   617. E= -.22864837E+03 F= -.22590060E+03 E0= -.22590060E+03  EK= 0.10134E+02 SP= -.13E+02 SK= 0.53E-02
   1091 T=   627. E= -.22864886E+03 F= -.22601176E+03 E0= -.22601176E+03  EK= 0.10292E+02 SP= -.13E+02 SK= 0.35E-02
   1092 T=   637. E= -.22864945E+03 F= -.22613605E+03 E0= -.22613605E+03  EK= 0.10452E+02 SP= -.13E+02 SK= 0.16E-02
   1093 T=   646. E= -.22865015E+03 F= -.22626469E+03 E0= -.22626469E+03  EK= 0.10601E+02 SP= -.13E+02 SK= 0.23E-03
   1094 T=   653. E= -.22865094E+03 F= -.22638705E+03 E0= -.22638705E+03  EK= 0.10723E+02 SP= -.13E+02 SK= 0.21E-03
   1095 T=   658. E= -.22865170E+03 F= -.22649100E+03 E0= -.22649100E+03  EK= 0.10802E+02 SP= -.13E+02 SK= 0.23E-02
   1096 T=   659. E= -.22865243E+03 F= -.22656386E+03 E0= -.22656386E+03  EK= 0.10824E+02 SP= -.13E+02 SK= 0.69E-02
   1097 T=   656. E= -.22865292E+03 F= -.22659328E+03 E0= -.22659328E+03  EK= 0.10776E+02 SP= -.13E+02 SK= 0.14E-01
   1098 T=   649. E= -.22865306E+03 F= -.22656914E+03 E0= -.22656914E+03  EK= 0.10649E+02 SP= -.13E+02 SK= 0.22E-01
   1099 T=   636. E= -.22865276E+03 F= -.22648576E+03 E0= -.22648576E+03  EK= 0.10444E+02 SP= -.13E+02 SK= 0.31E-01
   1100 T=   619. E= -.22865193E+03 F= -.22634382E+03 E0= -.22634382E+03  EK= 0.10168E+02 SP= -.13E+02 SK= 0.37E-01
   1101 T=   599. E= -.22865065E+03 F= -.22615186E+03 E0= -.22615186E+03  EK= 0.98377E+01 SP= -.12E+02 SK= 0.40E-01
   1102 T=   577. E= -.22864903E+03 F= -.22592649E+03 E0= -.22592649E+03  EK= 0.94792E+01 SP= -.12E+02 SK= 0.38E-01
   1103 T=   556. E= -.22864735E+03 F= -.22569082E+03 E0= -.22569082E+03  EK= 0.91237E+01 SP= -.12E+02 SK= 0.31E-01
   1104 T=   536. E= -.22864586E+03 F= -.22547096E+03 E0= -.22547096E+03  EK= 0.88041E+01 SP= -.12E+02 SK= 0.21E-01
   1105 T=   521. E= -.22864476E+03 F= -.22529170E+03 E0= -.22529170E+03  EK= 0.85504E+01 SP= -.12E+02 SK= 0.10E-01
   1106 T=   511. E= -.22864414E+03 F= -.22517269E+03 E0= -.22517269E+03  EK= 0.83853E+01 SP= -.12E+02 SK= 0.29E-02
   1107 T=   507. E= -.22864407E+03 F= -.22512544E+03 E0= -.22512544E+03  EK= 0.83222E+01 SP= -.12E+02 SK= 0.16E-06
   1108 T=   509. E= -.22864448E+03 F= -.22515183E+03 E0= -.22515183E+03  EK= 0.83637E+01 SP= -.12E+02 SK= 0.28E-02
   1109 T=   518. E= -.22864527E+03 F= -.22524463E+03 E0= -.22524463E+03  EK= 0.85023E+01 SP= -.12E+02 SK= 0.11E-01
   1110 T=   531. E= -.22864630E+03 F= -.22538929E+03 E0= -.22538929E+03  EK= 0.87221E+01 SP= -.12E+02 SK= 0.22E-01
   1111 T=   548. E= -.22864742E+03 F= -.22556686E+03 E0= -.22556686E+03  EK= 0.90017E+01 SP= -.12E+02 SK= 0.33E-01
   1112 T=   568. E= -.22864847E+03 F= -.22575725E+03 E0= -.22575725E+03  EK= 0.93166E+01 SP= -.12E+02 SK= 0.42E-01
   1113 T=   587. E= -.22864940E+03 F= -.22594212E+03 E0= -.22594212E+03  EK= 0.96428E+01 SP= -.12E+02 SK= 0.47E-01
   1114 T=   607. E= -.22865018E+03 F= -.22610658E+03 E0= -.22610658E+03  EK= 0.99583E+01 SP= -.13E+02 SK= 0.48E-01
   1115 T=   624. E= -.22865079E+03 F= -.22623965E+03 E0= -.22623965E+03  EK= 0.10244E+02 SP= -.13E+02 SK= 0.44E-01
   1116 T=   639. E= -.22865122E+03 F= -.22633442E+03 E0= -.22633442E+03  EK= 0.10485E+02 SP= -.13E+02 SK= 0.36E-01
   1117 T=   650. E= -.22865145E+03 F= -.22638768E+03 E0= -.22638768E+03  EK= 0.10670E+02 SP= -.13E+02 SK= 0.27E-01
   1118 T=   658. E= -.22865149E+03 F= -.22639948E+03 E0= -.22639948E+03  EK= 0.10794E+02 SP= -.13E+02 SK= 0.17E-01
   1119 T=   661. E= -.22865128E+03 F= -.22637277E+03 E0= -.22637277E+03  EK= 0.10854E+02 SP= -.13E+02 SK= 0.90E-02
   1120 T=   661. E= -.22865085E+03 F= -.22631343E+03 E0= -.22631343E+03  EK= 0.10854E+02 SP= -.13E+02 SK= 0.34E-02
   1121 T=   658. E= -.22865026E+03 F= -.22622963E+03 E0= -.22622963E+03  EK= 0.10802E+02 SP= -.13E+02 SK= 0.51E-03
   1122 T=   652. E= -.22864957E+03 F= -.22613104E+03 E0= -.22613104E+03  EK= 0.10709E+02 SP= -.13E+02 SK= 0.11E-03
   1123 T=   645. E= -.22864889E+03 F= -.22602797E+03 E0= -.22602797E+03  EK= 0.10587E+02 SP= -.13E+02 SK= 0.16E-02
   1124 T=   637. E= -.22864830E+03 F= -.22593004E+03 E0= -.22593004E+03  EK= 0.10451E+02 SP= -.13E+02 SK= 0.41E-02
   1125 T=   628. E= -.22864789E+03 F= -.22584520E+03 E0= -.22584520E+03  EK= 0.10313E+02 SP= -.13E+02 SK= 0.70E-02
   1126 T=   620. E= -.22864768E+03 F= -.22577876E+03 E0= -.22577876E+03  EK= 0.10181E+02 SP= -.13E+02 SK= 0.96E-02
   1127 T=   613. E= -.22864770E+03 F= -.22573291E+03 E0= -.22573291E+03  EK= 0.10061E+02 SP= -.13E+02 SK= 0.12E-01
   1128 T=   606. E= -.22864788E+03 F= -.22570663E+03 E0= -.22570663E+03  EK= 0.99551E+01 SP= -.13E+02 SK= 0.13E-01
   1129 T=   601. E= -.22864816E+03 F= -.22569638E+03 E0= -.22569638E+03  EK= 0.98632E+01 SP= -.13E+02 SK= 0.14E-01
   1130 T=   596. E= -.22864851E+03 F= -.22569692E+03 E0= -.22569692E+03  EK= 0.97819E+01 SP= -.13E+02 SK= 0.14E-01
   1131 T=   591. E= -.22864885E+03 F= -.22570209E+03 E0= -.22570209E+03  EK= 0.97070E+01 SP= -.13E+02 SK= 0.13E-01
   1132 T=   587. E= -.22864917E+03 F= -.22570568E+03 E0= -.22570568E+03  EK= 0.96343E+01 SP= -.13E+02 SK= 0.12E-01
   1133 T=   582. E= -.22864948E+03 F= -.22570173E+03 E0= -.22570173E+03  EK= 0.95593E+01 SP= -.13E+02 SK= 0.99E-02
   1134 T=   577. E= -.22864975E+03 F= -.22568462E+03 E0= -.22568462E+03  EK= 0.94783E+01 SP= -.12E+02 SK= 0.79E-02
   1135 T=   572. E= -.22865000E+03 F= -.22564936E+03 E0= -.22564936E+03  EK= 0.93881E+01 SP= -.12E+02 SK= 0.56E-02
   1136 T=   566. E= -.22865014E+03 F= -.22559186E+03 E0= -.22559186E+03  EK= 0.92868E+01 SP= -.12E+02 SK= 0.33E-02
   1137 T=   559. E= -.22865019E+03 F= -.22550964E+03 E0= -.22550964E+03  EK= 0.91740E+01 SP= -.12E+02 SK= 0.13E-02
   1138 T=   551. E= -.22865013E+03 F= -.22540214E+03 E0= -.22540214E+03  EK= 0.90515E+01 SP= -.12E+02 SK= 0.11E-03
   1139 T=   544. E= -.22864993E+03 F= -.22527114E+03 E0= -.22527114E+03  EK= 0.89234E+01 SP= -.12E+02 SK= 0.37E-03
   1140 T=   536. E= -.22864959E+03 F= -.22512101E+03 E0= -.22512101E+03  EK= 0.87966E+01 SP= -.12E+02 SK= 0.29E-02
   1141 T=   529. E= -.22864914E+03 F= -.22495869E+03 E0= -.22495869E+03  EK= 0.86800E+01 SP= -.12E+02 SK= 0.86E-02
   1142 T=   523. E= -.22864860E+03 F= -.22479317E+03 E0= -.22479317E+03  EK= 0.85847E+01 SP= -.12E+02 SK= 0.18E-01
   1143 T=   519. E= -.22864801E+03 F= -.22463482E+03 E0= -.22463482E+03  EK= 0.85227E+01 SP= -.13E+02 SK= 0.33E-01
   1144 T=   518. E= -.22864741E+03 F= -.22449442E+03 E0= -.22449442E+03  EK= 0.85061E+01 SP= -.13E+02 SK= 0.52E-01
   1145 T=   521. E= -.22864689E+03 F= -.22438193E+03 E0= -.22438193E+03  EK= 0.85457E+01 SP= -.13E+02 SK= 0.75E-01
   1146 T=   527. E= -.22864648E+03 F= -.22430525E+03 E0= -.22430525E+03  EK= 0.86500E+01 SP= -.13E+02 SK= 0.10E+00
   1147 T=   538. E= -.22864625E+03 F= -.22426956E+03 E0= -.22426956E+03  EK= 0.88237E+01 SP= -.13E+02 SK= 0.13E+00
   1148 T=   552. E= -.22864623E+03 F= -.22427655E+03 E0= -.22427655E+03  EK= 0.90675E+01 SP= -.14E+02 SK= 0.15E+00
   1149 T=   571. E= -.22864648E+03 F= -.22432435E+03 E0= -.22432435E+03  EK= 0.93767E+01 SP= -.14E+02 SK= 0.17E+00
   1150 T=   593. E= -.22864707E+03 F= -.22440747E+03 E0= -.22440747E+03  EK= 0.97413E+01 SP= -.14E+02 SK= 0.18E+00
   1151 T=   618. E= -.22864800E+03 F= -.22451684E+03 E0= -.22451684E+03  EK= 0.10145E+02 SP= -.14E+02 SK= 0.17E+00
   1152 T=   644. E= -.22864924E+03 F= -.22464062E+03 E0= -.22464062E+03  EK= 0.10568E+02 SP= -.15E+02 SK= 0.16E+00
   1153 T=   669. E= -.22865068E+03 F= -.22476534E+03 E0= -.22476534E+03  EK= 0.10983E+02 SP= -.15E+02 SK= 0.13E+00
   1154 T=   692. E= -.22865215E+03 F= -.22487731E+03 E0= -.22487731E+03  EK= 0.11365E+02 SP= -.15E+02 SK= 0.10E+00
   1155 T=   712. E= -.22865348E+03 F= -.22496430E+03 E0= -.22496430E+03  EK= 0.11685E+02 SP= -.15E+02 SK= 0.66E-01
   1156 T=   726. E= -.22865449E+03 F= -.22501697E+03 E0= -.22501697E+03  EK= 0.11922E+02 SP= -.16E+02 SK= 0.35E-01
   1157 T=   735. E= -.22865505E+03 F= -.22502965E+03 E0= -.22502965E+03  EK= 0.12060E+02 SP= -.16E+02 SK= 0.12E-01
   1158 T=   736. E= -.22865509E+03 F= -.22500064E+03 E0= -.22500064E+03  EK= 0.12090E+02 SP= -.16E+02 SK= 0.80E-03
   1159 T=   732. E= -.22865462E+03 F= -.22493236E+03 E0= -.22493236E+03  EK= 0.12012E+02 SP= -.16E+02 SK= 0.26E-02
   1160 T=   721. E= -.22865366E+03 F= -.22483120E+03 E0= -.22483120E+03  EK= 0.11837E+02 SP= -.16E+02 SK= 0.16E-01
   1161 T=   705. E= -.22865240E+03 F= -.22470720E+03 E0= -.22470720E+03  EK= 0.11581E+02 SP= -.16E+02 SK= 0.37E-01
   1162 T=   686. E= -.22865097E+03 F= -.22457302E+03 E0= -.22457302E+03  EK= 0.11268E+02 SP= -.15E+02 SK= 0.63E-01
   1163 T=   666. E= -.22864958E+03 F= -.22444299E+03 E0= -.22444299E+03  EK= 0.10925E+02 SP= -.15E+02 SK= 0.87E-01
   1164 T=   644. E= -.22864833E+03 F= -.22433162E+03 E0= -.22433162E+03  EK= 0.10577E+02 SP= -.15E+02 SK= 0.11E+00
   1165 T=   624. E= -.22864739E+03 F= -.22425252E+03 E0= -.22425252E+03  EK= 0.10249E+02 SP= -.15E+02 SK= 0.12E+00
   1166 T=   607. E= -.22864674E+03 F= -.22421667E+03 E0= -.22421667E+03  EK= 0.99611E+01 SP= -.15E+02 SK= 0.13E+00
   1167 T=   593. E= -.22864645E+03 F= -.22423182E+03 E0= -.22423182E+03  EK= 0.97268E+01 SP= -.14E+02 SK= 0.13E+00
   1168 T=   582. E= -.22864646E+03 F= -.22430161E+03 E0= -.22430161E+03  EK= 0.95544E+01 SP= -.14E+02 SK= 0.12E+00
   1169 T=   575. E= -.22864676E+03 F= -.22442531E+03 E0= -.22442531E+03  EK= 0.94456E+01 SP= -.14E+02 SK= 0.11E+00
   1170 T=   572. E= -.22864723E+03 F= -.22459785E+03 E0= -.22459785E+03  EK= 0.93963E+01 SP= -.14E+02 SK= 0.11E+00
   1171 T=   572. E= -.22864785E+03 F= -.22481059E+03 E0= -.22481059E+03  EK= 0.93978E+01 SP= -.13E+02 SK= 0.95E-01
   1172 T=   575. E= -.22864853E+03 F= -.22505210E+03 E0= -.22505210E+03  EK= 0.94377E+01 SP= -.13E+02 SK= 0.86E-01
   1173 T=   579. E= -.22864919E+03 F= -.22530915E+03 E0= -.22530915E+03  EK= 0.95013E+01 SP= -.13E+02 SK= 0.79E-01
   1174 T=   583. E= -.22864978E+03 F= -.22556815E+03 E0= -.22556815E+03  EK= 0.95733E+01 SP= -.13E+02 SK= 0.73E-01
   1175 T=   587. E= -.22865025E+03 F= -.22581621E+03 E0= -.22581621E+03  EK= 0.96393E+01 SP= -.13E+02 SK= 0.69E-01
   1176 T=   590. E= -.22865053E+03 F= -.22604212E+03 E0= -.22604212E+03  EK= 0.96870E+01 SP= -.12E+02 SK= 0.66E-01
   1177 T=   591. E= -.22865061E+03 F= -.22623730E+03 E0= -.22623730E+03  EK= 0.97071E+01 SP= -.12E+02 SK= 0.64E-01
   1178 T=   591. E= -.22865050E+03 F= -.22639625E+03 E0= -.22639625E+03  EK= 0.96941E+01 SP= -.12E+02 SK= 0.61E-01
   1179 T=   588. E= -.22865021E+03 F= -.22651656E+03 E0= -.22651656E+03  EK= 0.96466E+01 SP= -.12E+02 SK= 0.59E-01
   1180 T=   583. E= -.22864978E+03 F= -.22659892E+03 E0= -.22659892E+03  EK= 0.95670E+01 SP= -.12E+02 SK= 0.55E-01
   1181 T=   576. E= -.22864928E+03 F= -.22664662E+03 E0= -.22664662E+03  EK= 0.94607E+01 SP= -.12E+02 SK= 0.50E-01
   1182 T=   569. E= -.22864874E+03 F= -.22666487E+03 E0= -.22666487E+03  EK= 0.93358E+01 SP= -.11E+02 SK= 0.43E-01
   1183 T=   560. E= -.22864828E+03 F= -.22665987E+03 E0= -.22665987E+03  EK= 0.92011E+01 SP= -.11E+02 SK= 0.35E-01
   1184 T=   552. E= -.22864791E+03 F= -.22663770E+03 E0= -.22663770E+03  EK= 0.90656E+01 SP= -.11E+02 SK= 0.27E-01
   1185 T=   544. E= -.22864766E+03 F= -.22660363E+03 E0= -.22660363E+03  EK= 0.89370E+01 SP= -.11E+02 SK= 0.18E-01
   1186 T=   537. E= -.22864751E+03 F= -.22656162E+03 E0= -.22656162E+03  EK= 0.88217E+01 SP= -.11E+02 SK= 0.10E-01
   1187 T=   531. E= -.22864746E+03 F= -.22651429E+03 E0= -.22651429E+03  EK= 0.87241E+01 SP= -.11E+02 SK= 0.39E-02
   1188 T=   527. E= -.22864748E+03 F= -.22646312E+03 E0= -.22646312E+03  EK= 0.86473E+01 SP= -.11E+02 SK= 0.45E-03
   1189 T=   523. E= -.22864747E+03 F= -.22640873E+03 E0= -.22640873E+03  EK= 0.85931E+01 SP= -.11E+02 SK= 0.48E-03
   1190 T=   522. E= -.22864740E+03 F= -.22635184E+03 E0= -.22635184E+03  EK= 0.85632E+01 SP= -.11E+02 SK= 0.44E-02
   1191 T=   521. E= -.22864724E+03 F= -.22629402E+03 E0= -.22629402E+03  EK= 0.85596E+01 SP= -.11E+02 SK= 0.12E-01
   1192 T=   523. E= -.22864701E+03 F= -.22623770E+03 E0= -.22623770E+03  EK= 0.85850E+01 SP= -.11E+02 SK= 0.25E-01
   1193 T=   526. E= -.22864673E+03 F= -.22618617E+03 E0= -.22618617E+03  EK= 0.86426E+01 SP= -.11E+02 SK= 0.40E-01
   1194 T=   532. E= -.22864645E+03 F= -.22614301E+03 E0= -.22614301E+03  EK= 0.87355E+01 SP= -.11E+02 SK= 0.58E-01
   1195 T=   540. E= -.22864626E+03 F= -.22611147E+03 E0= -.22611147E+03  EK= 0.88658E+01 SP= -.11E+02 SK= 0.77E-01
   1196 T=   550. E= -.22864617E+03 F= -.22609348E+03 E0= -.22609348E+03  EK= 0.90340E+01 SP= -.12E+02 SK= 0.96E-01
   1197 T=   563. E= -.22864629E+03 F= -.22608906E+03 E0= -.22608906E+03  EK= 0.92377E+01 SP= -.12E+02 SK= 0.11E+00
   1198 T=   577. E= -.22864665E+03 F= -.22609557E+03 E0= -.22609557E+03  EK= 0.94711E+01 SP= -.12E+02 SK= 0.12E+00
   1199 T=   592. E= -.22864722E+03 F= -.22610777E+03 E0= -.22610777E+03  EK= 0.97246E+01 SP= -.12E+02 SK= 0.13E+00
   1200 T=   608. E= -.22864798E+03 F= -.22611843E+03 E0= -.22611843E+03  EK= 0.99857E+01 SP= -.13E+02 SK= 0.13E+00
   1201 T=   624. E= -.22864882E+03 F= -.22611928E+03 E0= -.22611928E+03  EK= 0.10240E+02 SP= -.13E+02 SK= 0.12E+00
   1202 T=   638. E= -.22864962E+03 F= -.22610235E+03 E0= -.22610235E+03  EK= 0.10471E+02 SP= -.13E+02 SK= 0.11E+00
   1203 T=   650. E= -.22865029E+03 F= -.22606138E+03 E0= -.22606138E+03  EK= 0.10667E+02 SP= -.13E+02 SK= 0.92E-01
   1204 T=   659. E= -.22865077E+03 F= -.22599294E+03 E0= -.22599294E+03  EK= 0.10818E+02 SP= -.14E+02 SK= 0.74E-01
   1205 T=   665. E= -.22865094E+03 F= -.22589702E+03 E0= -.22589702E+03  EK= 0.10916E+02 SP= -.14E+02 SK= 0.55E-01
   1206 T=   668. E= -.22865083E+03 F= -.22577737E+03 E0= -.22577737E+03  EK= 0.10963E+02 SP= -.14E+02 SK= 0.38E-01
   1207 T=   668. E= -.22865051E+03 F= -.22564095E+03 E0= -.22564095E+03  EK= 0.10963E+02 SP= -.14E+02 SK= 0.24E-01
   1208 T=   665. E= -.22865002E+03 F= -.22549703E+03 E0= -.22549703E+03  EK= 0.10923E+02 SP= -.14E+02 SK= 0.13E-01
   1209 T=   661. E= -.22864947E+03 F= -.22535615E+03 E0= -.22535615E+03  EK= 0.10857E+02 SP= -.14E+02 SK= 0.59E-02
   1210 T=   656. E= -.22864898E+03 F= -.22522864E+03 E0= -.22522864E+03  EK= 0.10775E+02 SP= -.14E+02 SK= 0.17E-02
   1211 T=   651. E= -.22864864E+03 F= -.22512319E+03 E0= -.22512319E+03  EK= 0.10690E+02 SP= -.14E+02 SK= 0.91E-04
   1212 T=   646. E= -.22864853E+03 F= -.22504570E+03 E0= -.22504570E+03  EK= 0.10608E+02 SP= -.14E+02 SK= 0.38E-03
   1213 T=   642. E= -.22864868E+03 F= -.22499811E+03 E0= -.22499811E+03  EK= 0.10536E+02 SP= -.14E+02 SK= 0.21E-02
   1214 T=   638. E= -.22864908E+03 F= -.22497803E+03 E0= -.22497803E+03  EK= 0.10473E+02 SP= -.14E+02 SK= 0.48E-02
   1215 T=   634. E= -.22864961E+03 F= -.22497921E+03 E0= -.22497921E+03  EK= 0.10414E+02 SP= -.14E+02 SK= 0.84E-02
   1216 T=   631. E= -.22865017E+03 F= -.22499287E+03 E0= -.22499287E+03  EK= 0.10352E+02 SP= -.14E+02 SK= 0.12E-01
   1217 T=   626. E= -.22865061E+03 F= -.22500940E+03 E0= -.22500940E+03  EK= 0.10281E+02 SP= -.14E+02 SK= 0.17E-01
   1218 T=   621. E= -.22865084E+03 F= -.22502039E+03 E0= -.22502039E+03  EK= 0.10193E+02 SP= -.14E+02 SK= 0.20E-01
   1219 T=   614. E= -.22865080E+03 F= -.22502025E+03 E0= -.22502025E+03  EK= 0.10086E+02 SP= -.14E+02 SK= 0.24E-01
   1220 T=   607. E= -.22865051E+03 F= -.22500719E+03 E0= -.22500719E+03  EK= 0.99609E+01 SP= -.14E+02 SK= 0.26E-01
   1221 T=   598. E= -.22865003E+03 F= -.22498336E+03 E0= -.22498336E+03  EK= 0.98236E+01 SP= -.14E+02 SK= 0.27E-01
   1222 T=   590. E= -.22864947E+03 F= -.22495388E+03 E0= -.22495388E+03  EK= 0.96826E+01 SP= -.13E+02 SK= 0.26E-01
   1223 T=   582. E= -.22864900E+03 F= -.22492535E+03 E0= -.22492535E+03  EK= 0.95475E+01 SP= -.13E+02 SK= 0.23E-01
   1224 T=   574. E= -.22864872E+03 F= -.22490359E+03 E0= -.22490359E+03  EK= 0.94271E+01 SP= -.13E+02 SK= 0.20E-01
   1225 T=   568. E= -.22864869E+03 F= -.22489199E+03 E0= -.22489199E+03  EK= 0.93273E+01 SP= -.13E+02 SK= 0.16E-01
   1226 T=   563. E= -.22864890E+03 F= -.22489057E+03 E0= -.22489057E+03  EK= 0.92499E+01 SP= -.13E+02 SK= 0.11E-01
   1227 T=   560. E= -.22864923E+03 F= -.22489600E+03 E0= -.22489600E+03  EK= 0.91932E+01 SP= -.13E+02 SK= 0.70E-02
   1228 T=   558. E= -.22864958E+03 F= -.22490301E+03 E0= -.22490301E+03  EK= 0.91531E+01 SP= -.13E+02 SK= 0.36E-02
   1229 T=   556. E= -.22864984E+03 F= -.22490615E+03 E0= -.22490615E+03  EK= 0.91248E+01 SP= -.13E+02 SK= 0.13E-02
   1230 T=   555. E= -.22864991E+03 F= -.22490131E+03 E0= -.22490131E+03  EK= 0.91050E+01 SP= -.13E+02 SK= 0.11E-03
   1231 T=   554. E= -.22864973E+03 F= -.22488738E+03 E0= -.22488738E+03  EK= 0.90929E+01 SP= -.13E+02 SK= 0.24E-03
   1232 T=   554. E= -.22864934E+03 F= -.22486691E+03 E0= -.22486691E+03  EK= 0.90913E+01 SP= -.13E+02 SK= 0.17E-02
   1233 T=   555. E= -.22864879E+03 F= -.22484578E+03 E0= -.22484578E+03  EK= 0.91061E+01 SP= -.13E+02 SK= 0.46E-02
   1234 T=   557. E= -.22864823E+03 F= -.22483213E+03 E0= -.22483213E+03  EK= 0.91451E+01 SP= -.13E+02 SK= 0.87E-02
   1235 T=   561. E= -.22864777E+03 F= -.22483419E+03 E0= -.22483419E+03  EK= 0.92157E+01 SP= -.13E+02 SK= 0.14E-01
   1236 T=   568. E= -.22864754E+03 F= -.22485836E+03 E0= -.22485836E+03  EK= 0.93231E+01 SP= -.13E+02 SK= 0.19E-01
   1237 T=   577. E= -.22864761E+03 F= -.22490765E+03 E0= -.22490765E+03  EK= 0.94683E+01 SP= -.13E+02 SK= 0.23E-01
   1238 T=   588. E= -.22864794E+03 F= -.22498069E+03 E0= -.22498069E+03  EK= 0.96474E+01 SP= -.13E+02 SK= 0.26E-01
   1239 T=   600. E= -.22864849E+03 F= -.22507234E+03 E0= -.22507234E+03  EK= 0.98515E+01 SP= -.13E+02 SK= 0.27E-01
   1240 T=   613. E= -.22864915E+03 F= -.22517469E+03 E0= -.22517469E+03  EK= 0.10068E+02 SP= -.14E+02 SK= 0.26E-01
   1241 T=   626. E= -.22864979E+03 F= -.22527876E+03 E0= -.22527876E+03  EK= 0.10283E+02 SP= -.14E+02 SK= 0.22E-01
   1242 T=   638. E= -.22865030E+03 F= -.22537642E+03 E0= -.22537642E+03  EK= 0.10482E+02 SP= -.14E+02 SK= 0.16E-01
   1243 T=   649. E= -.22865064E+03 F= -.22546163E+03 E0= -.22546163E+03  EK= 0.10653E+02 SP= -.14E+02 SK= 0.10E-01
   1244 T=   657. E= -.22865082E+03 F= -.22553088E+03 E0= -.22553088E+03  EK= 0.10787E+02 SP= -.14E+02 SK= 0.49E-02
   1245 T=   663. E= -.22865090E+03 F= -.22558273E+03 E0= -.22558273E+03  EK= 0.10879E+02 SP= -.14E+02 SK= 0.12E-02
   1246 T=   666. E= -.22865090E+03 F= -.22561673E+03 E0= -.22561673E+03  EK= 0.10925E+02 SP= -.14E+02 SK= 0.16E-04
   1247 T=   665. E= -.22865089E+03 F= -.22563284E+03 E0= -.22563284E+03  EK= 0.10923E+02 SP= -.14E+02 SK= 0.19E-02
   1248 T=   662. E= -.22865086E+03 F= -.22563056E+03 E0= -.22563056E+03  EK= 0.10873E+02 SP= -.14E+02 SK= 0.66E-02
   1249 T=   656. E= -.22865085E+03 F= -.22560856E+03 E0= -.22560856E+03  EK= 0.10775E+02 SP= -.14E+02 SK= 0.14E-01
   1250 T=   648. E= -.22865082E+03 F= -.22556467E+03 E0= -.22556467E+03  EK= 0.10630E+02 SP= -.14E+02 SK= 0.22E-01
   1251 T=   636. E= -.22865070E+03 F= -.22549650E+03 E0= -.22549650E+03  EK= 0.10442E+02 SP= -.14E+02 SK= 0.30E-01
   1252 T=   622. E= -.22865045E+03 F= -.22540268E+03 E0= -.22540268E+03  EK= 0.10215E+02 SP= -.13E+02 SK= 0.37E-01
   1253 T=   607. E= -.22865004E+03 F= -.22528381E+03 E0= -.22528381E+03  EK= 0.99568E+01 SP= -.13E+02 SK= 0.40E-01
   1254 T=   590. E= -.22864951E+03 F= -.22514330E+03 E0= -.22514330E+03  EK= 0.96775E+01 SP= -.13E+02 SK= 0.40E-01
   1255 T=   572. E= -.22864885E+03 F= -.22498766E+03 E0= -.22498766E+03  EK= 0.93909E+01 SP= -.13E+02 SK= 0.36E-01
   1256 T=   555. E= -.22864815E+03 F= -.22482637E+03 E0= -.22482637E+03  EK= 0.91129E+01 SP= -.13E+02 SK= 0.28E-01
   1257 T=   540. E= -.22864743E+03 F= -.22467104E+03 E0= -.22467104E+03  EK= 0.88604E+01 SP= -.13E+02 SK= 0.19E-01
   1258 T=   527. E= -.22864679E+03 F= -.22453442E+03 E0= -.22453442E+03  EK= 0.86505E+01 SP= -.13E+02 SK= 0.10E-01
   1259 T=   518. E= -.22864627E+03 F= -.22442871E+03 E0= -.22442871E+03  EK= 0.84981E+01 SP= -.13E+02 SK= 0.30E-02
   1260 T=   513. E= -.22864591E+03 F= -.22436420E+03 E0= -.22436420E+03  EK= 0.84157E+01 SP= -.13E+02 SK= 0.35E-04
   1261 T=   512. E= -.22864575E+03 F= -.22434804E+03 E0= -.22434804E+03  EK= 0.84113E+01 SP= -.13E+02 SK= 0.20E-02
   1262 T=   517. E= -.22864581E+03 F= -.22438330E+03 E0= -.22438330E+03  EK= 0.84881E+01 SP= -.13E+02 SK= 0.89E-02
   1263 T=   527. E= -.22864607E+03 F= -.22446853E+03 E0= -.22446853E+03  EK= 0.86441E+01 SP= -.13E+02 SK= 0.20E-01
   1264 T=   540. E= -.22864656E+03 F= -.22459816E+03 E0= -.22459816E+03  EK= 0.88718E+01 SP= -.13E+02 SK= 0.32E-01
   1265 T=   558. E= -.22864727E+03 F= -.22476285E+03 E0= -.22476285E+03  EK= 0.91589E+01 SP= -.13E+02 SK= 0.43E-01
   1266 T=   578. E= -.22864814E+03 F= -.22495053E+03 E0= -.22495053E+03  EK= 0.94888E+01 SP= -.13E+02 SK= 0.51E-01
   1267 T=   599. E= -.22864917E+03 F= -.22514755E+03 E0= -.22514755E+03  EK= 0.98414E+01 SP= -.13E+02 SK= 0.54E-01
   1268 T=   621. E= -.22865024E+03 F= -.22533973E+03 E0= -.22533973E+03  EK= 0.10195E+02 SP= -.14E+02 SK= 0.51E-01
   1269 T=   641. E= -.22865128E+03 F= -.22551388E+03 E0= -.22551388E+03  EK= 0.10526E+02 SP= -.14E+02 SK= 0.42E-01
   1270 T=   659. E= -.22865214E+03 F= -.22565900E+03 E0= -.22565900E+03  EK= 0.10815E+02 SP= -.14E+02 SK= 0.31E-01
   1271 T=   673. E= -.22865277E+03 F= -.22576741E+03 E0= -.22576741E+03  EK= 0.11043E+02 SP= -.14E+02 SK= 0.19E-01
   1272 T=   682. E= -.22865310E+03 F= -.22583492E+03 E0= -.22583492E+03  EK= 0.11200E+02 SP= -.14E+02 SK= 0.81E-02
   1273 T=   687. E= -.22865308E+03 F= -.22586111E+03 E0= -.22586111E+03  EK= 0.11277E+02 SP= -.14E+02 SK= 0.15E-02
   1274 T=   687. E= -.22865277E+03 F= -.22584912E+03 E0= -.22584912E+03  EK= 0.11276E+02 SP= -.14E+02 SK= 0.16E-03
   1275 T=   682. E= -.22865217E+03 F= -.22580488E+03 E0= -.22580488E+03  EK= 0.11202E+02 SP= -.14E+02 SK= 0.40E-02
   1276 T=   674. E= -.22865140E+03 F= -.22573661E+03 E0= -.22573661E+03  EK= 0.11067E+02 SP= -.14E+02 SK= 0.12E-01
   1277 T=   663. E= -.22865052E+03 F= -.22565381E+03 E0= -.22565381E+03  EK= 0.10883E+02 SP= -.14E+02 SK= 0.23E-01
   1278 T=   650. E= -.22864969E+03 F= -.22556637E+03 E0= -.22556637E+03  EK= 0.10669E+02 SP= -.14E+02 SK= 0.34E-01
   1279 T=   636. E= -.22864895E+03 F= -.22548361E+03 E0= -.22548361E+03  EK= 0.10439E+02 SP= -.14E+02 SK= 0.44E-01
   1280 T=   622. E= -.22864837E+03 F= -.22541355E+03 E0= -.22541355E+03  EK= 0.10209E+02 SP= -.13E+02 SK= 0.52E-01
   1281 T=   609. E= -.22864793E+03 F= -.22536234E+03 E0= -.22536234E+03  EK= 0.99919E+01 SP= -.13E+02 SK= 0.56E-01
   1282 T=   597. E= -.22864767E+03 F= -.22533433E+03 E0= -.22533433E+03  EK= 0.97971E+01 SP= -.13E+02 SK= 0.57E-01
   1283 T=   587. E= -.22864757E+03 F= -.22533174E+03 E0= -.22533174E+03  EK= 0.96312E+01 SP= -.13E+02 SK= 0.55E-01
   1284 T=   579. E= -.22864759E+03 F= -.22535485E+03 E0= -.22535485E+03  EK= 0.94983E+01 SP= -.13E+02 SK= 0.51E-01
   1285 T=   573. E= -.22864769E+03 F= -.22540235E+03 E0= -.22540235E+03  EK= 0.93993E+01 SP= -.13E+02 SK= 0.45E-01
   1286 T=   569. E= -.22864784E+03 F= -.22547177E+03 E0= -.22547177E+03  EK= 0.93335E+01 SP= -.13E+02 SK= 0.38E-01
   1287 T=   566. E= -.22864800E+03 F= -.22555994E+03 E0= -.22555994E+03  EK= 0.92988E+01 SP= -.12E+02 SK= 0.31E-01
   1288 T=   566. E= -.22864816E+03 F= -.22566332E+03 E0= -.22566332E+03  EK= 0.92919E+01 SP= -.12E+02 SK= 0.25E-01
   1289 T=   567. E= -.22864831E+03 F= -.22577829E+03 E0= -.22577829E+03  EK= 0.93090E+01 SP= -.12E+02 SK= 0.19E-01
   1290 T=   569. E= -.22864843E+03 F= -.22590136E+03 E0= -.22590136E+03  EK= 0.93462E+01 SP= -.12E+02 SK= 0.15E-01
   1291 T=   573. E= -.22864855E+03 F= -.22602931E+03 E0= -.22602931E+03  EK= 0.93992E+01 SP= -.12E+02 SK= 0.11E-01
   1292 T=   576. E= -.22864864E+03 F= -.22615911E+03 E0= -.22615911E+03  EK= 0.94639E+01 SP= -.12E+02 SK= 0.81E-02
   1293 T=   581. E= -.22864867E+03 F= -.22628826E+03 E0= -.22628826E+03  EK= 0.95361E+01 SP= -.12E+02 SK= 0.62E-02
   1294 T=   586. E= -.22864866E+03 F= -.22641513E+03 E0= -.22641513E+03  EK= 0.96128E+01 SP= -.12E+02 SK= 0.48E-02
   1295 T=   590. E= -.22864856E+03 F= -.22653899E+03 E0= -.22653899E+03  EK= 0.96914E+01 SP= -.12E+02 SK= 0.40E-02
   1296 T=   595. E= -.22864846E+03 F= -.22666007E+03 E0= -.22666007E+03  EK= 0.97703E+01 SP= -.12E+02 SK= 0.35E-02
   1297 T=   600. E= -.22864839E+03 F= -.22677891E+03 E0= -.22677891E+03  EK= 0.98480E+01 SP= -.12E+02 SK= 0.35E-02
   1298 T=   604. E= -.22864841E+03 F= -.22689551E+03 E0= -.22689551E+03  EK= 0.99226E+01 SP= -.12E+02 SK= 0.37E-02
   1299 T=   609. E= -.22864856E+03 F= -.22700848E+03 E0= -.22700848E+03  EK= 0.99909E+01 SP= -.12E+02 SK= 0.43E-02
   1300 T=   612. E= -.22864882E+03 F= -.22711451E+03 E0= -.22711451E+03  EK= 0.10048E+02 SP= -.12E+02 SK= 0.52E-02
   1301 T=   614. E= -.22864914E+03 F= -.22720848E+03 E0= -.22720848E+03  EK= 0.10087E+02 SP= -.12E+02 SK= 0.65E-02
   1302 T=   615. E= -.22864947E+03 F= -.22728402E+03 E0= -.22728402E+03  EK= 0.10101E+02 SP= -.11E+02 SK= 0.81E-02
   1303 T=   614. E= -.22864969E+03 F= -.22733459E+03 E0= -.22733459E+03  EK= 0.10083E+02 SP= -.11E+02 SK= 0.99E-02
   1304 T=   611. E= -.22864978E+03 F= -.22735461E+03 E0= -.22735461E+03  EK= 0.10029E+02 SP= -.11E+02 SK= 0.12E-01
   1305 T=   605. E= -.22864971E+03 F= -.22734042E+03 E0= -.22734042E+03  EK= 0.99368E+01 SP= -.11E+02 SK= 0.13E-01
   1306 T=   597. E= -.22864945E+03 F= -.22729081E+03 E0= -.22729081E+03  EK= 0.98074E+01 SP= -.11E+02 SK= 0.13E-01
   1307 T=   588. E= -.22864904E+03 F= -.22720740E+03 E0= -.22720740E+03  EK= 0.96461E+01 SP= -.11E+02 SK= 0.12E-01
   1308 T=   576. E= -.22864849E+03 F= -.22709466E+03 E0= -.22709466E+03  EK= 0.94616E+01 SP= -.11E+02 SK= 0.10E-01
   1309 T=   564. E= -.22864788E+03 F= -.22695964E+03 E0= -.22695964E+03  EK= 0.92650E+01 SP= -.11E+02 SK= 0.73E-02
   1310 T=   552. E= -.22864726E+03 F= -.22681105E+03 E0= -.22681105E+03  EK= 0.90693E+01 SP= -.11E+02 SK= 0.38E-02
   1311 T=   541. E= -.22864669E+03 F= -.22665836E+03 E0= -.22665836E+03  EK= 0.88876E+01 SP= -.11E+02 SK= 0.98E-03
   1312 T=   532. E= -.22864619E+03 F= -.22651103E+03 E0= -.22651103E+03  EK= 0.87326E+01 SP= -.11E+02 SK= 0.27E-04
   1313 T=   525. E= -.22864577E+03 F= -.22637766E+03 E0= -.22637766E+03  EK= 0.86156E+01 SP= -.11E+02 SK= 0.22E-02
   1314 T=   521. E= -.22864546E+03 F= -.22626540E+03 E0= -.22626540E+03  EK= 0.85455E+01 SP= -.11E+02 SK= 0.83E-02
   1315 T=   520. E= -.22864525E+03 F= -.22617941E+03 E0= -.22617941E+03  EK= 0.85289E+01 SP= -.11E+02 SK= 0.19E-01
   1316 T=   522. E= -.22864515E+03 F= -.22612268E+03 E0= -.22612268E+03  EK= 0.85694E+01 SP= -.11E+02 SK= 0.34E-01
   1317 T=   528. E= -.22864513E+03 F= -.22609603E+03 E0= -.22609603E+03  EK= 0.86680E+01 SP= -.11E+02 SK= 0.51E-01
   1318 T=   537. E= -.22864518E+03 F= -.22609839E+03 E0= -.22609839E+03  EK= 0.88229E+01 SP= -.11E+02 SK= 0.71E-01
   1319 T=   550. E= -.22864533E+03 F= -.22612725E+03 E0= -.22612725E+03  EK= 0.90299E+01 SP= -.12E+02 SK= 0.89E-01
   1320 T=   565. E= -.22864561E+03 F= -.22617860E+03 E0= -.22617860E+03  EK= 0.92823E+01 SP= -.12E+02 SK= 0.10E+00
   1321 T=   583. E= -.22864604E+03 F= -.22624703E+03 E0= -.22624703E+03  EK= 0.95706E+01 SP= -.12E+02 SK= 0.11E+00
   1322 T=   602. E= -.22864665E+03 F= -.22632583E+03 E0= -.22632583E+03  EK= 0.98826E+01 SP= -.12E+02 SK= 0.12E+00
   1323 T=   622. E= -.22864742E+03 F= -.22640728E+03 E0= -.22640728E+03  EK= 0.10203E+02 SP= -.13E+02 SK= 0.11E+00
   1324 T=   641. E= -.22864827E+03 F= -.22648304E+03 E0= -.22648304E+03  EK= 0.10516E+02 SP= -.13E+02 SK= 0.99E-01
   1325 T=   658. E= -.22864914E+03 F= -.22654511E+03 E0= -.22654511E+03  EK= 0.10804E+02 SP= -.13E+02 SK= 0.81E-01
   1326 T=   673. E= -.22864993E+03 F= -.22658647E+03 E0= -.22658647E+03  EK= 0.11051E+02 SP= -.13E+02 SK= 0.60E-01
   1327 T=   685. E= -.22865055E+03 F= -.22660182E+03 E0= -.22660182E+03  EK= 0.11242E+02 SP= -.13E+02 SK= 0.40E-01
   1328 T=   692. E= -.22865094E+03 F= -.22658809E+03 E0= -.22658809E+03  EK= 0.11366E+02 SP= -.13E+02 SK= 0.21E-01
   1329 T=   696. E= -.22865109E+03 F= -.22654449E+03 E0= -.22654449E+03  EK= 0.11418E+02 SP= -.14E+02 SK= 0.82E-02
   1330 T=   694. E= -.22865101E+03 F= -.22647205E+03 E0= -.22647205E+03  EK= 0.11396E+02 SP= -.14E+02 SK= 0.12E-02
   1331 T=   689. E= -.22865069E+03 F= -.22637344E+03 E0= -.22637344E+03  EK= 0.11303E+02 SP= -.14E+02 SK= 0.41E-03
   1332 T=   679. E= -.22865021E+03 F= -.22625283E+03 E0= -.22625283E+03  EK= 0.11147E+02 SP= -.14E+02 SK= 0.49E-02
   1333 T=   666. E= -.22864961E+03 F= -.22611535E+03 E0= -.22611535E+03  EK= 0.10938E+02 SP= -.13E+02 SK= 0.13E-01
   1334 T=   651. E= -.22864894E+03 F= -.22596715E+03 E0= -.22596715E+03  EK= 0.10691E+02 SP= -.13E+02 SK= 0.22E-01
   1335 T=   635. E= -.22864824E+03 F= -.22581536E+03 E0= -.22581536E+03  EK= 0.10419E+02 SP= -.13E+02 SK= 0.30E-01
   1336 T=   618. E= -.22864757E+03 F= -.22566789E+03 E0= -.22566789E+03  EK= 0.10139E+02 SP= -.13E+02 SK= 0.36E-01
   1337 T=   601. E= -.22864698E+03 F= -.22553309E+03 E0= -.22553309E+03  EK= 0.98681E+01 SP= -.13E+02 SK= 0.38E-01
   1338 T=   586. E= -.22864646E+03 F= -.22541935E+03 E0= -.22541935E+03  EK= 0.96206E+01 SP= -.13E+02 SK= 0.37E-01
   1339 T=   573. E= -.22864608E+03 F= -.22533455E+03 E0= -.22533455E+03  EK= 0.94101E+01 SP= -.13E+02 SK= 0.33E-01
   1340 T=   563. E= -.22864584E+03 F= -.22528516E+03 E0= -.22528516E+03  EK= 0.92472E+01 SP= -.13E+02 SK= 0.27E-01
   1341 T=   557. E= -.22864584E+03 F= -.22527547E+03 E0= -.22527547E+03  EK= 0.91387E+01 SP= -.13E+02 SK= 0.20E-01
   1342 T=   554. E= -.22864605E+03 F= -.22530649E+03 E0= -.22530649E+03  EK= 0.90874E+01 SP= -.12E+02 SK= 0.13E-01
   1343 T=   554. E= -.22864646E+03 F= -.22537562E+03 E0= -.22537562E+03  EK= 0.90911E+01 SP= -.12E+02 SK= 0.77E-02
   1344 T=   557. E= -.22864708E+03 F= -.22547647E+03 E0= -.22547647E+03  EK= 0.91430E+01 SP= -.12E+02 SK= 0.39E-02
   1345 T=   562. E= -.22864783E+03 F= -.22559934E+03 E0= -.22559934E+03  EK= 0.92322E+01 SP= -.12E+02 SK= 0.15E-02
   1346 T=   569. E= -.22864862E+03 F= -.22573232E+03 E0= -.22573232E+03  EK= 0.93450E+01 SP= -.12E+02 SK= 0.39E-03
   1347 T=   577. E= -.22864939E+03 F= -.22586252E+03 E0= -.22586252E+03  EK= 0.94663E+01 SP= -.12E+02 SK= 0.22E-04
   1348 T=   584. E= -.22865008E+03 F= -.22597748E+03 E0= -.22597748E+03  EK= 0.95810E+01 SP= -.12E+02 SK= 0.37E-04
   1349 T=   589. E= -.22865066E+03 F= -.22606623E+03 E0= -.22606623E+03  EK= 0.96758E+01 SP= -.12E+02 SK= 0.17E-03
   1350 T=   593. E= -.22865101E+03 F= -.22612002E+03 E0= -.22612002E+03  EK= 0.97396E+01 SP= -.12E+02 SK= 0.30E-03
   1351 T=   595. E= -.22865118E+03 F= -.22613325E+03 E0= -.22613325E+03  EK= 0.97655E+01 SP= -.12E+02 SK= 0.39E-03
   1352 T=   594. E= -.22865109E+03 F= -.22610375E+03 E0= -.22610375E+03  EK= 0.97505E+01 SP= -.12E+02 SK= 0.48E-03
   1353 T=   591. E= -.22865079E+03 F= -.22603311E+03 E0= -.22603311E+03  EK= 0.96966E+01 SP= -.12E+02 SK= 0.65E-03
   1354 T=   585. E= -.22865028E+03 F= -.22592644E+03 E0= -.22592644E+03  EK= 0.96100E+01 SP= -.12E+02 SK= 0.10E-02
   1355 T=   579. E= -.22864961E+03 F= -.22579221E+03 E0= -.22579221E+03  EK= 0.95012E+01 SP= -.12E+02 SK= 0.17E-02
   1356 T=   572. E= -.22864882E+03 F= -.22564147E+03 E0= -.22564147E+03  EK= 0.93835E+01 SP= -.12E+02 SK= 0.30E-02
   1357 T=   565. E= -.22864801E+03 F= -.22548708E+03 E0= -.22548708E+03  EK= 0.92722E+01 SP= -.12E+02 SK= 0.53E-02
   1358 T=   559. E= -.22864727E+03 F= -.22534218E+03 E0= -.22534218E+03  EK= 0.91828E+01 SP= -.12E+02 SK= 0.89E-02
   1359 T=   556. E= -.22864662E+03 F= -.22521903E+03 E0= -.22521903E+03  EK= 0.91295E+01 SP= -.13E+02 SK= 0.14E-01
   1360 T=   556. E= -.22864620E+03 F= -.22512775E+03 E0= -.22512775E+03  EK= 0.91236E+01 SP= -.13E+02 SK= 0.21E-01
   1361 T=   559. E= -.22864607E+03 F= -.22507462E+03 E0= -.22507462E+03  EK= 0.91719E+01 SP= -.13E+02 SK= 0.28E-01
   1362 T=   565. E= -.22864619E+03 F= -.22506135E+03 E0= -.22506135E+03  EK= 0.92758E+01 SP= -.13E+02 SK= 0.36E-01
   1363 T=   575. E= -.22864658E+03 F= -.22508530E+03 E0= -.22508530E+03  EK= 0.94313E+01 SP= -.13E+02 SK= 0.43E-01
   1364 T=   587. E= -.22864718E+03 F= -.22513997E+03 E0= -.22513997E+03  EK= 0.96294E+01 SP= -.13E+02 SK= 0.48E-01
   1365 T=   600. E= -.22864797E+03 F= -.22521590E+03 E0= -.22521590E+03  EK= 0.98566E+01 SP= -.13E+02 SK= 0.49E-01
   1366 T=   615. E= -.22864887E+03 F= -.22530160E+03 E0= -.22530160E+03  EK= 0.10097E+02 SP= -.13E+02 SK= 0.47E-01
   1367 T=   629. E= -.22864980E+03 F= -.22538468E+03 E0= -.22538468E+03  EK= 0.10331E+02 SP= -.14E+02 SK= 0.41E-01
   1368 T=   642. E= -.22865063E+03 F= -.22545336E+03 E0= -.22545336E+03  EK= 0.10541E+02 SP= -.14E+02 SK= 0.33E-01
   1369 T=   652. E= -.22865122E+03 F= -.22549796E+03 E0= -.22549796E+03  EK= 0.10711E+02 SP= -.14E+02 SK= 0.23E-01
   1370 T=   660. E= -.22865151E+03 F= -.22551238E+03 E0= -.22551238E+03  EK= 0.10829E+02 SP= -.14E+02 SK= 0.14E-01
   1371 T=   663. E= -.22865149E+03 F= -.22549445E+03 E0= -.22549445E+03  EK= 0.10889E+02 SP= -.14E+02 SK= 0.68E-02
   1372 T=   663. E= -.22865121E+03 F= -.22544571E+03 E0= -.22544571E+03  EK= 0.10890E+02 SP= -.14E+02 SK= 0.20E-02
   1373 T=   660. E= -.22865066E+03 F= -.22537098E+03 E0= -.22537098E+03  EK= 0.10835E+02 SP= -.14E+02 SK= 0.57E-04
   1374 T=   654. E= -.22864993E+03 F= -.22527783E+03 E0= -.22527783E+03  EK= 0.10736E+02 SP= -.14E+02 SK= 0.70E-03
   1375 T=   646. E= -.22864911E+03 F= -.22517564E+03 E0= -.22517564E+03  EK= 0.10603E+02 SP= -.14E+02 SK= 0.32E-02
   1376 T=   637. E= -.22864827E+03 F= -.22507480E+03 E0= -.22507480E+03  EK= 0.10452E+02 SP= -.14E+02 SK= 0.66E-02
   1377 T=   627. E= -.22864752E+03 F= -.22498566E+03 E0= -.22498566E+03  EK= 0.10296E+02 SP= -.14E+02 SK= 0.10E-01
   1378 T=   618. E= -.22864699E+03 F= -.22491729E+03 E0= -.22491729E+03  EK= 0.10151E+02 SP= -.14E+02 SK= 0.13E-01
   1379 T=   611. E= -.22864669E+03 F= -.22487614E+03 E0= -.22487614E+03  EK= 0.10025E+02 SP= -.14E+02 SK= 0.15E-01
   1380 T=   605. E= -.22864667E+03 F= -.22486536E+03 E0= -.22486536E+03  EK= 0.99260E+01 SP= -.14E+02 SK= 0.16E-01
   1381 T=   600. E= -.22864692E+03 F= -.22488425E+03 E0= -.22488425E+03  EK= 0.98544E+01 SP= -.14E+02 SK= 0.17E-01
   1382 T=   597. E= -.22864738E+03 F= -.22492829E+03 E0= -.22492829E+03  EK= 0.98076E+01 SP= -.14E+02 SK= 0.17E-01
   1383 T=   596. E= -.22864798E+03 F= -.22498984E+03 E0= -.22498984E+03  EK= 0.97792E+01 SP= -.13E+02 SK= 0.16E-01
   1384 T=   595. E= -.22864866E+03 F= -.22505905E+03 E0= -.22505905E+03  EK= 0.97599E+01 SP= -.13E+02 SK= 0.16E-01
   1385 T=   593. E= -.22864931E+03 F= -.22512489E+03 E0= -.22512489E+03  EK= 0.97392E+01 SP= -.13E+02 SK= 0.15E-01
   1386 T=   591. E= -.22864984E+03 F= -.22517683E+03 E0= -.22517683E+03  EK= 0.97072E+01 SP= -.13E+02 SK= 0.14E-01
   1387 T=   588. E= -.22865019E+03 F= -.22520605E+03 E0= -.22520605E+03  EK= 0.96561E+01 SP= -.13E+02 SK= 0.13E-01
   1388 T=   584. E= -.22865031E+03 F= -.22520668E+03 E0= -.22520668E+03  EK= 0.95815E+01 SP= -.13E+02 SK= 0.11E-01
   1389 T=   578. E= -.22865015E+03 F= -.22517671E+03 E0= -.22517671E+03  EK= 0.94832E+01 SP= -.13E+02 SK= 0.92E-02
   1390 T=   571. E= -.22864979E+03 F= -.22511845E+03 E0= -.22511845E+03  EK= 0.93660E+01 SP= -.13E+02 SK= 0.67E-02
   1391 T=   563. E= -.22864923E+03 F= -.22503809E+03 E0= -.22503809E+03  EK= 0.92385E+01 SP= -.13E+02 SK= 0.40E-02
   1392 T=   555. E= -.22864858E+03 F= -.22494509E+03 E0= -.22494509E+03  EK= 0.91128E+01 SP= -.13E+02 SK= 0.16E-02
   1393 T=   548. E= -.22864795E+03 F= -.22485060E+03 E0= -.22485060E+03  EK= 0.90025E+01 SP= -.13E+02 SK= 0.14E-03
   1394 T=   543. E= -.22864740E+03 F= -.22476592E+03 E0= -.22476592E+03  EK= 0.89206E+01 SP= -.13E+02 SK= 0.37E-03
   1395 T=   541. E= -.22864703E+03 F= -.22470091E+03 E0= -.22470091E+03  EK= 0.88785E+01 SP= -.13E+02 SK= 0.27E-02
   1396 T=   541. E= -.22864688E+03 F= -.22466259E+03 E0= -.22466259E+03  EK= 0.88840E+01 SP= -.13E+02 SK= 0.75E-02
   1397 T=   545. E= -.22864698E+03 F= -.22465407E+03 E0= -.22465407E+03  EK= 0.89404E+01 SP= -.13E+02 SK= 0.14E-01
   1398 T=   551. E= -.22864726E+03 F= -.22467451E+03 E0= -.22467451E+03  EK= 0.90461E+01 SP= -.13E+02 SK= 0.22E-01
   1399 T=   560. E= -.22864770E+03 F= -.22471976E+03 E0= -.22471976E+03  EK= 0.91957E+01 SP= -.13E+02 SK= 0.31E-01
   1400 T=   571. E= -.22864823E+03 F= -.22478323E+03 E0= -.22478323E+03  EK= 0.93801E+01 SP= -.13E+02 SK= 0.38E-01
   1401 T=   584. E= -.22864882E+03 F= -.22485714E+03 E0= -.22485714E+03  EK= 0.95882E+01 SP= -.13E+02 SK= 0.43E-01
   1402 T=   597. E= -.22864938E+03 F= -.22493370E+03 E0= -.22493370E+03  EK= 0.98079E+01 SP= -.14E+02 SK= 0.45E-01
   1403 T=   611. E= -.22864986E+03 F= -.22500609E+03 E0= -.22500609E+03  EK= 0.10027E+02 SP= -.14E+02 SK= 0.43E-01
   1404 T=   624. E= -.22865029E+03 F= -.22506923E+03 E0= -.22506923E+03  EK= 0.10236E+02 SP= -.14E+02 SK= 0.39E-01
   1405 T=   635. E= -.22865066E+03 F= -.22511963E+03 E0= -.22511963E+03  EK= 0.10424E+02 SP= -.14E+02 SK= 0.32E-01
   1406 T=   645. E= -.22865097E+03 F= -.22515512E+03 E0= -.22515512E+03  EK= 0.10584E+02 SP= -.14E+02 SK= 0.24E-01
   1407 T=   652. E= -.22865116E+03 F= -.22517481E+03 E0= -.22517481E+03  EK= 0.10710E+02 SP= -.14E+02 SK= 0.16E-01
   1408 T=   658. E= -.22865123E+03 F= -.22517919E+03 E0= -.22517919E+03  EK= 0.10798E+02 SP= -.14E+02 SK= 0.87E-02
   1409 T=   661. E= -.22865115E+03 F= -.22517007E+03 E0= -.22517007E+03  EK= 0.10847E+02 SP= -.14E+02 SK= 0.33E-02
   1410 T=   661. E= -.22865094E+03 F= -.22515052E+03 E0= -.22515052E+03  EK= 0.10858E+02 SP= -.14E+02 SK= 0.45E-03
   1411 T=   660. E= -.22865066E+03 F= -.22512464E+03 E0= -.22512464E+03  EK= 0.10834E+02 SP= -.14E+02 SK= 0.23E-03
   1412 T=   657. E= -.22865034E+03 F= -.22509681E+03 E0= -.22509681E+03  EK= 0.10782E+02 SP= -.14E+02 SK= 0.25E-02
   1413 T=   652. E= -.22865001E+03 F= -.22507128E+03 E0= -.22507128E+03  EK= 0.10706E+02 SP= -.14E+02 SK= 0.68E-02
   1414 T=   647. E= -.22864967E+03 F= -.22505196E+03 E0= -.22505196E+03  EK= 0.10613E+02 SP= -.14E+02 SK= 0.13E-01
   1415 T=   640. E= -.22864938E+03 F= -.22504231E+03 E0= -.22504231E+03  EK= 0.10510E+02 SP= -.14E+02 SK= 0.19E-01
   1416 T=   634. E= -.22864916E+03 F= -.22504465E+03 E0= -.22504465E+03  EK= 0.10402E+02 SP= -.14E+02 SK= 0.26E-01
   1417 T=   627. E= -.22864903E+03 F= -.22506000E+03 E0= -.22506000E+03  EK= 0.10293E+02 SP= -.14E+02 SK= 0.32E-01
   1418 T=   620. E= -.22864896E+03 F= -.22508794E+03 E0= -.22508794E+03  EK= 0.10186E+02 SP= -.14E+02 SK= 0.37E-01
   1419 T=   614. E= -.22864899E+03 F= -.22512671E+03 E0= -.22512671E+03  EK= 0.10082E+02 SP= -.14E+02 SK= 0.42E-01
   1420 T=   608. E= -.22864905E+03 F= -.22517334E+03 E0= -.22517334E+03  EK= 0.99810E+01 SP= -.14E+02 SK= 0.45E-01
   1421 T=   602. E= -.22864913E+03 F= -.22522422E+03 E0= -.22522422E+03  EK= 0.98818E+01 SP= -.13E+02 SK= 0.46E-01
   1422 T=   596. E= -.22864926E+03 F= -.22527528E+03 E0= -.22527528E+03  EK= 0.97830E+01 SP= -.13E+02 SK= 0.46E-01
   1423 T=   590. E= -.22864932E+03 F= -.22532240E+03 E0= -.22532240E+03  EK= 0.96829E+01 SP= -.13E+02 SK= 0.45E-01
   1424 T=   584. E= -.22864933E+03 F= -.22536229E+03 E0= -.22536229E+03  EK= 0.95808E+01 SP= -.13E+02 SK= 0.42E-01
   1425 T=   577. E= -.22864923E+03 F= -.22539298E+03 E0= -.22539298E+03  EK= 0.94771E+01 SP= -.13E+02 SK= 0.38E-01
   1426 T=   571. E= -.22864903E+03 F= -.22541428E+03 E0= -.22541428E+03  EK= 0.93740E+01 SP= -.13E+02 SK= 0.32E-01
   1427 T=   565. E= -.22864873E+03 F= -.22542789E+03 E0= -.22542789E+03  EK= 0.92753E+01 SP= -.13E+02 SK= 0.26E-01
   1428 T=   560. E= -.22864838E+03 F= -.22543712E+03 E0= -.22543712E+03  EK= 0.91863E+01 SP= -.12E+02 SK= 0.20E-01
   1429 T=   555. E= -.22864806E+03 F= -.22544640E+03 E0= -.22544640E+03  EK= 0.91130E+01 SP= -.12E+02 SK= 0.13E-01
   1430 T=   552. E= -.22864783E+03 F= -.22546005E+03 E0= -.22546005E+03  EK= 0.90610E+01 SP= -.12E+02 SK= 0.79E-02
   1431 T=   550. E= -.22864771E+03 F= -.22548124E+03 E0= -.22548124E+03  EK= 0.90341E+01 SP= -.12E+02 SK= 0.37E-02
   1432 T=   550. E= -.22864770E+03 F= -.22551147E+03 E0= -.22551147E+03  EK= 0.90343E+01 SP= -.12E+02 SK= 0.11E-02
   1433 T=   552. E= -.22864781E+03 F= -.22555047E+03 E0= -.22555047E+03  EK= 0.90612E+01 SP= -.12E+02 SK= 0.22E-04
   1434 T=   555. E= -.22864799E+03 F= -.22559632E+03 E0= -.22559632E+03  EK= 0.91124E+01 SP= -.12E+02 SK= 0.48E-03
   1435 T=   559. E= -.22864822E+03 F= -.22564589E+03 E0= -.22564589E+03  EK= 0.91838E+01 SP= -.12E+02 SK= 0.21E-02
   1436 T=   565. E= -.22864846E+03 F= -.22569535E+03 E0= -.22569535E+03  EK= 0.92702E+01 SP= -.12E+02 SK= 0.46E-02
   1437 T=   571. E= -.22864869E+03 F= -.22574082E+03 E0= -.22574082E+03  EK= 0.93662E+01 SP= -.12E+02 SK= 0.74E-02
   1438 T=   577. E= -.22864889E+03 F= -.22577885E+03 E0= -.22577885E+03  EK= 0.94663E+01 SP= -.12E+02 SK= 0.10E-01
   1439 T=   583. E= -.22864903E+03 F= -.22580673E+03 E0= -.22580673E+03  EK= 0.95657E+01 SP= -.12E+02 SK= 0.12E-01
   1440 T=   588. E= -.22864911E+03 F= -.22582297E+03 E0= -.22582297E+03  EK= 0.96607E+01 SP= -.13E+02 SK= 0.14E-01
   1441 T=   594. E= -.22864909E+03 F= -.22582745E+03 E0= -.22582745E+03  EK= 0.97490E+01 SP= -.13E+02 SK= 0.15E-01
   1442 T=   599. E= -.22864900E+03 F= -.22582155E+03 E0= -.22582155E+03  EK= 0.98297E+01 SP= -.13E+02 SK= 0.16E-01
   1443 T=   603. E= -.22864879E+03 F= -.22580808E+03 E0= -.22580808E+03  EK= 0.99037E+01 SP= -.13E+02 SK= 0.15E-01
   1444 T=   608. E= -.22864854E+03 F= -.22579135E+03 E0= -.22579135E+03  EK= 0.99733E+01 SP= -.13E+02 SK= 0.14E-01
   1445 T=   612. E= -.22864824E+03 F= -.22577661E+03 E0= -.22577661E+03  EK= 0.10042E+02 SP= -.13E+02 SK= 0.13E-01
   1446 T=   616. E= -.22864798E+03 F= -.22576964E+03 E0= -.22576964E+03  EK= 0.10114E+02 SP= -.13E+02 SK= 0.11E-01
   1447 T=   621. E= -.22864778E+03 F= -.22577568E+03 E0= -.22577568E+03  EK= 0.10192E+02 SP= -.13E+02 SK= 0.88E-02
   1448 T=   626. E= -.22864772E+03 F= -.22579878E+03 E0= -.22579878E+03  EK= 0.10278E+02 SP= -.13E+02 SK= 0.63E-02
   1449 T=   632. E= -.22864780E+03 F= -.22584104E+03 E0= -.22584104E+03  EK= 0.10372E+02 SP= -.13E+02 SK= 0.39E-02
   1450 T=   638. E= -.22864806E+03 F= -.22590228E+03 E0= -.22590228E+03  EK= 0.10471E+02 SP= -.13E+02 SK= 0.17E-02
   1451 T=   644. E= -.22864846E+03 F= -.22597946E+03 E0= -.22597946E+03  EK= 0.10570E+02 SP= -.13E+02 SK= 0.28E-03
   1452 T=   649. E= -.22864897E+03 F= -.22606711E+03 E0= -.22606711E+03  EK= 0.10659E+02 SP= -.13E+02 SK= 0.12E-03
   1453 T=   654. E= -.22864951E+03 F= -.22615793E+03 E0= -.22615793E+03  EK= 0.10729E+02 SP= -.13E+02 SK= 0.17E-02
   1454 T=   656. E= -.22864992E+03 F= -.22624396E+03 E0= -.22624396E+03  EK= 0.10770E+02 SP= -.13E+02 SK= 0.56E-02
   1455 T=   656. E= -.22865016E+03 F= -.22631808E+03 E0= -.22631808E+03  EK= 0.10774E+02 SP= -.13E+02 SK= 0.12E-01
   1456 T=   654. E= -.22865019E+03 F= -.22637501E+03 E0= -.22637501E+03  EK= 0.10736E+02 SP= -.13E+02 SK= 0.20E-01
   1457 T=   649. E= -.22865000E+03 F= -.22641187E+03 E0= -.22641187E+03  EK= 0.10654E+02 SP= -.13E+02 SK= 0.30E-01
   1458 T=   642. E= -.22864959E+03 F= -.22642843E+03 E0= -.22642843E+03  EK= 0.10531E+02 SP= -.13E+02 SK= 0.40E-01
   1459 T=   632. E= -.22864906E+03 F= -.22642705E+03 E0= -.22642705E+03  EK= 0.10374E+02 SP= -.13E+02 SK= 0.49E-01
   1460 T=   621. E= -.22864847E+03 F= -.22641211E+03 E0= -.22641211E+03  EK= 0.10192E+02 SP= -.12E+02 SK= 0.57E-01
   1461 T=   609. E= -.22864788E+03 F= -.22638931E+03 E0= -.22638931E+03  EK= 0.99967E+01 SP= -.12E+02 SK= 0.61E-01
   1462 T=   597. E= -.22864737E+03 F= -.22636470E+03 E0= -.22636470E+03  EK= 0.97982E+01 SP= -.12E+02 SK= 0.62E-01
   1463 T=   585. E= -.22864703E+03 F= -.22634371E+03 E0= -.22634371E+03  EK= 0.96076E+01 SP= -.12E+02 SK= 0.60E-01
   1464 T=   575. E= -.22864687E+03 F= -.22632999E+03 E0= -.22632999E+03  EK= 0.94325E+01 SP= -.12E+02 SK= 0.55E-01
   1465 T=   565. E= -.22864694E+03 F= -.22632471E+03 E0= -.22632471E+03  EK= 0.92779E+01 SP= -.12E+02 SK= 0.47E-01
   1466 T=   557. E= -.22864716E+03 F= -.22632627E+03 E0= -.22632627E+03  EK= 0.91451E+01 SP= -.12E+02 SK= 0.38E-01
   1467 T=   550. E= -.22864751E+03 F= -.22633072E+03 E0= -.22633072E+03  EK= 0.90324E+01 SP= -.11E+02 SK= 0.28E-01
   1468 T=   544. E= -.22864788E+03 F= -.22633251E+03 E0= -.22633251E+03  EK= 0.89364E+01 SP= -.11E+02 SK= 0.19E-01
   1469 T=   539. E= -.22864820E+03 F= -.22632578E+03 E0= -.22632578E+03  EK= 0.88530E+01 SP= -.11E+02 SK= 0.11E-01
   1470 T=   535. E= -.22864842E+03 F= -.22630552E+03 E0= -.22630552E+03  EK= 0.87784E+01 SP= -.11E+02 SK= 0.47E-02
   1471 T=   531. E= -.22864849E+03 F= -.22626844E+03 E0= -.22626844E+03  EK= 0.87108E+01 SP= -.11E+02 SK= 0.89E-03
   1472 T=   527. E= -.22864842E+03 F= -.22621361E+03 E0= -.22621361E+03  EK= 0.86503E+01 SP= -.11E+02 SK= 0.12E-03
   1473 T=   524. E= -.22864818E+03 F= -.22614258E+03 E0= -.22614258E+03  EK= 0.85993E+01 SP= -.11E+02 SK= 0.29E-02
   1474 T=   522. E= -.22864783E+03 F= -.22605950E+03 E0= -.22605950E+03  EK= 0.85629E+01 SP= -.11E+02 SK= 0.97E-02
   1475 T=   521. E= -.22864739E+03 F= -.22597040E+03 E0= -.22597040E+03  EK= 0.85477E+01 SP= -.11E+02 SK= 0.21E-01
   1476 T=   522. E= -.22864694E+03 F= -.22588250E+03 E0= -.22588250E+03  EK= 0.85612E+01 SP= -.11E+02 SK= 0.36E-01
   1477 T=   525. E= -.22864652E+03 F= -.22580299E+03 E0= -.22580299E+03  EK= 0.86108E+01 SP= -.12E+02 SK= 0.55E-01
   1478 T=   530. E= -.22864620E+03 F= -.22573809E+03 E0= -.22573809E+03  EK= 0.87025E+01 SP= -.12E+02 SK= 0.76E-01
   1479 T=   538. E= -.22864603E+03 F= -.22569206E+03 E0= -.22569206E+03  EK= 0.88397E+01 SP= -.12E+02 SK= 0.98E-01
   1480 T=   550. E= -.22864603E+03 F= -.22566665E+03 E0= -.22566665E+03  EK= 0.90230E+01 SP= -.12E+02 SK= 0.12E+00
   1481 T=   563. E= -.22864621E+03 F= -.22566096E+03 E0= -.22566096E+03  EK= 0.92491E+01 SP= -.12E+02 SK= 0.14E+00
   1482 T=   579. E= -.22864657E+03 F= -.22567159E+03 E0= -.22567159E+03  EK= 0.95113E+01 SP= -.13E+02 SK= 0.15E+00
   1483 T=   597. E= -.22864713E+03 F= -.22569318E+03 E0= -.22569318E+03  EK= 0.97994E+01 SP= -.13E+02 SK= 0.15E+00
   1484 T=   615. E= -.22864783E+03 F= -.22571883E+03 E0= -.22571883E+03  EK= 0.10100E+02 SP= -.13E+02 SK= 0.15E+00
   1485 T=   633. E= -.22864863E+03 F= -.22574101E+03 E0= -.22574101E+03  EK= 0.10399E+02 SP= -.13E+02 SK= 0.14E+00
   1486 T=   651. E= -.22864951E+03 F= -.22575228E+03 E0= -.22575228E+03  EK= 0.10680E+02 SP= -.14E+02 SK= 0.12E+00
   1487 T=   666. E= -.22865039E+03 F= -.22574567E+03 E0= -.22574567E+03  EK= 0.10927E+02 SP= -.14E+02 SK= 0.99E-01
   1488 T=   678. E= -.22865120E+03 F= -.22571513E+03 E0= -.22571513E+03  EK= 0.11125E+02 SP= -.14E+02 SK= 0.74E-01
   1489 T=   686. E= -.22865188E+03 F= -.22565603E+03 E0= -.22565603E+03  EK= 0.11262E+02 SP= -.14E+02 SK= 0.50E-01
   1490 T=   690. E= -.22865235E+03 F= -.22556543E+03 E0= -.22556543E+03  EK= 0.11329E+02 SP= -.14E+02 SK= 0.29E-01
   1491 T=   690. E= -.22865251E+03 F= -.22544263E+03 E0= -.22544263E+03  EK= 0.11321E+02 SP= -.15E+02 SK= 0.14E-01
   1492 T=   685. E= -.22865231E+03 F= -.22528996E+03 E0= -.22528996E+03  EK= 0.11242E+02 SP= -.15E+02 SK= 0.42E-02
   1493 T=   676. E= -.22865177E+03 F= -.22511312E+03 E0= -.22511312E+03  EK= 0.11098E+02 SP= -.15E+02 SK= 0.29E-03
   1494 T=   664. E= -.22865094E+03 F= -.22492133E+03 E0= -.22492133E+03  EK= 0.10904E+02 SP= -.15E+02 SK= 0.61E-03
   1495 T=   650. E= -.22864992E+03 F= -.22472702E+03 E0= -.22472702E+03  EK= 0.10679E+02 SP= -.15E+02 SK= 0.35E-02
   1496 T=   636. E= -.22864891E+03 F= -.22454460E+03 E0= -.22454460E+03  EK= 0.10443E+02 SP= -.15E+02 SK= 0.72E-02
   1497 T=   623. E= -.22864799E+03 F= -.22438870E+03 E0= -.22438870E+03  EK= 0.10220E+02 SP= -.14E+02 SK= 0.11E-01
   1498 T=   611. E= -.22864729E+03 F= -.22427272E+03 E0= -.22427272E+03  EK= 0.10027E+02 SP= -.14E+02 SK= 0.13E-01
   1499 T=   602. E= -.22864690E+03 F= -.22420707E+03 E0= -.22420707E+03  EK= 0.98806E+01 SP= -.14E+02 SK= 0.14E-01
   1500 T=   596. E= -.22864683E+03 F= -.22419779E+03 E0= -.22419779E+03  EK= 0.97900E+01 SP= -.14E+02 SK= 0.14E-01
   1501 T=   594. E= -.22864713E+03 F= -.22424572E+03 E0= -.22424572E+03  EK= 0.97575E+01 SP= -.14E+02 SK= 0.13E-01
   1502 T=   596. E= -.22864777E+03 F= -.22434581E+03 E0= -.22434581E+03  EK= 0.97786E+01 SP= -.14E+02 SK= 0.13E-01
   1503 T=   600. E= -.22864869E+03 F= -.22448761E+03 E0= -.22448761E+03  EK= 0.98419E+01 SP= -.14E+02 SK= 0.12E-01
   1504 T=   605. E= -.22864975E+03 F= -.22465624E+03 E0= -.22465624E+03  EK= 0.99308E+01 SP= -.14E+02 SK= 0.13E-01
   1505 T=   611. E= -.22865083E+03 F= -.22483417E+03 E0= -.22483417E+03  EK= 0.10026E+02 SP= -.14E+02 SK= 0.14E-01
   1506 T=   616. E= -.22865176E+03 F= -.22500323E+03 E0= -.22500323E+03  EK= 0.10106E+02 SP= -.14E+02 SK= 0.16E-01
   1507 T=   619. E= -.22865239E+03 F= -.22514725E+03 E0= -.22514725E+03  EK= 0.10154E+02 SP= -.14E+02 SK= 0.19E-01
   1508 T=   619. E= -.22865262E+03 F= -.22525419E+03 E0= -.22525419E+03  EK= 0.10157E+02 SP= -.14E+02 SK= 0.22E-01
   1509 T=   616. E= -.22865243E+03 F= -.22531772E+03 E0= -.22531772E+03  EK= 0.10109E+02 SP= -.13E+02 SK= 0.26E-01
   1510 T=   610. E= -.22865182E+03 F= -.22533780E+03 E0= -.22533780E+03  EK= 0.10012E+02 SP= -.13E+02 SK= 0.29E-01
   1511 T=   601. E= -.22865093E+03 F= -.22532050E+03 E0= -.22532050E+03  EK= 0.98743E+01 SP= -.13E+02 SK= 0.30E-01
   1512 T=   592. E= -.22864992E+03 F= -.22527635E+03 E0= -.22527635E+03  EK= 0.97108E+01 SP= -.13E+02 SK= 0.30E-01
   1513 T=   581. E= -.22864898E+03 F= -.22521828E+03 E0= -.22521828E+03  EK= 0.95383E+01 SP= -.13E+02 SK= 0.27E-01
   1514 T=   571. E= -.22864820E+03 F= -.22515915E+03 E0= -.22515915E+03  EK= 0.93736E+01 SP= -.13E+02 SK= 0.23E-01
   1515 T=   562. E= -.22864769E+03 F= -.22510990E+03 E0= -.22510990E+03  EK= 0.92308E+01 SP= -.13E+02 SK= 0.18E-01
   1516 T=   556. E= -.22864743E+03 F= -.22507808E+03 E0= -.22507808E+03  EK= 0.91203E+01 SP= -.13E+02 SK= 0.12E-01
   1517 T=   551. E= -.22864741E+03 F= -.22506746E+03 E0= -.22506746E+03  EK= 0.90477E+01 SP= -.13E+02 SK= 0.69E-02
   1518 T=   549. E= -.22864756E+03 F= -.22507820E+03 E0= -.22507820E+03  EK= 0.90144E+01 SP= -.13E+02 SK= 0.30E-02
   1519 T=   549. E= -.22864779E+03 F= -.22510758E+03 E0= -.22510758E+03  EK= 0.90181E+01 SP= -.13E+02 SK= 0.64E-03
   1520 T=   552. E= -.22864809E+03 F= -.22515114E+03 E0= -.22515114E+03  EK= 0.90543E+01 SP= -.13E+02 SK= 0.95E-05
   1521 T=   555. E= -.22864838E+03 F= -.22520331E+03 E0= -.22520331E+03  EK= 0.91167E+01 SP= -.13E+02 SK= 0.88E-03
   1522 T=   560. E= -.22864865E+03 F= -.22525840E+03 E0= -.22525840E+03  EK= 0.91985E+01 SP= -.13E+02 SK= 0.29E-02
   1523 T=   566. E= -.22864891E+03 F= -.22531105E+03 E0= -.22531105E+03  EK= 0.92929E+01 SP= -.13E+02 SK= 0.55E-02
   1524 T=   572. E= -.22864912E+03 F= -.22535637E+03 E0= -.22535637E+03  EK= 0.93931E+01 SP= -.13E+02 SK= 0.84E-02
   1525 T=   578. E= -.22864930E+03 F= -.22539033E+03 E0= -.22539033E+03  EK= 0.94929E+01 SP= -.13E+02 SK= 0.11E-01
   1526 T=   584. E= -.22864944E+03 F= -.22540990E+03 E0= -.22540990E+03  EK= 0.95872E+01 SP= -.13E+02 SK= 0.13E-01
   1527 T=   589. E= -.22864953E+03 F= -.22541307E+03 E0= -.22541307E+03  EK= 0.96717E+01 SP= -.13E+02 SK= 0.15E-01
   1528 T=   594. E= -.22864957E+03 F= -.22539878E+03 E0= -.22539878E+03  EK= 0.97435E+01 SP= -.13E+02 SK= 0.16E-01
   1529 T=   597. E= -.22864956E+03 F= -.22536708E+03 E0= -.22536708E+03  EK= 0.98006E+01 SP= -.13E+02 SK= 0.17E-01
   1530 T=   600. E= -.22864954E+03 F= -.22531893E+03 E0= -.22531893E+03  EK= 0.98425E+01 SP= -.13E+02 SK= 0.17E-01
   1531 T=   601. E= -.22864950E+03 F= -.22525565E+03 E0= -.22525565E+03  EK= 0.98694E+01 SP= -.13E+02 SK= 0.16E-01
   1532 T=   602. E= -.22864943E+03 F= -.22517900E+03 E0= -.22517900E+03  EK= 0.98822E+01 SP= -.13E+02 SK= 0.16E-01
   1533 T=   602. E= -.22864932E+03 F= -.22509127E+03 E0= -.22509127E+03  EK= 0.98828E+01 SP= -.13E+02 SK= 0.16E-01
   1534 T=   601. E= -.22864919E+03 F= -.22499524E+03 E0= -.22499524E+03  EK= 0.98738E+01 SP= -.14E+02 SK= 0.15E-01
   1535 T=   601. E= -.22864901E+03 F= -.22489426E+03 E0= -.22489426E+03  EK= 0.98588E+01 SP= -.14E+02 SK= 0.15E-01
   1536 T=   600. E= -.22864880E+03 F= -.22479233E+03 E0= -.22479233E+03  EK= 0.98420E+01 SP= -.14E+02 SK= 0.15E-01
   1537 T=   599. E= -.22864854E+03 F= -.22469402E+03 E0= -.22469402E+03  EK= 0.98285E+01 SP= -.14E+02 SK= 0.15E-01
   1538 T=   598. E= -.22864829E+03 F= -.22460445E+03 E0= -.22460445E+03  EK= 0.98237E+01 SP= -.14E+02 SK= 0.15E-01
   1539 T=   599. E= -.22864804E+03 F= -.22452879E+03 E0= -.22452879E+03  EK= 0.98329E+01 SP= -.14E+02 SK= 0.15E-01
   1540 T=   601. E= -.22864786E+03 F= -.22447194E+03 E0= -.22447194E+03  EK= 0.98610E+01 SP= -.14E+02 SK= 0.15E-01
   1541 T=   604. E= -.22864779E+03 F= -.22443782E+03 E0= -.22443782E+03  EK= 0.99113E+01 SP= -.14E+02 SK= 0.14E-01
   1542 T=   608. E= -.22864783E+03 F= -.22442889E+03 E0= -.22442889E+03  EK= 0.99851E+01 SP= -.14E+02 SK= 0.13E-01
   1543 T=   614. E= -.22864801E+03 F= -.22444570E+03 E0= -.22444570E+03  EK= 0.10081E+02 SP= -.14E+02 SK= 0.12E-01
   1544 T=   621. E= -.22864830E+03 F= -.22448675E+03 E0= -.22448675E+03  EK= 0.10196E+02 SP= -.14E+02 SK= 0.95E-02
   1545 T=   629. E= -.22864866E+03 F= -.22454885E+03 E0= -.22454885E+03  EK= 0.10323E+02 SP= -.14E+02 SK= 0.68E-02
   1546 T=   637. E= -.22864907E+03 F= -.22462772E+03 E0= -.22462772E+03  EK= 0.10455E+02 SP= -.14E+02 SK= 0.39E-02
   1547 T=   645. E= -.22864949E+03 F= -.22471826E+03 E0= -.22471826E+03  EK= 0.10583E+02 SP= -.15E+02 SK= 0.15E-02
   1548 T=   652. E= -.22864989E+03 F= -.22481500E+03 E0= -.22481500E+03  EK= 0.10697E+02 SP= -.15E+02 SK= 0.87E-04
   1549 T=   657. E= -.22865023E+03 F= -.22491258E+03 E0= -.22491258E+03  EK= 0.10789E+02 SP= -.15E+02 SK= 0.54E-03
   1550 T=   661. E= -.22865044E+03 F= -.22500616E+03 E0= -.22500616E+03  EK= 0.10851E+02 SP= -.14E+02 SK= 0.34E-02
   1551 T=   663. E= -.22865050E+03 F= -.22509205E+03 E0= -.22509205E+03  EK= 0.10878E+02 SP= -.14E+02 SK= 0.91E-02
   1552 T=   662. E= -.22865043E+03 F= -.22516803E+03 E0= -.22516803E+03  EK= 0.10866E+02 SP= -.14E+02 SK= 0.18E-01
   1553 T=   659. E= -.22865023E+03 F= -.22523306E+03 E0= -.22523306E+03  EK= 0.10815E+02 SP= -.14E+02 SK= 0.28E-01
   1554 T=   653. E= -.22864994E+03 F= -.22528736E+03 E0= -.22528736E+03  EK= 0.10728E+02 SP= -.14E+02 SK= 0.41E-01
   1555 T=   646. E= -.22864963E+03 F= -.22533180E+03 E0= -.22533180E+03  EK= 0.10608E+02 SP= -.14E+02 SK= 0.54E-01
   1556 T=   637. E= -.22864928E+03 F= -.22536749E+03 E0= -.22536749E+03  EK= 0.10462E+02 SP= -.14E+02 SK= 0.66E-01
   1557 T=   627. E= -.22864895E+03 F= -.22539583E+03 E0= -.22539583E+03  EK= 0.10294E+02 SP= -.14E+02 SK= 0.77E-01
   1558 T=   616. E= -.22864861E+03 F= -.22541845E+03 E0= -.22541845E+03  EK= 0.10112E+02 SP= -.13E+02 SK= 0.84E-01
   1559 T=   604. E= -.22864831E+03 F= -.22543715E+03 E0= -.22543715E+03  EK= 0.99223E+01 SP= -.13E+02 SK= 0.88E-01
   1560 T=   593. E= -.22864806E+03 F= -.22545384E+03 E0= -.22545384E+03  EK= 0.97327E+01 SP= -.13E+02 SK= 0.88E-01
   1561 T=   582. E= -.22864787E+03 F= -.22547028E+03 E0= -.22547028E+03  EK= 0.95491E+01 SP= -.13E+02 SK= 0.84E-01
   1562 T=   571. E= -.22864775E+03 F= -.22548784E+03 E0= -.22548784E+03  EK= 0.93769E+01 SP= -.13E+02 SK= 0.76E-01
   1563 T=   562. E= -.22864771E+03 F= -.22550733E+03 E0= -.22550733E+03  EK= 0.92205E+01 SP= -.12E+02 SK= 0.66E-01
   1564 T=   553. E= -.22864778E+03 F= -.22552858E+03 E0= -.22552858E+03  EK= 0.90826E+01 SP= -.12E+02 SK= 0.54E-01
   1565 T=   546. E= -.22864791E+03 F= -.22555016E+03 E0= -.22555016E+03  EK= 0.89641E+01 SP= -.12E+02 SK= 0.42E-01
   1566 T=   540. E= -.22864806E+03 F= -.22556983E+03 E0= -.22556983E+03  EK= 0.88648E+01 SP= -.12E+02 SK= 0.29E-01
   1567 T=   535. E= -.22864823E+03 F= -.22558501E+03 E0= -.22558501E+03  EK= 0.87836E+01 SP= -.12E+02 SK= 0.18E-01
   1568 T=   531. E= -.22864836E+03 F= -.22559305E+03 E0= -.22559305E+03  EK= 0.87191E+01 SP= -.12E+02 SK= 0.95E-02
   1569 T=   528. E= -.22864841E+03 F= -.22559205E+03 E0= -.22559205E+03  EK= 0.86704E+01 SP= -.12E+02 SK= 0.33E-02
   1570 T=   526. E= -.22864838E+03 F= -.22558134E+03 E0= -.22558134E+03  EK= 0.86375E+01 SP= -.12E+02 SK= 0.23E-03
   1571 T=   525. E= -.22864825E+03 F= -.22556178E+03 E0= -.22556178E+03  EK= 0.86218E+01 SP= -.12E+02 SK= 0.75E-03
   1572 T=   525. E= -.22864804E+03 F= -.22553574E+03 E0= -.22553574E+03  EK= 0.86259E+01 SP= -.12E+02 SK= 0.50E-02
   1573 T=   527. E= -.22864780E+03 F= -.22550666E+03 E0= -.22550666E+03  EK= 0.86532E+01 SP= -.12E+02 SK= 0.13E-01
   1574 T=   530. E= -.22864758E+03 F= -.22547847E+03 E0= -.22547847E+03  EK= 0.87072E+01 SP= -.12E+02 SK= 0.24E-01
   1575 T=   536. E= -.22864744E+03 F= -.22545466E+03 E0= -.22545466E+03  EK= 0.87909E+01 SP= -.12E+02 SK= 0.37E-01
   1576 T=   542. E= -.22864743E+03 F= -.22543748E+03 E0= -.22543748E+03  EK= 0.89054E+01 SP= -.12E+02 SK= 0.52E-01
   1577 T=   551. E= -.22864758E+03 F= -.22542727E+03 E0= -.22542727E+03  EK= 0.90495E+01 SP= -.12E+02 SK= 0.67E-01
   1578 T=   562. E= -.22864795E+03 F= -.22542204E+03 E0= -.22542204E+03  EK= 0.92189E+01 SP= -.13E+02 SK= 0.80E-01
   1579 T=   573. E= -.22864848E+03 F= -.22541735E+03 E0= -.22541735E+03  EK= 0.94065E+01 SP= -.13E+02 SK= 0.91E-01
   1580 T=   585. E= -.22864916E+03 F= -.22540685E+03 E0= -.22540685E+03  EK= 0.96023E+01 SP= -.13E+02 SK= 0.98E-01
   1581 T=   597. E= -.22864992E+03 F= -.22538294E+03 E0= -.22538294E+03  EK= 0.97944E+01 SP= -.13E+02 SK= 0.10E+00
   1582 T=   607. E= -.22865071E+03 F= -.22533774E+03 E0= -.22533774E+03  EK= 0.99703E+01 SP= -.13E+02 SK= 0.99E-01
   1583 T=   616. E= -.22865137E+03 F= -.22526436E+03 E0= -.22526436E+03  EK= 0.10118E+02 SP= -.14E+02 SK= 0.95E-01
   1584 T=   623. E= -.22865179E+03 F= -.22515853E+03 E0= -.22515853E+03  EK= 0.10230E+02 SP= -.14E+02 SK= 0.87E-01
   1585 T=   627. E= -.22865192E+03 F= -.22501979E+03 E0= -.22501979E+03  EK= 0.10300E+02 SP= -.14E+02 SK= 0.78E-01
   1586 T=   629. E= -.22865177E+03 F= -.22485196E+03 E0= -.22485196E+03  EK= 0.10331E+02 SP= -.14E+02 SK= 0.69E-01
   1587 T=   629. E= -.22865138E+03 F= -.22466265E+03 E0= -.22466265E+03  EK= 0.10327E+02 SP= -.14E+02 SK= 0.59E-01
   1588 T=   627. E= -.22865085E+03 F= -.22446240E+03 E0= -.22446240E+03  EK= 0.10299E+02 SP= -.15E+02 SK= 0.51E-01
   1589 T=   625. E= -.22865035E+03 F= -.22426289E+03 E0= -.22426289E+03  EK= 0.10260E+02 SP= -.15E+02 SK= 0.44E-01
   1590 T=   623. E= -.22864995E+03 F= -.22407487E+03 E0= -.22407487E+03  EK= 0.10220E+02 SP= -.15E+02 SK= 0.38E-01
   1591 T=   621. E= -.22864971E+03 F= -.22390700E+03 E0= -.22390700E+03  EK= 0.10189E+02 SP= -.15E+02 SK= 0.33E-01
   1592 T=   620. E= -.22864957E+03 F= -.22376529E+03 E0= -.22376529E+03  EK= 0.10175E+02 SP= -.15E+02 SK= 0.29E-01
   1593 T=   620. E= -.22864954E+03 F= -.22365361E+03 E0= -.22365361E+03  EK= 0.10182E+02 SP= -.15E+02 SK= 0.25E-01
   1594 T=   622. E= -.22864953E+03 F= -.22357420E+03 E0= -.22357420E+03  EK= 0.10212E+02 SP= -.15E+02 SK= 0.21E-01
   1595 T=   625. E= -.22864960E+03 F= -.22352820E+03 E0= -.22352820E+03  EK= 0.10266E+02 SP= -.15E+02 SK= 0.17E-01
   1596 T=   630. E= -.22864972E+03 F= -.22351568E+03 E0= -.22351568E+03  EK= 0.10343E+02 SP= -.15E+02 SK= 0.13E-01
   1597 T=   636. E= -.22864991E+03 F= -.22353566E+03 E0= -.22353566E+03  EK= 0.10439E+02 SP= -.16E+02 SK= 0.88E-02
   1598 T=   643. E= -.22865021E+03 F= -.22358582E+03 E0= -.22358582E+03  EK= 0.10550E+02 SP= -.16E+02 SK= 0.50E-02
   1599 T=   650. E= -.22865063E+03 F= -.22366217E+03 E0= -.22366217E+03  EK= 0.10668E+02 SP= -.16E+02 SK= 0.18E-02
   1600 T=   657. E= -.22865122E+03 F= -.22375866E+03 E0= -.22375866E+03  EK= 0.10785E+02 SP= -.16E+02 SK= 0.12E-03
   1601 T=   663. E= -.22865187E+03 F= -.22386683E+03 E0= -.22386683E+03  EK= 0.10887E+02 SP= -.16E+02 SK= 0.63E-03
   1602 T=   668. E= -.22865251E+03 F= -.22397657E+03 E0= -.22397657E+03  EK= 0.10961E+02 SP= -.16E+02 SK= 0.41E-02
   1603 T=   670. E= -.22865311E+03 F= -.22407703E+03 E0= -.22407703E+03  EK= 0.10995E+02 SP= -.16E+02 SK= 0.11E-01
   1604 T=   669. E= -.22865348E+03 F= -.22415750E+03 E0= -.22415750E+03  EK= 0.10977E+02 SP= -.15E+02 SK= 0.22E-01
   1605 T=   664. E= -.22865355E+03 F= -.22420938E+03 E0= -.22420938E+03  EK= 0.10899E+02 SP= -.15E+02 SK= 0.35E-01
   1606 T=   655. E= -.22865325E+03 F= -.22422759E+03 E0= -.22422759E+03  EK= 0.10760E+02 SP= -.15E+02 SK= 0.49E-01
   1607 T=   644. E= -.22865256E+03 F= -.22421178E+03 E0= -.22421178E+03  EK= 0.10566E+02 SP= -.15E+02 SK= 0.64E-01
   1608 T=   629. E= -.22865158E+03 F= -.22416695E+03 E0= -.22416695E+03  EK= 0.10326E+02 SP= -.15E+02 SK= 0.75E-01
   1609 T=   613. E= -.22865043E+03 F= -.22410293E+03 E0= -.22410293E+03  EK= 0.10060E+02 SP= -.15E+02 SK= 0.83E-01
   1610 T=   596. E= -.22864926E+03 F= -.22403312E+03 E0= -.22403312E+03  EK= 0.97881E+01 SP= -.14E+02 SK= 0.85E-01
   1611 T=   581. E= -.22864821E+03 F= -.22397268E+03 E0= -.22397268E+03  EK= 0.95316E+01 SP= -.14E+02 SK= 0.81E-01
   1612 T=   567. E= -.22864739E+03 F= -.22393637E+03 E0= -.22393637E+03  EK= 0.93109E+01 SP= -.14E+02 SK= 0.73E-01
   1613 T=   557. E= -.22864689E+03 F= -.22393647E+03 E0= -.22393647E+03  EK= 0.91422E+01 SP= -.14E+02 SK= 0.62E-01
   1614 T=   550. E= -.22864669E+03 F= -.22398118E+03 E0= -.22398118E+03  EK= 0.90359E+01 SP= -.14E+02 SK= 0.49E-01
   1615 T=   548. E= -.22864683E+03 F= -.22407377E+03 E0= -.22407377E+03  EK= 0.89962E+01 SP= -.14E+02 SK= 0.37E-01
   1616 T=   550. E= -.22864724E+03 F= -.22421211E+03 E0= -.22421211E+03  EK= 0.90208E+01 SP= -.13E+02 SK= 0.26E-01
   1617 T=   554. E= -.22864786E+03 F= -.22438917E+03 E0= -.22438917E+03  EK= 0.91016E+01 SP= -.13E+02 SK= 0.18E-01
   1618 T=   562. E= -.22864859E+03 F= -.22459405E+03 E0= -.22459405E+03  EK= 0.92258E+01 SP= -.13E+02 SK= 0.12E-01
   1619 T=   571. E= -.22864934E+03 F= -.22481373E+03 E0= -.22481373E+03  EK= 0.93775E+01 SP= -.13E+02 SK= 0.85E-02
   1620 T=   581. E= -.22865003E+03 F= -.22503464E+03 E0= -.22503464E+03  EK= 0.95401E+01 SP= -.13E+02 SK= 0.63E-02
   1621 T=   591. E= -.22865060E+03 F= -.22524412E+03 E0= -.22524412E+03  EK= 0.96975E+01 SP= -.13E+02 SK= 0.52E-02
   1622 T=   599. E= -.22865096E+03 F= -.22543163E+03 E0= -.22543163E+03  EK= 0.98355E+01 SP= -.13E+02 SK= 0.49E-02
   1623 T=   606. E= -.22865113E+03 F= -.22558974E+03 E0= -.22558974E+03  EK= 0.99437E+01 SP= -.13E+02 SK= 0.52E-02
   1624 T=   610. E= -.22865113E+03 F= -.22571407E+03 E0= -.22571407E+03  EK= 0.10015E+02 SP= -.13E+02 SK= 0.60E-02
   1625 T=   612. E= -.22865097E+03 F= -.22580310E+03 E0= -.22580310E+03  EK= 0.10046E+02 SP= -.13E+02 SK= 0.72E-02
   1626 T=   611. E= -.22865067E+03 F= -.22585773E+03 E0= -.22585773E+03  EK= 0.10038E+02 SP= -.13E+02 SK= 0.86E-02
   1627 T=   609. E= -.22865034E+03 F= -.22588071E+03 E0= -.22588071E+03  EK= 0.99930E+01 SP= -.13E+02 SK= 0.99E-02
   1628 T=   604. E= -.22864997E+03 F= -.22587568E+03 E0= -.22587568E+03  EK= 0.99164E+01 SP= -.13E+02 SK= 0.11E-01
   1629 T=   598. E= -.22864960E+03 F= -.22584685E+03 E0= -.22584685E+03  EK= 0.98146E+01 SP= -.13E+02 SK= 0.11E-01
   1630 T=   591. E= -.22864927E+03 F= -.22579872E+03 E0= -.22579872E+03  EK= 0.96948E+01 SP= -.13E+02 SK= 0.11E-01
   1631 T=   583. E= -.22864899E+03 F= -.22573558E+03 E0= -.22573558E+03  EK= 0.95642E+01 SP= -.12E+02 SK= 0.92E-02
   1632 T=   574. E= -.22864874E+03 F= -.22566143E+03 E0= -.22566143E+03  EK= 0.94298E+01 SP= -.12E+02 SK= 0.70E-02
   1633 T=   566. E= -.22864856E+03 F= -.22558005E+03 E0= -.22558005E+03  EK= 0.92984E+01 SP= -.12E+02 SK= 0.45E-02
   1634 T=   559. E= -.22864845E+03 F= -.22549456E+03 E0= -.22549456E+03  EK= 0.91759E+01 SP= -.12E+02 SK= 0.21E-02
   1635 T=   552. E= -.22864840E+03 F= -.22540738E+03 E0= -.22540738E+03  EK= 0.90671E+01 SP= -.12E+02 SK= 0.44E-03
   1636 T=   547. E= -.22864844E+03 F= -.22532016E+03 E0= -.22532016E+03  EK= 0.89757E+01 SP= -.12E+02 SK= 0.63E-04
   1637 T=   542. E= -.22864854E+03 F= -.22523355E+03 E0= -.22523355E+03  EK= 0.89041E+01 SP= -.12E+02 SK= 0.16E-02
   1638 T=   539. E= -.22864868E+03 F= -.22514740E+03 E0= -.22514740E+03  EK= 0.88534E+01 SP= -.12E+02 SK= 0.54E-02
   1639 T=   538. E= -.22864883E+03 F= -.22506095E+03 E0= -.22506095E+03  EK= 0.88240E+01 SP= -.12E+02 SK= 0.12E-01
   1640 T=   537. E= -.22864898E+03 F= -.22497328E+03 E0= -.22497328E+03  EK= 0.88154E+01 SP= -.13E+02 SK= 0.21E-01
   1641 T=   538. E= -.22864908E+03 F= -.22488364E+03 E0= -.22488364E+03  EK= 0.88275E+01 SP= -.13E+02 SK= 0.33E-01
   1642 T=   540. E= -.22864914E+03 F= -.22479187E+03 E0= -.22479187E+03  EK= 0.88599E+01 SP= -.13E+02 SK= 0.47E-01
   1643 T=   543. E= -.22864912E+03 F= -.22469869E+03 E0= -.22469869E+03  EK= 0.89133E+01 SP= -.13E+02 SK= 0.62E-01
   1644 T=   548. E= -.22864901E+03 F= -.22460608E+03 E0= -.22460608E+03  EK= 0.89890E+01 SP= -.13E+02 SK= 0.79E-01
   1645 T=   554. E= -.22864881E+03 F= -.22451725E+03 E0= -.22451725E+03  EK= 0.90892E+01 SP= -.13E+02 SK= 0.95E-01
   1646 T=   561. E= -.22864856E+03 F= -.22443662E+03 E0= -.22443662E+03  EK= 0.92171E+01 SP= -.14E+02 SK= 0.11E+00
   1647 T=   571. E= -.22864836E+03 F= -.22436921E+03 E0= -.22436921E+03  EK= 0.93756E+01 SP= -.14E+02 SK= 0.12E+00
   1648 T=   583. E= -.22864824E+03 F= -.22431959E+03 E0= -.22431959E+03  EK= 0.95668E+01 SP= -.14E+02 SK= 0.13E+00
   1649 T=   596. E= -.22864834E+03 F= -.22429097E+03 E0= -.22429097E+03  EK= 0.97904E+01 SP= -.14E+02 SK= 0.14E+00
   1650 T=   612. E= -.22864872E+03 F= -.22428395E+03 E0= -.22428395E+03  EK= 0.10042E+02 SP= -.15E+02 SK= 0.14E+00
   1651 T=   628. E= -.22864943E+03 F= -.22429569E+03 E0= -.22429569E+03  EK= 0.10314E+02 SP= -.15E+02 SK= 0.13E+00
   1652 T=   645. E= -.22865043E+03 F= -.22431973E+03 E0= -.22431973E+03  EK= 0.10593E+02 SP= -.15E+02 SK= 0.11E+00
   1653 T=   662. E= -.22865166E+03 F= -.22434643E+03 E0= -.22434643E+03  EK= 0.10859E+02 SP= -.15E+02 SK= 0.91E-01
   1654 T=   676. E= -.22865297E+03 F= -.22436412E+03 E0= -.22436412E+03  EK= 0.11094E+02 SP= -.15E+02 SK= 0.68E-01
   1655 T=   687. E= -.22865408E+03 F= -.22436103E+03 E0= -.22436103E+03  EK= 0.11277E+02 SP= -.16E+02 SK= 0.45E-01
   1656 T=   694. E= -.22865481E+03 F= -.22432776E+03 E0= -.22432776E+03  EK= 0.11392E+02 SP= -.16E+02 SK= 0.25E-01
   1657 T=   696. E= -.22865498E+03 F= -.22425956E+03 E0= -.22425956E+03  EK= 0.11428E+02 SP= -.16E+02 SK= 0.10E-01
   1658 T=   694. E= -.22865456E+03 F= -.22415788E+03 E0= -.22415788E+03  EK= 0.11386E+02 SP= -.16E+02 SK= 0.20E-02
   1659 T=   687. E= -.22865361E+03 F= -.22403056E+03 E0= -.22403056E+03  EK= 0.11273E+02 SP= -.16E+02 SK= 0.90E-04
   1660 T=   677. E= -.22865230E+03 F= -.22389117E+03 E0= -.22389117E+03  EK= 0.11108E+02 SP= -.16E+02 SK= 0.34E-02
   1661 T=   665. E= -.22865091E+03 F= -.22375678E+03 E0= -.22375678E+03  EK= 0.10913E+02 SP= -.16E+02 SK= 0.10E-01
   1662 T=   653. E= -.22864964E+03 F= -.22364512E+03 E0= -.22364512E+03  EK= 0.10713E+02 SP= -.16E+02 SK= 0.18E-01
   1663 T=   641. E= -.22864867E+03 F= -.22357202E+03 E0= -.22357202E+03  EK= 0.10528E+02 SP= -.16E+02 SK= 0.27E-01
   1664 T=   632. E= -.22864812E+03 F= -.22354907E+03 E0= -.22354907E+03  EK= 0.10377E+02 SP= -.16E+02 SK= 0.34E-01
   1665 T=   626. E= -.22864795E+03 F= -.22358213E+03 E0= -.22358213E+03  EK= 0.10268E+02 SP= -.15E+02 SK= 0.41E-01
   1666 T=   622. E= -.22864816E+03 F= -.22367118E+03 E0= -.22367118E+03  EK= 0.10205E+02 SP= -.15E+02 SK= 0.47E-01
   1667 T=   620. E= -.22864863E+03 F= -.22381068E+03 E0= -.22381068E+03  EK= 0.10183E+02 SP= -.15E+02 SK= 0.53E-01
   1668 T=   621. E= -.22864924E+03 F= -.22399082E+03 E0= -.22399082E+03  EK= 0.10193E+02 SP= -.15E+02 SK= 0.58E-01
   1669 T=   623. E= -.22864994E+03 F= -.22419891E+03 E0= -.22419891E+03  EK= 0.10220E+02 SP= -.15E+02 SK= 0.65E-01
   1670 T=   624. E= -.22865063E+03 F= -.22442051E+03 E0= -.22442051E+03  EK= 0.10251E+02 SP= -.15E+02 SK= 0.73E-01
 bond charge predicted
       N       E                     dE             d eps       ncg     rms          rms(c)
DAV:   1    -0.221907581446E+03    0.30394E+01   -0.19458E+03   264   0.647E+01
DAV:   2    -0.232177989706E+03   -0.10270E+02   -0.10152E+02   348   0.152E+01
DAV:   3    -0.232399612003E+03   -0.22162E+00   -0.22127E+00   324   0.246E+00
DAV:   4    -0.232405210681E+03   -0.55987E-02   -0.55969E-02   348   0.384E-01
DAV:   5    -0.232405420906E+03   -0.21023E-03   -0.21020E-03   324   0.789E-02    0.735E+00
RMM:   6    -0.225870456888E+03    0.65350E+01   -0.87081E+00   264   0.211E+00    0.374E+00
RMM:   7    -0.224970533906E+03    0.89992E+00   -0.17716E+00   264   0.149E+00    0.246E+00
RMM:   8    -0.224522825683E+03    0.44771E+00   -0.74993E-01   264   0.925E-01    0.126E+00
RMM:   9    -0.224498113831E+03    0.24712E-01   -0.29442E-01   264   0.619E-01    0.679E-01
RMM:  10    -0.224487719907E+03    0.10394E-01   -0.74372E-02   265   0.369E-01    0.373E-01
RMM:  11    -0.224487540279E+03    0.17963E-03   -0.21276E-02   270   0.209E-01    0.171E-01
RMM:  12    -0.224487990531E+03   -0.45025E-03   -0.63923E-03   272   0.122E-01    0.756E-02
RMM:  13    -0.224487957514E+03    0.33017E-04   -0.13754E-03   267   0.591E-02    0.421E-02
RMM:  14    -0.224487925586E+03    0.31927E-04   -0.40965E-04   234   0.342E-02
   1671 T=   626. E= -.22849298E+03 F= -.22448793E+03 E0= -.22446963E+03  EK= 0.10274E+02 SP= -.14E+02 SK= 0.81E-01
   1672 T=   626. E= -.22860430E+03 F= -.22480951E+03 E0= -.22480951E+03  EK= 0.10271E+02 SP= -.14E+02 SK= 0.91E-01
   1673 T=   623. E= -.22860458E+03 F= -.22498488E+03 E0= -.22498488E+03  EK= 0.10221E+02 SP= -.14E+02 SK= 0.10E+00
   1674 T=   617. E= -.22860462E+03 F= -.22512017E+03 E0= -.22512017E+03  EK= 0.10124E+02 SP= -.14E+02 SK= 0.11E+00
   1675 T=   608. E= -.22860436E+03 F= -.22520842E+03 E0= -.22520842E+03  EK= 0.99754E+01 SP= -.13E+02 SK= 0.11E+00
   1676 T=   596. E= -.22860386E+03 F= -.22524707E+03 E0= -.22524707E+03  EK= 0.97780E+01 SP= -.13E+02 SK= 0.11E+00
   1677 T=   581. E= -.22860320E+03 F= -.22523794E+03 E0= -.22523794E+03  EK= 0.95396E+01 SP= -.13E+02 SK= 0.11E+00
   1678 T=   565. E= -.22860242E+03 F= -.22518674E+03 E0= -.22518674E+03  EK= 0.92722E+01 SP= -.13E+02 SK= 0.10E+00
   1679 T=   548. E= -.22860164E+03 F= -.22510239E+03 E0= -.22510239E+03  EK= 0.89910E+01 SP= -.13E+02 SK= 0.86E-01
   1680 T=   531. E= -.22860094E+03 F= -.22499566E+03 E0= -.22499566E+03  EK= 0.87121E+01 SP= -.12E+02 SK= 0.67E-01
   1681 T=   515. E= -.22860036E+03 F= -.22487787E+03 E0= -.22487787E+03  EK= 0.84515E+01 SP= -.12E+02 SK= 0.46E-01
   1682 T=   501. E= -.22859992E+03 F= -.22475987E+03 E0= -.22475987E+03  EK= 0.82235E+01 SP= -.12E+02 SK= 0.26E-01
   1683 T=   490. E= -.22859962E+03 F= -.22465124E+03 E0= -.22465124E+03  EK= 0.80403E+01 SP= -.12E+02 SK= 0.99E-02
   1684 T=   482. E= -.22859943E+03 F= -.22455960E+03 E0= -.22455960E+03  EK= 0.79112E+01 SP= -.12E+02 SK= 0.11E-02
   1685 T=   478. E= -.22859927E+03 F= -.22449057E+03 E0= -.22449057E+03  EK= 0.78431E+01 SP= -.12E+02 SK= 0.13E-02
   1686 T=   478. E= -.22859913E+03 F= -.22444808E+03 E0= -.22444808E+03  EK= 0.78405E+01 SP= -.12E+02 SK= 0.11E-01
   1687 T=   482. E= -.22859900E+03 F= -.22443458E+03 E0= -.22443458E+03  EK= 0.79063E+01 SP= -.12E+02 SK= 0.31E-01
   1688 T=   490. E= -.22859891E+03 F= -.22445093E+03 E0= -.22445093E+03  EK= 0.80415E+01 SP= -.12E+02 SK= 0.59E-01
   1689 T=   502. E= -.22859892E+03 F= -.22449619E+03 E0= -.22449619E+03  EK= 0.82444E+01 SP= -.12E+02 SK= 0.92E-01
   1690 T=   518. E= -.22859905E+03 F= -.22456738E+03 E0= -.22456738E+03  EK= 0.85110E+01 SP= -.13E+02 SK= 0.13E+00
   1691 T=   538. E= -.22859935E+03 F= -.22465959E+03 E0= -.22465959E+03  EK= 0.88341E+01 SP= -.13E+02 SK= 0.16E+00
   1692 T=   561. E= -.22859981E+03 F= -.22476601E+03 E0= -.22476601E+03  EK= 0.92030E+01 SP= -.13E+02 SK= 0.18E+00
   1693 T=   585. E= -.22860045E+03 F= -.22487880E+03 E0= -.22487880E+03  EK= 0.96042E+01 SP= -.14E+02 SK= 0.19E+00
   1694 T=   610. E= -.22860120E+03 F= -.22498997E+03 E0= -.22498997E+03  EK= 0.10022E+02 SP= -.14E+02 SK= 0.20E+00
   1695 T=   636. E= -.22860202E+03 F= -.22509234E+03 E0= -.22509234E+03  EK= 0.10439E+02 SP= -.14E+02 SK= 0.18E+00
   1696 T=   660. E= -.22860282E+03 F= -.22518044E+03 E0= -.22518044E+03  EK= 0.10838E+02 SP= -.14E+02 SK= 0.16E+00
   1697 T=   682. E= -.22860359E+03 F= -.22525104E+03 E0= -.22525104E+03  EK= 0.11204E+02 SP= -.15E+02 SK= 0.13E+00
   1698 T=   702. E= -.22860430E+03 F= -.22530293E+03 E0= -.22530293E+03  EK= 0.11520E+02 SP= -.15E+02 SK= 0.91E-01
   1699 T=   717. E= -.22860491E+03 F= -.22533624E+03 E0= -.22533624E+03  EK= 0.11775E+02 SP= -.15E+02 SK= 0.56E-01
   1700 T=   729. E= -.22860534E+03 F= -.22535196E+03 E0= -.22535196E+03  EK= 0.11959E+02 SP= -.15E+02 SK= 0.27E-01
   1701 T=   735. E= -.22860555E+03 F= -.22535174E+03 E0= -.22535174E+03  EK= 0.12066E+02 SP= -.15E+02 SK= 0.74E-02
   1702 T=   737. E= -.22860553E+03 F= -.22533752E+03 E0= -.22533752E+03  EK= 0.12091E+02 SP= -.15E+02 SK= 0.31E-04
   1703 T=   733. E= -.22860526E+03 F= -.22531155E+03 E0= -.22531155E+03  EK= 0.12035E+02 SP= -.15E+02 SK= 0.55E-02
   1704 T=   725. E= -.22860473E+03 F= -.22527645E+03 E0= -.22527645E+03  EK= 0.11905E+02 SP= -.15E+02 SK= 0.23E-01
   1705 T=   713. E= -.22860405E+03 F= -.22523535E+03 E0= -.22523535E+03  EK= 0.11709E+02 SP= -.15E+02 SK= 0.49E-01
   1706 T=   698. E= -.22860330E+03 F= -.22519134E+03 E0= -.22519134E+03  EK= 0.11458E+02 SP= -.15E+02 SK= 0.81E-01
   1707 T=   680. E= -.22860257E+03 F= -.22514699E+03 E0= -.22514699E+03  EK= 0.11165E+02 SP= -.15E+02 SK= 0.11E+00
   1708 T=   661. E= -.22860190E+03 F= -.22510424E+03 E0= -.22510424E+03  EK= 0.10844E+02 SP= -.14E+02 SK= 0.14E+00
   1709 T=   640. E= -.22860132E+03 F= -.22506448E+03 E0= -.22506448E+03  EK= 0.10507E+02 SP= -.14E+02 SK= 0.17E+00
   1710 T=   619. E= -.22860081E+03 F= -.22502873E+03 E0= -.22502873E+03  EK= 0.10166E+02 SP= -.14E+02 SK= 0.18E+00
   1711 T=   599. E= -.22860038E+03 F= -.22499824E+03 E0= -.22499824E+03  EK= 0.98311E+01 SP= -.14E+02 SK= 0.19E+00
   1712 T=   580. E= -.22860002E+03 F= -.22497461E+03 E0= -.22497461E+03  EK= 0.95134E+01 SP= -.13E+02 SK= 0.18E+00
   1713 T=   562. E= -.22859972E+03 F= -.22495995E+03 E0= -.22495995E+03  EK= 0.92213E+01 SP= -.13E+02 SK= 0.17E+00
   1714 T=   546. E= -.22859949E+03 F= -.22495670E+03 E0= -.22495670E+03  EK= 0.89627E+01 SP= -.13E+02 SK= 0.15E+00
   1715 T=   533. E= -.22859934E+03 F= -.22496734E+03 E0= -.22496734E+03  EK= 0.87439E+01 SP= -.12E+02 SK= 0.12E+00
   1716 T=   522. E= -.22859929E+03 F= -.22499384E+03 E0= -.22499384E+03  EK= 0.85695E+01 SP= -.12E+02 SK= 0.94E-01
   1717 T=   514. E= -.22859933E+03 F= -.22503713E+03 E0= -.22503713E+03  EK= 0.84423E+01 SP= -.12E+02 SK= 0.67E-01
   1718 T=   509. E= -.22859944E+03 F= -.22509682E+03 E0= -.22509682E+03  EK= 0.83628E+01 SP= -.12E+02 SK= 0.43E-01
   1719 T=   507. E= -.22859960E+03 F= -.22517113E+03 E0= -.22517113E+03  EK= 0.83295E+01 SP= -.12E+02 SK= 0.24E-01
   1720 T=   508. E= -.22859980E+03 F= -.22525704E+03 E0= -.22525704E+03  EK= 0.83393E+01 SP= -.12E+02 SK= 0.10E-01
   1721 T=   511. E= -.22860002E+03 F= -.22535046E+03 E0= -.22535046E+03  EK= 0.83876E+01 SP= -.12E+02 SK= 0.25E-02
   1722 T=   516. E= -.22860025E+03 F= -.22544659E+03 E0= -.22544659E+03  EK= 0.84688E+01 SP= -.12E+02 SK= 0.21E-06
   1723 T=   522. E= -.22860048E+03 F= -.22554034E+03 E0= -.22554034E+03  EK= 0.85767E+01 SP= -.12E+02 SK= 0.22E-02
   1724 T=   530. E= -.22860069E+03 F= -.22562680E+03 E0= -.22562680E+03  EK= 0.87048E+01 SP= -.12E+02 SK= 0.80E-02
   1725 T=   539. E= -.22860087E+03 F= -.22570154E+03 E0= -.22570154E+03  EK= 0.88467E+01 SP= -.12E+02 SK= 0.16E-01
   1726 T=   548. E= -.22860104E+03 F= -.22576098E+03 E0= -.22576098E+03  EK= 0.89965E+01 SP= -.12E+02 SK= 0.25E-01
   1727 T=   557. E= -.22860119E+03 F= -.22580228E+03 E0= -.22580228E+03  EK= 0.91488E+01 SP= -.12E+02 SK= 0.35E-01
   1728 T=   566. E= -.22860136E+03 F= -.22582337E+03 E0= -.22582337E+03  EK= 0.92986E+01 SP= -.12E+02 SK= 0.43E-01
   1729 T=   575. E= -.22860151E+03 F= -.22582273E+03 E0= -.22582273E+03  EK= 0.94414E+01 SP= -.12E+02 SK= 0.50E-01
   1730 T=   583. E= -.22860168E+03 F= -.22579969E+03 E0= -.22579969E+03  EK= 0.95733E+01 SP= -.12E+02 SK= 0.56E-01
   1731 T=   590. E= -.22860180E+03 F= -.22575422E+03 E0= -.22575422E+03  EK= 0.96911E+01 SP= -.13E+02 SK= 0.59E-01
   1732 T=   597. E= -.22860183E+03 F= -.22568748E+03 E0= -.22568748E+03  EK= 0.97931E+01 SP= -.13E+02 SK= 0.60E-01
   1733 T=   602. E= -.22860177E+03 F= -.22560223E+03 E0= -.22560223E+03  EK= 0.98793E+01 SP= -.13E+02 SK= 0.60E-01
   1734 T=   606. E= -.22860160E+03 F= -.22550291E+03 E0= -.22550291E+03  EK= 0.99517E+01 SP= -.13E+02 SK= 0.59E-01
   1735 T=   610. E= -.22860141E+03 F= -.22539547E+03 E0= -.22539547E+03  EK= 0.10014E+02 SP= -.13E+02 SK= 0.56E-01
   1736 T=   614. E= -.22860122E+03 F= -.22528633E+03 E0= -.22528633E+03  EK= 0.10071E+02 SP= -.13E+02 SK= 0.53E-01
   1737 T=   617. E= -.22860113E+03 F= -.22518163E+03 E0= -.22518163E+03  EK= 0.10128E+02 SP= -.14E+02 SK= 0.48E-01
   1738 T=   621. E= -.22860116E+03 F= -.22508607E+03 E0= -.22508607E+03  EK= 0.10187E+02 SP= -.14E+02 SK= 0.43E-01
   1739 T=   624. E= -.22860137E+03 F= -.22500235E+03 E0= -.22500235E+03  EK= 0.10249E+02 SP= -.14E+02 SK= 0.38E-01
   1740 T=   628. E= -.22860170E+03 F= -.22493050E+03 E0= -.22493050E+03  EK= 0.10313E+02 SP= -.14E+02 SK= 0.32E-01
   1741 T=   632. E= -.22860212E+03 F= -.22486859E+03 E0= -.22486859E+03  EK= 0.10375E+02 SP= -.14E+02 SK= 0.26E-01
   1742 T=   635. E= -.22860254E+03 F= -.22481340E+03 E0= -.22481340E+03  EK= 0.10430E+02 SP= -.14E+02 SK= 0.20E-01
   1743 T=   638. E= -.22860289E+03 F= -.22476138E+03 E0= -.22476138E+03  EK= 0.10474E+02 SP= -.14E+02 SK= 0.14E-01
   1744 T=   640. E= -.22860310E+03 F= -.22470955E+03 E0= -.22470955E+03  EK= 0.10501E+02 SP= -.14E+02 SK= 0.89E-02
   1745 T=   640. E= -.22860324E+03 F= -.22465605E+03 E0= -.22465605E+03  EK= 0.10509E+02 SP= -.14E+02 SK= 0.50E-02
   1746 T=   639. E= -.22860325E+03 F= -.22459999E+03 E0= -.22459999E+03  EK= 0.10496E+02 SP= -.15E+02 SK= 0.22E-02
   1747 T=   637. E= -.22860320E+03 F= -.22454156E+03 E0= -.22454156E+03  EK= 0.10464E+02 SP= -.15E+02 SK= 0.54E-03
   1748 T=   634. E= -.22860308E+03 F= -.22448158E+03 E0= -.22448158E+03  EK= 0.10413E+02 SP= -.15E+02 SK= 0.25E-05
   1749 T=   630. E= -.22860286E+03 F= -.22442160E+03 E0= -.22442160E+03  EK= 0.10347E+02 SP= -.15E+02 SK= 0.33E-03
   1750 T=   626. E= -.22860257E+03 F= -.22436421E+03 E0= -.22436421E+03  EK= 0.10271E+02 SP= -.15E+02 SK= 0.12E-02
   1751 T=   621. E= -.22860222E+03 F= -.22431317E+03 E0= -.22431317E+03  EK= 0.10190E+02 SP= -.14E+02 SK= 0.24E-02
   1752 T=   616. E= -.22860183E+03 F= -.22427311E+03 E0= -.22427311E+03  EK= 0.10110E+02 SP= -.14E+02 SK= 0.37E-02
   1753 T=   612. E= -.22860147E+03 F= -.22424910E+03 E0= -.22424910E+03  EK= 0.10040E+02 SP= -.14E+02 SK= 0.48E-02
   1754 T=   608. E= -.22860121E+03 F= -.22424596E+03 E0= -.22424596E+03  EK= 0.99860E+01 SP= -.14E+02 SK= 0.57E-02
   1755 T=   606. E= -.22860107E+03 F= -.22426724E+03 E0= -.22426724E+03  EK= 0.99523E+01 SP= -.14E+02 SK= 0.65E-02
   1756 T=   606. E= -.22860114E+03 F= -.22431448E+03 E0= -.22431448E+03  EK= 0.99413E+01 SP= -.14E+02 SK= 0.71E-02
   1757 T=   606. E= -.22860136E+03 F= -.22438650E+03 E0= -.22438650E+03  EK= 0.99522E+01 SP= -.14E+02 SK= 0.78E-02
   1758 T=   608. E= -.22860173E+03 F= -.22447943E+03 E0= -.22447943E+03  EK= 0.99805E+01 SP= -.14E+02 SK= 0.87E-02
   1759 T=   610. E= -.22860219E+03 F= -.22458696E+03 E0= -.22458696E+03  EK= 0.10019E+02 SP= -.14E+02 SK= 0.98E-02
   1760 T=   613. E= -.22860265E+03 F= -.22470138E+03 E0= -.22470138E+03  EK= 0.10060E+02 SP= -.14E+02 SK= 0.11E-01
   1761 T=   615. E= -.22860301E+03 F= -.22481481E+03 E0= -.22481481E+03  EK= 0.10094E+02 SP= -.14E+02 SK= 0.13E-01
   1762 T=   616. E= -.22860322E+03 F= -.22492029E+03 E0= -.22492029E+03  EK= 0.10113E+02 SP= -.14E+02 SK= 0.16E-01
   1763 T=   616. E= -.22860327E+03 F= -.22501280E+03 E0= -.22501280E+03  EK= 0.10112E+02 SP= -.14E+02 SK= 0.18E-01
   1764 T=   615. E= -.22860317E+03 F= -.22508956E+03 E0= -.22508956E+03  EK= 0.10088E+02 SP= -.14E+02 SK= 0.21E-01
   1765 T=   612. E= -.22860295E+03 F= -.22514983E+03 E0= -.22514983E+03  EK= 0.10042E+02 SP= -.14E+02 SK= 0.24E-01
   1766 T=   608. E= -.22860270E+03 F= -.22519442E+03 E0= -.22519442E+03  EK= 0.99751E+01 SP= -.13E+02 SK= 0.26E-01
   1767 T=   603. E= -.22860246E+03 F= -.22522479E+03 E0= -.22522479E+03  EK= 0.98916E+01 SP= -.13E+02 SK= 0.27E-01
   1768 T=   597. E= -.22860222E+03 F= -.22524255E+03 E0= -.22524255E+03  EK= 0.97950E+01 SP= -.13E+02 SK= 0.27E-01
   1769 T=   590. E= -.22860202E+03 F= -.22524941E+03 E0= -.22524941E+03  EK= 0.96896E+01 SP= -.13E+02 SK= 0.26E-01
   1770 T=   584. E= -.22860182E+03 F= -.22524703E+03 E0= -.22524703E+03  EK= 0.95795E+01 SP= -.13E+02 SK= 0.24E-01
   1771 T=   577. E= -.22860164E+03 F= -.22523716E+03 E0= -.22523716E+03  EK= 0.94693E+01 SP= -.13E+02 SK= 0.21E-01
   1772 T=   570. E= -.22860143E+03 F= -.22522183E+03 E0= -.22522183E+03  EK= 0.93633E+01 SP= -.13E+02 SK= 0.17E-01
   1773 T=   564. E= -.22860124E+03 F= -.22520349E+03 E0= -.22520349E+03  EK= 0.92661E+01 SP= -.13E+02 SK= 0.12E-01
   1774 T=   559. E= -.22860106E+03 F= -.22518466E+03 E0= -.22518466E+03  EK= 0.91824E+01 SP= -.13E+02 SK= 0.79E-02
   1775 T=   555. E= -.22860095E+03 F= -.22516767E+03 E0= -.22516767E+03  EK= 0.91158E+01 SP= -.13E+02 SK= 0.42E-02
   1776 T=   552. E= -.22860090E+03 F= -.22515425E+03 E0= -.22515425E+03  EK= 0.90693E+01 SP= -.13E+02 SK= 0.15E-02
   1777 T=   551. E= -.22860088E+03 F= -.22514533E+03 E0= -.22514533E+03  EK= 0.90448E+01 SP= -.13E+02 SK= 0.11E-03
   1778 T=   551. E= -.22860092E+03 F= -.22514125E+03 E0= -.22514125E+03  EK= 0.90429E+01 SP= -.13E+02 SK= 0.30E-03
   1779 T=   552. E= -.22860097E+03 F= -.22514167E+03 E0= -.22514167E+03  EK= 0.90633E+01 SP= -.13E+02 SK= 0.20E-02
   1780 T=   555. E= -.22860107E+03 F= -.22514589E+03 E0= -.22514589E+03  EK= 0.91051E+01 SP= -.13E+02 SK= 0.52E-02
   1781 T=   558. E= -.22860118E+03 F= -.22515278E+03 E0= -.22515278E+03  EK= 0.91664E+01 SP= -.13E+02 SK= 0.93E-02
   1782 T=   563. E= -.22860133E+03 F= -.22516090E+03 E0= -.22516090E+03  EK= 0.92446E+01 SP= -.13E+02 SK= 0.14E-01
   1783 T=   569. E= -.22860148E+03 F= -.22516865E+03 E0= -.22516865E+03  EK= 0.93368E+01 SP= -.13E+02 SK= 0.19E-01
   1784 T=   575. E= -.22860165E+03 F= -.22517447E+03 E0= -.22517447E+03  EK= 0.94395E+01 SP= -.13E+02 SK= 0.24E-01
   1785 T=   582. E= -.22860183E+03 F= -.22517684E+03 E0= -.22517684E+03  EK= 0.95493E+01 SP= -.13E+02 SK= 0.27E-01
   1786 T=   589. E= -.22860197E+03 F= -.22517455E+03 E0= -.22517455E+03  EK= 0.96624E+01 SP= -.13E+02 SK= 0.30E-01
   1787 T=   596. E= -.22860206E+03 F= -.22516723E+03 E0= -.22516723E+03  EK= 0.97761E+01 SP= -.13E+02 SK= 0.32E-01
   1788 T=   602. E= -.22860210E+03 F= -.22515554E+03 E0= -.22515554E+03  EK= 0.98881E+01 SP= -.13E+02 SK= 0.31E-01
   1789 T=   609. E= -.22860213E+03 F= -.22514099E+03 E0= -.22514099E+03  EK= 0.99973E+01 SP= -.13E+02 SK= 0.30E-01
   1790 T=   615. E= -.22860220E+03 F= -.22512533E+03 E0= -.22512533E+03  EK= 0.10102E+02 SP= -.14E+02 SK= 0.27E-01
   1791 T=   621. E= -.22860231E+03 F= -.22510991E+03 E0= -.22510991E+03  EK= 0.10202E+02 SP= -.14E+02 SK= 0.24E-01
   1792 T=   627. E= -.22860251E+03 F= -.22509530E+03 E0= -.22509530E+03  EK= 0.10294E+02 SP= -.14E+02 SK= 0.19E-01
   1793 T=   632. E= -.22860279E+03 F= -.22508054E+03 E0= -.22508054E+03  EK= 0.10374E+02 SP= -.14E+02 SK= 0.15E-01
   1794 T=   636. E= -.22860308E+03 F= -.22506348E+03 E0= -.22506348E+03  EK= 0.10439E+02 SP= -.14E+02 SK= 0.10E-01
   1795 T=   639. E= -.22860332E+03 F= -.22504148E+03 E0= -.22504148E+03  EK= 0.10483E+02 SP= -.14E+02 SK= 0.61E-02
   1796 T=   640. E= -.22860346E+03 F= -.22501220E+03 E0= -.22501220E+03  EK= 0.10503E+02 SP= -.14E+02 SK= 0.30E-02
   1797 T=   639. E= -.22860346E+03 F= -.22497447E+03 E0= -.22497447E+03  EK= 0.10497E+02 SP= -.14E+02 SK= 0.93E-03
   1798 T=   637. E= -.22860331E+03 F= -.22492891E+03 E0= -.22492891E+03  EK= 0.10465E+02 SP= -.14E+02 SK= 0.51E-04
   1799 T=   634. E= -.22860306E+03 F= -.22487793E+03 E0= -.22487793E+03  EK= 0.10412E+02 SP= -.14E+02 SK= 0.21E-03
   1800 T=   630. E= -.22860272E+03 F= -.22482521E+03 E0= -.22482521E+03  EK= 0.10341E+02 SP= -.14E+02 SK= 0.12E-02
   1801 T=   625. E= -.22860236E+03 F= -.22477544E+03 E0= -.22477544E+03  EK= 0.10261E+02 SP= -.14E+02 SK= 0.26E-02
   1802 T=   620. E= -.22860204E+03 F= -.22473363E+03 E0= -.22473363E+03  EK= 0.10178E+02 SP= -.14E+02 SK= 0.42E-02
   1803 T=   615. E= -.22860178E+03 F= -.22470427E+03 E0= -.22470427E+03  EK= 0.10098E+02 SP= -.14E+02 SK= 0.57E-02
   1804 T=   611. E= -.22860169E+03 F= -.22469059E+03 E0= -.22469059E+03  EK= 0.10028E+02 SP= -.14E+02 SK= 0.70E-02
   1805 T=   607. E= -.22860172E+03 F= -.22469370E+03 E0= -.22469370E+03  EK= 0.99691E+01 SP= -.14E+02 SK= 0.81E-02
   1806 T=   604. E= -.22860185E+03 F= -.22471274E+03 E0= -.22471274E+03  EK= 0.99233E+01 SP= -.14E+02 SK= 0.88E-02
   1807 T=   602. E= -.22860199E+03 F= -.22474532E+03 E0= -.22474532E+03  EK= 0.98889E+01 SP= -.14E+02 SK= 0.93E-02
   1808 T=   601. E= -.22860208E+03 F= -.22478872E+03 E0= -.22478872E+03  EK= 0.98641E+01 SP= -.14E+02 SK= 0.96E-02
   1809 T=   600. E= -.22860207E+03 F= -.22484078E+03 E0= -.22484078E+03  EK= 0.98472E+01 SP= -.14E+02 SK= 0.98E-02
   1810 T=   599. E= -.22860197E+03 F= -.22490050E+03 E0= -.22490050E+03  EK= 0.98378E+01 SP= -.14E+02 SK= 0.99E-02
   1811 T=   599. E= -.22860184E+03 F= -.22496797E+03 E0= -.22496797E+03  EK= 0.98360E+01 SP= -.13E+02 SK= 0.99E-02
   1812 T=   600. E= -.22860174E+03 F= -.22504354E+03 E0= -.22504354E+03  EK= 0.98420E+01 SP= -.13E+02 SK= 0.10E-01
   1813 T=   600. E= -.22860174E+03 F= -.22512690E+03 E0= -.22512690E+03  EK= 0.98553E+01 SP= -.13E+02 SK= 0.10E-01
   1814 T=   601. E= -.22860183E+03 F= -.22521629E+03 E0= -.22521629E+03  EK= 0.98738E+01 SP= -.13E+02 SK= 0.10E-01
   1815 T=   603. E= -.22860204E+03 F= -.22530815E+03 E0= -.22530815E+03  EK= 0.98934E+01 SP= -.13E+02 SK= 0.11E-01
   1816 T=   604. E= -.22860236E+03 F= -.22539699E+03 E0= -.22539699E+03  EK= 0.99082E+01 SP= -.13E+02 SK= 0.11E-01
   1817 T=   604. E= -.22860269E+03 F= -.22547570E+03 E0= -.22547570E+03  EK= 0.99109E+01 SP= -.13E+02 SK= 0.12E-01
   1818 T=   603. E= -.22860297E+03 F= -.22553684E+03 E0= -.22553684E+03  EK= 0.98941E+01 SP= -.13E+02 SK= 0.13E-01
   1819 T=   600. E= -.22860315E+03 F= -.22557364E+03 E0= -.22557364E+03  EK= 0.98518E+01 SP= -.13E+02 SK= 0.13E-01
   1820 T=   596. E= -.22860316E+03 F= -.22558094E+03 E0= -.22558094E+03  EK= 0.97801E+01 SP= -.13E+02 SK= 0.13E-01
   1821 T=   590. E= -.22860304E+03 F= -.22555590E+03 E0= -.22555590E+03  EK= 0.96782E+01 SP= -.13E+02 SK= 0.12E-01
   1822 T=   582. E= -.22860280E+03 F= -.22549801E+03 E0= -.22549801E+03  EK= 0.95483E+01 SP= -.13E+02 SK= 0.10E-01
   1823 T=   572. E= -.22860245E+03 F= -.22540922E+03 E0= -.22540922E+03  EK= 0.93954E+01 SP= -.13E+02 SK= 0.80E-02
   1824 T=   562. E= -.22860205E+03 F= -.22529361E+03 E0= -.22529361E+03  EK= 0.92271E+01 SP= -.13E+02 SK= 0.51E-02
   1825 T=   551. E= -.22860158E+03 F= -.22515704E+03 E0= -.22515704E+03  EK= 0.90528E+01 SP= -.12E+02 SK= 0.22E-02
   1826 T=   541. E= -.22860107E+03 F= -.22500708E+03 E0= -.22500708E+03  EK= 0.88834E+01 SP= -.12E+02 SK= 0.26E-03
   1827 T=   532. E= -.22860055E+03 F= -.22485254E+03 E0= -.22485254E+03  EK= 0.87308E+01 SP= -.12E+02 SK= 0.42E-03
   1828 T=   524. E= -.22860007E+03 F= -.22470272E+03 E0= -.22470272E+03  EK= 0.86068E+01 SP= -.13E+02 SK= 0.38E-02
   1829 T=   519. E= -.22859962E+03 F= -.22456653E+03 E0= -.22456653E+03  EK= 0.85224E+01 SP= -.13E+02 SK= 0.11E-01
   1830 T=   517. E= -.22859928E+03 F= -.22445186E+03 E0= -.22445186E+03  EK= 0.84869E+01 SP= -.13E+02 SK= 0.24E-01
   1831 T=   518. E= -.22859909E+03 F= -.22436461E+03 E0= -.22436461E+03  EK= 0.85073E+01 SP= -.13E+02 SK= 0.41E-01
   1832 T=   523. E= -.22859907E+03 F= -.22430781E+03 E0= -.22430781E+03  EK= 0.85869E+01 SP= -.13E+02 SK= 0.62E-01
   1833 T=   532. E= -.22859924E+03 F= -.22428124E+03 E0= -.22428124E+03  EK= 0.87252E+01 SP= -.13E+02 SK= 0.84E-01
   1834 T=   543. E= -.22859963E+03 F= -.22428143E+03 E0= -.22428143E+03  EK= 0.89177E+01 SP= -.13E+02 SK= 0.11E+00
   1835 T=   558. E= -.22860020E+03 F= -.22430193E+03 E0= -.22430193E+03  EK= 0.91558E+01 SP= -.14E+02 SK= 0.13E+00
   1836 T=   574. E= -.22860094E+03 F= -.22433408E+03 E0= -.22433408E+03  EK= 0.94272E+01 SP= -.14E+02 SK= 0.14E+00
   1837 T=   592. E= -.22860178E+03 F= -.22436796E+03 E0= -.22436796E+03  EK= 0.97174E+01 SP= -.14E+02 SK= 0.15E+00
   1838 T=   610. E= -.22860269E+03 F= -.22439370E+03 E0= -.22439370E+03  EK= 0.10010E+02 SP= -.14E+02 SK= 0.15E+00
   1839 T=   627. E= -.22860353E+03 F= -.22440255E+03 E0= -.22440255E+03  EK= 0.10289E+02 SP= -.15E+02 SK= 0.14E+00
   1840 T=   642. E= -.22860427E+03 F= -.22438815E+03 E0= -.22438815E+03  EK= 0.10540E+02 SP= -.15E+02 SK= 0.12E+00
   1841 T=   655. E= -.22860479E+03 F= -.22434711E+03 E0= -.22434711E+03  EK= 0.10752E+02 SP= -.15E+02 SK= 0.10E+00
   1842 T=   665. E= -.22860507E+03 F= -.22427956E+03 E0= -.22427956E+03  EK= 0.10917E+02 SP= -.15E+02 SK= 0.81E-01
   1843 T=   672. E= -.22860513E+03 F= -.22418897E+03 E0= -.22418897E+03  EK= 0.11032E+02 SP= -.16E+02 SK= 0.59E-01
   1844 T=   676. E= -.22860497E+03 F= -.22408157E+03 E0= -.22408157E+03  EK= 0.11098E+02 SP= -.16E+02 SK= 0.40E-01
   1845 T=   678. E= -.22860464E+03 F= -.22396570E+03 E0= -.22396570E+03  EK= 0.11122E+02 SP= -.16E+02 SK= 0.24E-01
   1846 T=   677. E= -.22860424E+03 F= -.22385073E+03 E0= -.22385073E+03  EK= 0.11110E+02 SP= -.16E+02 SK= 0.12E-01
   1847 T=   675. E= -.22860376E+03 F= -.22374598E+03 E0= -.22374598E+03  EK= 0.11073E+02 SP= -.16E+02 SK= 0.39E-02
   1848 T=   671. E= -.22860334E+03 F= -.22366011E+03 E0= -.22366011E+03  EK= 0.11020E+02 SP= -.16E+02 SK= 0.38E-03
   1849 T=   668. E= -.22860299E+03 F= -.22360012E+03 E0= -.22360012E+03  EK= 0.10959E+02 SP= -.16E+02 SK= 0.48E-03
   1850 T=   664. E= -.22860273E+03 F= -.22357096E+03 E0= -.22357096E+03  EK= 0.10898E+02 SP= -.16E+02 SK= 0.37E-02
   1851 T=   660. E= -.22860261E+03 F= -.22357527E+03 E0= -.22357527E+03  EK= 0.10842E+02 SP= -.16E+02 SK= 0.96E-02
   1852 T=   657. E= -.22860264E+03 F= -.22361308E+03 E0= -.22361308E+03  EK= 0.10791E+02 SP= -.16E+02 SK= 0.18E-01
   1853 T=   655. E= -.22860276E+03 F= -.22368181E+03 E0= -.22368181E+03  EK= 0.10745E+02 SP= -.16E+02 SK= 0.28E-01
   1854 T=   652. E= -.22860296E+03 F= -.22377674E+03 E0= -.22377674E+03  EK= 0.10702E+02 SP= -.16E+02 SK= 0.39E-01
   1855 T=   649. E= -.22860317E+03 F= -.22389163E+03 E0= -.22389163E+03  EK= 0.10655E+02 SP= -.15E+02 SK= 0.52E-01
   1856 T=   646. E= -.22860337E+03 F= -.22401953E+03 E0= -.22401953E+03  EK= 0.10600E+02 SP= -.15E+02 SK= 0.66E-01
   1857 T=   642. E= -.22860353E+03 F= -.22415333E+03 E0= -.22415333E+03  EK= 0.10531E+02 SP= -.15E+02 SK= 0.80E-01
   1858 T=   636. E= -.22860360E+03 F= -.22428618E+03 E0= -.22428618E+03  EK= 0.10445E+02 SP= -.15E+02 SK= 0.94E-01
   1859 T=   630. E= -.22860362E+03 F= -.22441219E+03 E0= -.22441219E+03  EK= 0.10338E+02 SP= -.15E+02 SK= 0.11E+00
   1860 T=   622. E= -.22860353E+03 F= -.22452637E+03 E0= -.22452637E+03  EK= 0.10208E+02 SP= -.14E+02 SK= 0.12E+00
   1861 T=   613. E= -.22860330E+03 F= -.22462532E+03 E0= -.22462532E+03  EK= 0.10057E+02 SP= -.14E+02 SK= 0.12E+00
   1862 T=   602. E= -.22860296E+03 F= -.22470775E+03 E0= -.22470775E+03  EK= 0.98885E+01 SP= -.14E+02 SK= 0.13E+00
   1863 T=   591. E= -.22860253E+03 F= -.22477463E+03 E0= -.22477463E+03  EK= 0.97070E+01 SP= -.14E+02 SK= 0.13E+00
   1864 T=   580. E= -.22860206E+03 F= -.22482896E+03 E0= -.22482896E+03  EK= 0.95207E+01 SP= -.13E+02 SK= 0.12E+00
   1865 T=   569. E= -.22860159E+03 F= -.22487523E+03 E0= -.22487523E+03  EK= 0.93384E+01 SP= -.13E+02 SK= 0.11E+00
   1866 T=   559. E= -.22860115E+03 F= -.22491890E+03 E0= -.22491890E+03  EK= 0.91691E+01 SP= -.13E+02 SK= 0.99E-01
   1867 T=   550. E= -.22860077E+03 F= -.22496560E+03 E0= -.22496560E+03  EK= 0.90215E+01 SP= -.13E+02 SK= 0.83E-01
   1868 T=   542. E= -.22860046E+03 F= -.22502066E+03 E0= -.22502066E+03  EK= 0.89032E+01 SP= -.13E+02 SK= 0.66E-01
   1869 T=   537. E= -.22860020E+03 F= -.22508878E+03 E0= -.22508878E+03  EK= 0.88205E+01 SP= -.12E+02 SK= 0.50E-01
   1870 T=   535. E= -.22859998E+03 F= -.22517390E+03 E0= -.22517390E+03  EK= 0.87781E+01 SP= -.12E+02 SK= 0.35E-01
   1871 T=   535. E= -.22859981E+03 F= -.22527911E+03 E0= -.22527911E+03  EK= 0.87791E+01 SP= -.12E+02 SK= 0.22E-01
   1872 T=   538. E= -.22859974E+03 F= -.22540631E+03 E0= -.22540631E+03  EK= 0.88250E+01 SP= -.12E+02 SK= 0.13E-01
   1873 T=   543. E= -.22859979E+03 F= -.22555553E+03 E0= -.22555553E+03  EK= 0.89144E+01 SP= -.12E+02 SK= 0.61E-02
   1874 T=   551. E= -.22859998E+03 F= -.22572451E+03 E0= -.22572451E+03  EK= 0.90433E+01 SP= -.12E+02 SK= 0.23E-02
   1875 T=   561. E= -.22860034E+03 F= -.22590851E+03 E0= -.22590851E+03  EK= 0.92044E+01 SP= -.12E+02 SK= 0.49E-03
   1876 T=   572. E= -.22860086E+03 F= -.22610024E+03 E0= -.22610024E+03  EK= 0.93873E+01 SP= -.12E+02 SK= 0.10E-04
   1877 T=   583. E= -.22860146E+03 F= -.22629036E+03 E0= -.22629036E+03  EK= 0.95788E+01 SP= -.12E+02 SK= 0.83E-04
   1878 T=   595. E= -.22860209E+03 F= -.22646840E+03 E0= -.22646840E+03  EK= 0.97644E+01 SP= -.12E+02 SK= 0.22E-03
   1879 T=   605. E= -.22860267E+03 F= -.22662389E+03 E0= -.22662389E+03  EK= 0.99293E+01 SP= -.12E+02 SK= 0.19E-03
   1880 T=   613. E= -.22860310E+03 F= -.22674762E+03 E0= -.22674762E+03  EK= 0.10060E+02 SP= -.12E+02 SK= 0.61E-04
   1881 T=   618. E= -.22860331E+03 F= -.22683283E+03 E0= -.22683283E+03  EK= 0.10147E+02 SP= -.12E+02 SK= 0.47E-05
   1882 T=   620. E= -.22860328E+03 F= -.22687604E+03 E0= -.22687604E+03  EK= 0.10185E+02 SP= -.12E+02 SK= 0.21E-03
   1883 T=   620. E= -.22860302E+03 F= -.22687729E+03 E0= -.22687729E+03  EK= 0.10171E+02 SP= -.12E+02 SK= 0.73E-03
   1884 T=   616. E= -.22860255E+03 F= -.22683998E+03 E0= -.22683998E+03  EK= 0.10111E+02 SP= -.12E+02 SK= 0.15E-02
   1885 T=   610. E= -.22860196E+03 F= -.22677048E+03 E0= -.22677048E+03  EK= 0.10011E+02 SP= -.12E+02 SK= 0.22E-02
   1886 T=   602. E= -.22860130E+03 F= -.22667724E+03 E0= -.22667724E+03  EK= 0.98844E+01 SP= -.12E+02 SK= 0.26E-02
   1887 T=   593. E= -.22860067E+03 F= -.22656979E+03 E0= -.22656979E+03  EK= 0.97423E+01 SP= -.12E+02 SK= 0.25E-02
   1888 T=   585. E= -.22860012E+03 F= -.22645767E+03 E0= -.22645767E+03  EK= 0.95981E+01 SP= -.12E+02 SK= 0.20E-02
   1889 T=   576. E= -.22859973E+03 F= -.22634938E+03 E0= -.22634938E+03  EK= 0.94636E+01 SP= -.12E+02 SK= 0.12E-02
   1890 T=   569. E= -.22859951E+03 F= -.22625139E+03 E0= -.22625139E+03  EK= 0.93483E+01 SP= -.12E+02 SK= 0.35E-03
   1891 T=   564. E= -.22859945E+03 F= -.22616775E+03 E0= -.22616775E+03  EK= 0.92585E+01 SP= -.12E+02 SK= 0.16E-07
   1892 T=   560. E= -.22859956E+03 F= -.22609991E+03 E0= -.22609991E+03  EK= 0.91977E+01 SP= -.12E+02 SK= 0.47E-03
   1893 T=   558. E= -.22859976E+03 F= -.22604705E+03 E0= -.22604705E+03  EK= 0.91663E+01 SP= -.12E+02 SK= 0.20E-02
   1894 T=   558. E= -.22859999E+03 F= -.22600676E+03 E0= -.22600676E+03  EK= 0.91627E+01 SP= -.12E+02 SK= 0.47E-02
   1895 T=   559. E= -.22860019E+03 F= -.22597604E+03 E0= -.22597604E+03  EK= 0.91840E+01 SP= -.12E+02 SK= 0.85E-02
   1896 T=   562. E= -.22860030E+03 F= -.22595235E+03 E0= -.22595235E+03  EK= 0.92276E+01 SP= -.12E+02 SK= 0.13E-01
   1897 T=   566. E= -.22860032E+03 F= -.22593431E+03 E0= -.22593431E+03  EK= 0.92913E+01 SP= -.12E+02 SK= 0.18E-01
   1898 T=   571. E= -.22860027E+03 F= -.22592194E+03 E0= -.22592194E+03  EK= 0.93740E+01 SP= -.12E+02 SK= 0.23E-01
   1899 T=   577. E= -.22860020E+03 F= -.22591629E+03 E0= -.22591629E+03  EK= 0.94752E+01 SP= -.12E+02 SK= 0.28E-01
   1900 T=   584. E= -.22860017E+03 F= -.22591878E+03 E0= -.22591878E+03  EK= 0.95942E+01 SP= -.12E+02 SK= 0.32E-01
   1901 T=   593. E= -.22860022E+03 F= -.22593048E+03 E0= -.22593048E+03  EK= 0.97296E+01 SP= -.12E+02 SK= 0.34E-01
   1902 T=   602. E= -.22860039E+03 F= -.22595147E+03 E0= -.22595147E+03  EK= 0.98785E+01 SP= -.13E+02 SK= 0.34E-01
   1903 T=   611. E= -.22860067E+03 F= -.22598051E+03 E0= -.22598051E+03  EK= 0.10036E+02 SP= -.13E+02 SK= 0.32E-01
   1904 T=   621. E= -.22860103E+03 F= -.22601505E+03 E0= -.22601505E+03  EK= 0.10196E+02 SP= -.13E+02 SK= 0.29E-01
   1905 T=   630. E= -.22860149E+03 F= -.22605151E+03 E0= -.22605151E+03  EK= 0.10350E+02 SP= -.13E+02 SK= 0.24E-01
   1906 T=   639. E= -.22860201E+03 F= -.22608534E+03 E0= -.22608534E+03  EK= 0.10490E+02 SP= -.13E+02 SK= 0.18E-01
   1907 T=   646. E= -.22860254E+03 F= -.22611133E+03 E0= -.22611133E+03  EK= 0.10605E+02 SP= -.13E+02 SK= 0.12E-01
   1908 T=   651. E= -.22860300E+03 F= -.22612402E+03 E0= -.22612402E+03  EK= 0.10688E+02 SP= -.13E+02 SK= 0.61E-02
   1909 T=   654. E= -.22860334E+03 F= -.22611858E+03 E0= -.22611858E+03  EK= 0.10730E+02 SP= -.13E+02 SK= 0.22E-02
   1910 T=   653. E= -.22860350E+03 F= -.22609151E+03 E0= -.22609151E+03  EK= 0.10726E+02 SP= -.13E+02 SK= 0.22E-03
   1911 T=   650. E= -.22860342E+03 F= -.22604127E+03 E0= -.22604127E+03  EK= 0.10675E+02 SP= -.13E+02 SK= 0.27E-03
   1912 T=   644. E= -.22860312E+03 F= -.22596890E+03 E0= -.22596890E+03  EK= 0.10580E+02 SP= -.13E+02 SK= 0.20E-02
   1913 T=   636. E= -.22860260E+03 F= -.22587816E+03 E0= -.22587816E+03  EK= 0.10447E+02 SP= -.13E+02 SK= 0.48E-02
   1914 T=   627. E= -.22860198E+03 F= -.22577534E+03 E0= -.22577534E+03  EK= 0.10287E+02 SP= -.13E+02 SK= 0.79E-02
   1915 T=   616. E= -.22860132E+03 F= -.22566822E+03 E0= -.22566822E+03  EK= 0.10111E+02 SP= -.13E+02 SK= 0.10E-01
   1916 T=   605. E= -.22860071E+03 F= -.22556522E+03 E0= -.22556522E+03  EK= 0.99341E+01 SP= -.13E+02 SK= 0.12E-01
   1917 T=   595. E= -.22860023E+03 F= -.22547428E+03 E0= -.22547428E+03  EK= 0.97675E+01 SP= -.13E+02 SK= 0.12E-01
   1918 T=   586. E= -.22859990E+03 F= -.22540183E+03 E0= -.22540183E+03  EK= 0.96220E+01 SP= -.13E+02 SK= 0.11E-01
   1919 T=   579. E= -.22859980E+03 F= -.22535206E+03 E0= -.22535206E+03  EK= 0.95049E+01 SP= -.13E+02 SK= 0.90E-02
   1920 T=   574. E= -.22859991E+03 F= -.22532597E+03 E0= -.22532597E+03  EK= 0.94196E+01 SP= -.13E+02 SK= 0.66E-02
   1921 T=   571. E= -.22860020E+03 F= -.22532133E+03 E0= -.22532133E+03  EK= 0.93657E+01 SP= -.13E+02 SK= 0.43E-02
   1922 T=   569. E= -.22860061E+03 F= -.22533326E+03 E0= -.22533326E+03  EK= 0.93393E+01 SP= -.13E+02 SK= 0.24E-02
   1923 T=   569. E= -.22860106E+03 F= -.22535504E+03 E0= -.22535504E+03  EK= 0.93343E+01 SP= -.13E+02 SK= 0.96E-03
   1924 T=   569. E= -.22860148E+03 F= -.22537930E+03 E0= -.22537930E+03  EK= 0.93434E+01 SP= -.13E+02 SK= 0.18E-03
   1925 T=   570. E= -.22860180E+03 F= -.22539931E+03 E0= -.22539931E+03  EK= 0.93597E+01 SP= -.13E+02 SK= 0.12E-04
   1926 T=   571. E= -.22860200E+03 F= -.22540998E+03 E0= -.22540998E+03  EK= 0.93779E+01 SP= -.13E+02 SK= 0.39E-03
   1927 T=   572. E= -.22860204E+03 F= -.22540836E+03 E0= -.22540836E+03  EK= 0.93947E+01 SP= -.13E+02 SK= 0.13E-02
   1928 T=   573. E= -.22860195E+03 F= -.22539401E+03 E0= -.22539401E+03  EK= 0.94091E+01 SP= -.13E+02 SK= 0.26E-02
   1929 T=   574. E= -.22860174E+03 F= -.22536888E+03 E0= -.22536888E+03  EK= 0.94230E+01 SP= -.13E+02 SK= 0.43E-02
   1930 T=   575. E= -.22860140E+03 F= -.22533708E+03 E0= -.22533708E+03  EK= 0.94400E+01 SP= -.13E+02 SK= 0.63E-02
   1931 T=   577. E= -.22860100E+03 F= -.22530463E+03 E0= -.22530463E+03  EK= 0.94657E+01 SP= -.13E+02 SK= 0.86E-02
   1932 T=   579. E= -.22860059E+03 F= -.22527870E+03 E0= -.22527870E+03  EK= 0.95069E+01 SP= -.13E+02 SK= 0.11E-01
   1933 T=   583. E= -.22860025E+03 F= -.22526659E+03 E0= -.22526659E+03  EK= 0.95698E+01 SP= -.13E+02 SK= 0.13E-01
   1934 T=   588. E= -.22860014E+03 F= -.22527408E+03 E0= -.22527408E+03  EK= 0.96590E+01 SP= -.13E+02 SK= 0.15E-01
   1935 T=   595. E= -.22860031E+03 F= -.22530381E+03 E0= -.22530381E+03  EK= 0.97751E+01 SP= -.13E+02 SK= 0.16E-01
   1936 T=   604. E= -.22860076E+03 F= -.22535444E+03 E0= -.22535444E+03  EK= 0.99143E+01 SP= -.13E+02 SK= 0.16E-01
   1937 T=   613. E= -.22860149E+03 F= -.22542044E+03 E0= -.22542044E+03  EK= 0.10068E+02 SP= -.13E+02 SK= 0.15E-01
   1938 T=   623. E= -.22860237E+03 F= -.22549264E+03 E0= -.22549264E+03  EK= 0.10223E+02 SP= -.13E+02 SK= 0.12E-01
   1939 T=   631. E= -.22860328E+03 F= -.22555988E+03 E0= -.22555988E+03  EK= 0.10363E+02 SP= -.13E+02 SK= 0.88E-02
   1940 T=   638. E= -.22860403E+03 F= -.22561092E+03 E0= -.22561092E+03  EK= 0.10475E+02 SP= -.13E+02 SK= 0.53E-02
   1941 T=   642. E= -.22860447E+03 F= -.22563672E+03 E0= -.22563672E+03  EK= 0.10546E+02 SP= -.14E+02 SK= 0.23E-02
   1942 T=   644. E= -.22860456E+03 F= -.22563239E+03 E0= -.22563239E+03  EK= 0.10567E+02 SP= -.14E+02 SK= 0.48E-03
   1943 T=   642. E= -.22860424E+03 F= -.22559789E+03 E0= -.22559789E+03  EK= 0.10540E+02 SP= -.14E+02 SK= 0.17E-04
   1944 T=   638. E= -.22860361E+03 F= -.22553832E+03 E0= -.22553832E+03  EK= 0.10469E+02 SP= -.14E+02 SK= 0.80E-03
   1945 T=   631. E= -.22860278E+03 F= -.22546288E+03 E0= -.22546288E+03  EK= 0.10366E+02 SP= -.14E+02 SK= 0.24E-02
   1946 T=   624. E= -.22860195E+03 F= -.22538312E+03 E0= -.22538312E+03  EK= 0.10244E+02 SP= -.13E+02 SK= 0.44E-02
   1947 T=   616. E= -.22860125E+03 F= -.22531069E+03 E0= -.22531069E+03  EK= 0.10120E+02 SP= -.13E+02 SK= 0.62E-02
   1948 T=   610. E= -.22860081E+03 F= -.22525528E+03 E0= -.22525528E+03  EK= 0.10006E+02 SP= -.13E+02 SK= 0.76E-02
   1949 T=   604. E= -.22860069E+03 F= -.22522277E+03 E0= -.22522277E+03  EK= 0.99104E+01 SP= -.13E+02 SK= 0.84E-02
   1950 T=   599. E= -.22860080E+03 F= -.22521459E+03 E0= -.22521459E+03  EK= 0.98374E+01 SP= -.13E+02 SK= 0.87E-02
   1951 T=   596. E= -.22860110E+03 F= -.22522841E+03 E0= -.22522841E+03  EK= 0.97865E+01 SP= -.13E+02 SK= 0.85E-02
   1952 T=   594. E= -.22860141E+03 F= -.22525937E+03 E0= -.22525937E+03  EK= 0.97539E+01 SP= -.13E+02 SK= 0.81E-02
   1953 T=   593. E= -.22860167E+03 F= -.22530195E+03 E0= -.22530195E+03  EK= 0.97350E+01 SP= -.13E+02 SK= 0.76E-02
   1954 T=   592. E= -.22860185E+03 F= -.22535127E+03 E0= -.22535127E+03  EK= 0.97253E+01 SP= -.13E+02 SK= 0.70E-02
   1955 T=   592. E= -.22860197E+03 F= -.22540349E+03 E0= -.22540349E+03  EK= 0.97210E+01 SP= -.13E+02 SK= 0.64E-02
   1956 T=   592. E= -.22860210E+03 F= -.22545558E+03 E0= -.22545558E+03  EK= 0.97193E+01 SP= -.13E+02 SK= 0.58E-02
 bond charge predicted
       N       E                     dE             d eps       ncg     rms          rms(c)
DAV:   1    -0.226285463691E+03   -0.17975E+01   -0.19135E+03   264   0.641E+01
DAV:   2    -0.238417371069E+03   -0.12132E+02   -0.11988E+02   348   0.164E+01
DAV:   3    -0.238690591576E+03   -0.27322E+00   -0.27271E+00   324   0.268E+00
DAV:   4    -0.238697299588E+03   -0.67080E-02   -0.67062E-02   336   0.425E-01
DAV:   5    -0.238697560770E+03   -0.26118E-03   -0.26117E-03   324   0.867E-02    0.867E+00
RMM:   6    -0.228458141851E+03    0.10239E+02   -0.14099E+01   264   0.263E+00    0.481E+00
RMM:   7    -0.226022550510E+03    0.24356E+01   -0.30164E+00   264   0.190E+00    0.267E+00
RMM:   8    -0.225455559751E+03    0.56699E+00   -0.15712E+00   264   0.125E+00    0.127E+00
RMM:   9    -0.225438189428E+03    0.17370E-01   -0.38223E-01   266   0.768E-01    0.822E-01
RMM:  10    -0.225419755651E+03    0.18434E-01   -0.12432E-01   266   0.470E-01    0.409E-01
RMM:  11    -0.225420136191E+03   -0.38054E-03   -0.37284E-02   273   0.260E-01    0.202E-01
RMM:  12    -0.225420712295E+03   -0.57610E-03   -0.92871E-03   267   0.150E-01    0.983E-02
RMM:  13    -0.225420643372E+03    0.68923E-04   -0.23444E-03   267   0.755E-02    0.520E-02
RMM:  14    -0.225420655409E+03   -0.12037E-04   -0.67834E-04   258   0.440E-02
   1957 T=   592. E= -.22852175E+03 F= -.22542066E+03 E0= -.22540438E+03  EK= 0.97137E+01 SP= -.13E+02 SK= 0.52E-02
   1958 T=   591. E= -.22860897E+03 F= -.22554756E+03 E0= -.22554756E+03  EK= 0.97052E+01 SP= -.13E+02 SK= 0.46E-02
   1959 T=   590. E= -.22860914E+03 F= -.22558113E+03 E0= -.22558113E+03  EK= 0.96935E+01 SP= -.13E+02 SK= 0.40E-02
   1960 T=   589. E= -.22860934E+03 F= -.22560190E+03 E0= -.22560190E+03  EK= 0.96724E+01 SP= -.13E+02 SK= 0.34E-02
   1961 T=   587. E= -.22860947E+03 F= -.22560658E+03 E0= -.22560658E+03  EK= 0.96391E+01 SP= -.13E+02 SK= 0.27E-02
   1962 T=   584. E= -.22860946E+03 F= -.22559292E+03 E0= -.22559292E+03  EK= 0.95924E+01 SP= -.13E+02 SK= 0.20E-02
   1963 T=   581. E= -.22860927E+03 F= -.22556089E+03 E0= -.22556089E+03  EK= 0.95334E+01 SP= -.13E+02 SK= 0.12E-02
   1964 T=   577. E= -.22860885E+03 F= -.22551325E+03 E0= -.22551325E+03  EK= 0.94663E+01 SP= -.13E+02 SK= 0.56E-03
   1965 T=   573. E= -.22860826E+03 F= -.22545614E+03 E0= -.22545614E+03  EK= 0.93986E+01 SP= -.13E+02 SK= 0.93E-04
   1966 T=   569. E= -.22860763E+03 F= -.22539816E+03 E0= -.22539816E+03  EK= 0.93403E+01 SP= -.13E+02 SK= 0.45E-04
   1967 T=   567. E= -.22860709E+03 F= -.22534851E+03 E0= -.22534851E+03  EK= 0.93016E+01 SP= -.13E+02 SK= 0.62E-03
   1968 T=   566. E= -.22860672E+03 F= -.22531506E+03 E0= -.22531506E+03  EK= 0.92912E+01 SP= -.13E+02 SK= 0.19E-02
   1969 T=   567. E= -.22860667E+03 F= -.22530264E+03 E0= -.22530264E+03  EK= 0.93141E+01 SP= -.13E+02 SK= 0.40E-02
   1970 T=   571. E= -.22860692E+03 F= -.22531163E+03 E0= -.22531163E+03  EK= 0.93703E+01 SP= -.13E+02 SK= 0.65E-02
   1971 T=   576. E= -.22860742E+03 F= -.22533791E+03 E0= -.22533791E+03  EK= 0.94547E+01 SP= -.13E+02 SK= 0.91E-02
   1972 T=   582. E= -.22860806E+03 F= -.22537385E+03 E0= -.22537385E+03  EK= 0.95581E+01 SP= -.13E+02 SK= 0.11E-01
   1973 T=   589. E= -.22860874E+03 F= -.22540980E+03 E0= -.22540980E+03  EK= 0.96688E+01 SP= -.13E+02 SK= 0.13E-01
   1974 T=   595. E= -.22860932E+03 F= -.22543600E+03 E0= -.22543600E+03  EK= 0.97747E+01 SP= -.13E+02 SK= 0.14E-01
   1975 T=   601. E= -.22860970E+03 F= -.22544446E+03 E0= -.22544446E+03  EK= 0.98652E+01 SP= -.13E+02 SK= 0.14E-01
   1976 T=   605. E= -.22860984E+03 F= -.22543041E+03 E0= -.22543041E+03  EK= 0.99333E+01 SP= -.13E+02 SK= 0.13E-01
   1977 T=   608. E= -.22860973E+03 F= -.22539297E+03 E0= -.22539297E+03  EK= 0.99761E+01 SP= -.13E+02 SK= 0.12E-01
   1978 T=   609. E= -.22860938E+03 F= -.22533523E+03 E0= -.22533523E+03  EK= 0.99955E+01 SP= -.13E+02 SK= 0.11E-01
   1979 T=   609. E= -.22860887E+03 F= -.22526373E+03 E0= -.22526373E+03  EK= 0.99972E+01 SP= -.13E+02 SK= 0.99E-02
   1980 T=   609. E= -.22860828E+03 F= -.22518732E+03 E0= -.22518732E+03  EK= 0.99898E+01 SP= -.13E+02 SK= 0.88E-02
   1981 T=   608. E= -.22860771E+03 F= -.22511589E+03 E0= -.22511589E+03  EK= 0.99832E+01 SP= -.13E+02 SK= 0.78E-02
   1982 T=   608. E= -.22860729E+03 F= -.22505881E+03 E0= -.22505881E+03  EK= 0.99870E+01 SP= -.14E+02 SK= 0.68E-02
   1983 T=   610. E= -.22860704E+03 F= -.22502338E+03 E0= -.22502338E+03  EK= 0.10008E+02 SP= -.14E+02 SK= 0.59E-02
   1984 T=   612. E= -.22860696E+03 F= -.22501426E+03 E0= -.22501426E+03  EK= 0.10051E+02 SP= -.14E+02 SK= 0.49E-02
   1985 T=   616. E= -.22860707E+03 F= -.22503335E+03 E0= -.22503335E+03  EK= 0.10117E+02 SP= -.14E+02 SK= 0.37E-02
   1986 T=   622. E= -.22860730E+03 F= -.22507981E+03 E0= -.22507981E+03  EK= 0.10203E+02 SP= -.14E+02 SK= 0.24E-02
   1987 T=   628. E= -.22860763E+03 F= -.22515067E+03 E0= -.22515067E+03  EK= 0.10304E+02 SP= -.14E+02 SK= 0.12E-02
   1988 T=   634. E= -.22860809E+03 F= -.22524111E+03 E0= -.22524111E+03  EK= 0.10412E+02 SP= -.14E+02 SK= 0.24E-03
   1989 T=   641. E= -.22860858E+03 F= -.22534459E+03 E0= -.22534459E+03  EK= 0.10519E+02 SP= -.14E+02 SK= 0.49E-04
   1990 T=   646. E= -.22860907E+03 F= -.22545370E+03 E0= -.22545370E+03  EK= 0.10612E+02 SP= -.14E+02 SK= 0.11E-02
   1991 T=   651. E= -.22860949E+03 F= -.22556080E+03 E0= -.22556080E+03  EK= 0.10683E+02 SP= -.14E+02 SK= 0.39E-02
   1992 T=   653. E= -.22860980E+03 F= -.22565862E+03 E0= -.22565862E+03  EK= 0.10721E+02 SP= -.14E+02 SK= 0.88E-02
   1993 T=   653. E= -.22860997E+03 F= -.22574077E+03 E0= -.22574077E+03  EK= 0.10720E+02 SP= -.14E+02 SK= 0.16E-01
   1994 T=   650. E= -.22861006E+03 F= -.22580179E+03 E0= -.22580179E+03  EK= 0.10674E+02 SP= -.14E+02 SK= 0.24E-01
   1995 T=   645. E= -.22861000E+03 F= -.22583713E+03 E0= -.22583713E+03  EK= 0.10580E+02 SP= -.13E+02 SK= 0.34E-01
   1996 T=   636. E= -.22860981E+03 F= -.22584367E+03 E0= -.22584367E+03  EK= 0.10440E+02 SP= -.13E+02 SK= 0.44E-01
   1997 T=   625. E= -.22860948E+03 F= -.22581972E+03 E0= -.22581972E+03  EK= 0.10256E+02 SP= -.13E+02 SK= 0.52E-01
   1998 T=   611. E= -.22860906E+03 F= -.22576549E+03 E0= -.22576549E+03  EK= 0.10033E+02 SP= -.13E+02 SK= 0.57E-01
   1999 T=   596. E= -.22860856E+03 F= -.22568300E+03 E0= -.22568300E+03  EK= 0.97821E+01 SP= -.13E+02 SK= 0.59E-01
   2000 T=   579. E= -.22860800E+03 F= -.22557632E+03 E0= -.22557632E+03  EK= 0.95124E+01 SP= -.13E+02 SK= 0.56E-01
   2001 T=   563. E= -.22860739E+03 F= -.22545163E+03 E0= -.22545163E+03  EK= 0.92369E+01 SP= -.12E+02 SK= 0.48E-01
   2002 T=   546. E= -.22860678E+03 F= -.22531708E+03 E0= -.22531708E+03  EK= 0.89695E+01 SP= -.12E+02 SK= 0.38E-01
   2003 T=   531. E= -.22860619E+03 F= -.22518229E+03 E0= -.22518229E+03  EK= 0.87248E+01 SP= -.12E+02 SK= 0.25E-01
   2004 T=   519. E= -.22860563E+03 F= -.22505760E+03 E0= -.22505760E+03  EK= 0.85169E+01 SP= -.12E+02 SK= 0.13E-01
   2005 T=   509. E= -.22860512E+03 F= -.22495340E+03 E0= -.22495340E+03  EK= 0.83591E+01 SP= -.12E+02 SK= 0.43E-02
   2006 T=   503. E= -.22860470E+03 F= -.22487928E+03 E0= -.22487928E+03  EK= 0.82627E+01 SP= -.12E+02 SK= 0.13E-03
   2007 T=   502. E= -.22860439E+03 F= -.22484306E+03 E0= -.22484306E+03  EK= 0.82366E+01 SP= -.12E+02 SK= 0.20E-02
   2008 T=   505. E= -.22860419E+03 F= -.22484982E+03 E0= -.22484982E+03  EK= 0.82864E+01 SP= -.12E+02 SK= 0.10E-01
   2009 T=   513. E= -.22860412E+03 F= -.22490171E+03 E0= -.22490171E+03  EK= 0.84140E+01 SP= -.12E+02 SK= 0.24E-01
   2010 T=   525. E= -.22860421E+03 F= -.22499772E+03 E0= -.22499772E+03  EK= 0.86172E+01 SP= -.12E+02 SK= 0.41E-01
   2011 T=   542. E= -.22860448E+03 F= -.22513371E+03 E0= -.22513371E+03  EK= 0.88898E+01 SP= -.12E+02 SK= 0.58E-01
   2012 T=   562. E= -.22860493E+03 F= -.22530276E+03 E0= -.22530276E+03  EK= 0.92214E+01 SP= -.13E+02 SK= 0.72E-01
   2013 T=   585. E= -.22860556E+03 F= -.22549574E+03 E0= -.22549574E+03  EK= 0.95975E+01 SP= -.13E+02 SK= 0.80E-01
   2014 T=   609. E= -.22860640E+03 F= -.22570209E+03 E0= -.22570209E+03  EK= 0.10000E+02 SP= -.13E+02 SK= 0.81E-01
   2015 T=   634. E= -.22860739E+03 F= -.22591033E+03 E0= -.22591033E+03  EK= 0.10409E+02 SP= -.13E+02 SK= 0.74E-01
   2016 T=   658. E= -.22860846E+03 F= -.22610886E+03 E0= -.22610886E+03  EK= 0.10800E+02 SP= -.13E+02 SK= 0.59E-01
   2017 T=   679. E= -.22860954E+03 F= -.22628683E+03 E0= -.22628683E+03  EK= 0.11150E+02 SP= -.14E+02 SK= 0.41E-01
   2018 T=   697. E= -.22861050E+03 F= -.22643468E+03 E0= -.22643468E+03  EK= 0.11439E+02 SP= -.14E+02 SK= 0.23E-01
   2019 T=   709. E= -.22861118E+03 F= -.22654499E+03 E0= -.22654499E+03  EK= 0.11647E+02 SP= -.14E+02 SK= 0.79E-02
   2020 T=   716. E= -.22861146E+03 F= -.22661333E+03 E0= -.22661333E+03  EK= 0.11761E+02 SP= -.14E+02 SK= 0.48E-03
   2021 T=   717. E= -.22861133E+03 F= -.22663886E+03 E0= -.22663886E+03  EK= 0.11776E+02 SP= -.14E+02 SK= 0.22E-02
   2022 T=   712. E= -.22861079E+03 F= -.22662424E+03 E0= -.22662424E+03  EK= 0.11694E+02 SP= -.14E+02 SK= 0.13E-01
   2023 T=   702. E= -.22860997E+03 F= -.22657520E+03 E0= -.22657520E+03  EK= 0.11524E+02 SP= -.14E+02 SK= 0.32E-01
   2024 T=   687. E= -.22860896E+03 F= -.22649955E+03 E0= -.22649955E+03  EK= 0.11282E+02 SP= -.13E+02 SK= 0.55E-01
   2025 T=   669. E= -.22860796E+03 F= -.22640624E+03 E0= -.22640624E+03  EK= 0.10985E+02 SP= -.13E+02 SK= 0.79E-01
   2026 T=   649. E= -.22860707E+03 F= -.22630395E+03 E0= -.22630395E+03  EK= 0.10654E+02 SP= -.13E+02 SK= 0.10E+00
   2027 T=   628. E= -.22860636E+03 F= -.22620030E+03 E0= -.22620030E+03  EK= 0.10307E+02 SP= -.13E+02 SK= 0.12E+00
   2028 T=   607. E= -.22860585E+03 F= -.22610143E+03 E0= -.22610143E+03  EK= 0.99603E+01 SP= -.13E+02 SK= 0.12E+00
   2029 T=   587. E= -.22860551E+03 F= -.22601206E+03 E0= -.22601206E+03  EK= 0.96281E+01 SP= -.12E+02 SK= 0.12E+00
   2030 T=   568. E= -.22860535E+03 F= -.22593567E+03 E0= -.22593567E+03  EK= 0.93216E+01 SP= -.12E+02 SK= 0.11E+00
   2031 T=   551. E= -.22860530E+03 F= -.22587447E+03 E0= -.22587447E+03  EK= 0.90489E+01 SP= -.12E+02 SK= 0.98E-01
   2032 T=   537. E= -.22860532E+03 F= -.22582982E+03 E0= -.22582982E+03  EK= 0.88160E+01 SP= -.12E+02 SK= 0.79E-01
   2033 T=   526. E= -.22860541E+03 F= -.22580230E+03 E0= -.22580230E+03  EK= 0.86268E+01 SP= -.11E+02 SK= 0.58E-01
   2034 T=   517. E= -.22860557E+03 F= -.22579159E+03 E0= -.22579159E+03  EK= 0.84832E+01 SP= -.11E+02 SK= 0.38E-01
   2035 T=   511. E= -.22860576E+03 F= -.22579629E+03 E0= -.22579629E+03  EK= 0.83854E+01 SP= -.11E+02 SK= 0.21E-01
   2036 T=   508. E= -.22860600E+03 F= -.22581410E+03 E0= -.22581410E+03  EK= 0.83319E+01 SP= -.11E+02 SK= 0.88E-02
   2037 T=   507. E= -.22860621E+03 F= -.22584180E+03 E0= -.22584180E+03  EK= 0.83198E+01 SP= -.11E+02 SK= 0.16E-02
   2038 T=   508. E= -.22860642E+03 F= -.22587583E+03 E0= -.22587583E+03  EK= 0.83456E+01 SP= -.11E+02 SK= 0.17E-03
   2039 T=   512. E= -.22860659E+03 F= -.22591249E+03 E0= -.22591249E+03  EK= 0.84053E+01 SP= -.11E+02 SK= 0.42E-02
   2040 T=   517. E= -.22860672E+03 F= -.22594825E+03 E0= -.22594825E+03  EK= 0.84945E+01 SP= -.11E+02 SK= 0.13E-01
   2041 T=   524. E= -.22860682E+03 F= -.22598010E+03 E0= -.22598010E+03  EK= 0.86092E+01 SP= -.11E+02 SK= 0.25E-01
   2042 T=   533. E= -.22860688E+03 F= -.22600562E+03 E0= -.22600562E+03  EK= 0.87455E+01 SP= -.11E+02 SK= 0.40E-01
   2043 T=   542. E= -.22860694E+03 F= -.22602318E+03 E0= -.22602318E+03  EK= 0.88997E+01 SP= -.12E+02 SK= 0.56E-01
   2044 T=   552. E= -.22860702E+03 F= -.22603160E+03 E0= -.22603160E+03  EK= 0.90682E+01 SP= -.12E+02 SK= 0.71E-01
   2045 T=   563. E= -.22860709E+03 F= -.22603008E+03 E0= -.22603008E+03  EK= 0.92475E+01 SP= -.12E+02 SK= 0.84E-01
   2046 T=   575. E= -.22860718E+03 F= -.22601848E+03 E0= -.22601848E+03  EK= 0.94341E+01 SP= -.12E+02 SK= 0.95E-01
   2047 T=   586. E= -.22860725E+03 F= -.22599734E+03 E0= -.22599734E+03  EK= 0.96246E+01 SP= -.12E+02 SK= 0.10E+00
   2048 T=   598. E= -.22860730E+03 F= -.22596797E+03 E0= -.22596797E+03  EK= 0.98162E+01 SP= -.13E+02 SK= 0.10E+00
   2049 T=   610. E= -.22860734E+03 F= -.22593253E+03 E0= -.22593253E+03  EK= 0.10006E+02 SP= -.13E+02 SK= 0.10E+00
   2050 T=   621. E= -.22860740E+03 F= -.22589388E+03 E0= -.22589388E+03  EK= 0.10193E+02 SP= -.13E+02 SK= 0.96E-01
   2051 T=   632. E= -.22860748E+03 F= -.22585518E+03 E0= -.22585518E+03  EK= 0.10375E+02 SP= -.13E+02 SK= 0.86E-01
   2052 T=   643. E= -.22860763E+03 F= -.22581946E+03 E0= -.22581946E+03  EK= 0.10549E+02 SP= -.13E+02 SK= 0.74E-01
   2053 T=   653. E= -.22860789E+03 F= -.22578892E+03 E0= -.22578892E+03  EK= 0.10712E+02 SP= -.14E+02 SK= 0.59E-01
   2054 T=   662. E= -.22860828E+03 F= -.22576426E+03 E0= -.22576426E+03  EK= 0.10860E+02 SP= -.14E+02 SK= 0.44E-01
   2055 T=   669. E= -.22860878E+03 F= -.22574415E+03 E0= -.22574415E+03  EK= 0.10986E+02 SP= -.14E+02 SK= 0.29E-01
   2056 T=   675. E= -.22860932E+03 F= -.22572543E+03 E0= -.22572543E+03  EK= 0.11083E+02 SP= -.14E+02 SK= 0.16E-01
   2057 T=   679. E= -.22860987E+03 F= -.22570362E+03 E0= -.22570362E+03  EK= 0.11143E+02 SP= -.14E+02 SK= 0.66E-02
   2058 T=   680. E= -.22861030E+03 F= -.22567343E+03 E0= -.22567343E+03  EK= 0.11158E+02 SP= -.14E+02 SK= 0.12E-02
   2059 T=   678. E= -.22861052E+03 F= -.22563016E+03 E0= -.22563016E+03  EK= 0.11123E+02 SP= -.14E+02 SK= 0.16E-03
   2060 T=   672. E= -.22861049E+03 F= -.22557096E+03 E0= -.22557096E+03  EK= 0.11036E+02 SP= -.14E+02 SK= 0.33E-02
   2061 T=   664. E= -.22861017E+03 F= -.22549554E+03 E0= -.22549554E+03  EK= 0.10901E+02 SP= -.14E+02 SK= 0.96E-02
   2062 T=   653. E= -.22860966E+03 F= -.22540648E+03 E0= -.22540648E+03  EK= 0.10723E+02 SP= -.14E+02 SK= 0.18E-01
   2063 T=   641. E= -.22860904E+03 F= -.22530880E+03 E0= -.22530880E+03  EK= 0.10515E+02 SP= -.14E+02 SK= 0.26E-01
   2064 T=   627. E= -.22860839E+03 F= -.22520898E+03 E0= -.22520898E+03  EK= 0.10289E+02 SP= -.14E+02 SK= 0.33E-01
   2065 T=   613. E= -.22860778E+03 F= -.22511423E+03 E0= -.22511423E+03  EK= 0.10059E+02 SP= -.14E+02 SK= 0.38E-01
   2066 T=   599. E= -.22860732E+03 F= -.22503144E+03 E0= -.22503144E+03  EK= 0.98386E+01 SP= -.13E+02 SK= 0.39E-01
   2067 T=   587. E= -.22860705E+03 F= -.22496602E+03 E0= -.22496602E+03  EK= 0.96377E+01 SP= -.13E+02 SK= 0.38E-01
   2068 T=   577. E= -.22860700E+03 F= -.22492084E+03 E0= -.22492084E+03  EK= 0.94639E+01 SP= -.13E+02 SK= 0.34E-01
   2069 T=   568. E= -.22860714E+03 F= -.22489562E+03 E0= -.22489562E+03  EK= 0.93207E+01 SP= -.13E+02 SK= 0.29E-01
   2070 T=   561. E= -.22860739E+03 F= -.22488734E+03 E0= -.22488734E+03  EK= 0.92076E+01 SP= -.13E+02 SK= 0.22E-01
   2071 T=   556. E= -.22860771E+03 F= -.22489094E+03 E0= -.22489094E+03  EK= 0.91217E+01 SP= -.13E+02 SK= 0.16E-01
   2072 T=   552. E= -.22860795E+03 F= -.22490046E+03 E0= -.22490046E+03  EK= 0.90587E+01 SP= -.13E+02 SK= 0.98E-02
   2073 T=   549. E= -.22860807E+03 F= -.22491073E+03 E0= -.22491073E+03  EK= 0.90145E+01 SP= -.13E+02 SK= 0.50E-02
   2074 T=   547. E= -.22860804E+03 F= -.22491844E+03 E0= -.22491844E+03  EK= 0.89865E+01 SP= -.13E+02 SK= 0.17E-02
   2075 T=   547. E= -.22860788E+03 F= -.22492243E+03 E0= -.22492243E+03  EK= 0.89740E+01 SP= -.13E+02 SK= 0.12E-03
   2076 T=   547. E= -.22860763E+03 F= -.22492375E+03 E0= -.22492375E+03  EK= 0.89782E+01 SP= -.13E+02 SK= 0.38E-03
   2077 T=   548. E= -.22860734E+03 F= -.22492493E+03 E0= -.22492493E+03  EK= 0.90016E+01 SP= -.13E+02 SK= 0.24E-02
   2078 T=   551. E= -.22860710E+03 F= -.22492914E+03 E0= -.22492914E+03  EK= 0.90468E+01 SP= -.13E+02 SK= 0.61E-02
   2079 T=   555. E= -.22860695E+03 F= -.22493905E+03 E0= -.22493905E+03  EK= 0.91157E+01 SP= -.13E+02 SK= 0.11E-01
   2080 T=   561. E= -.22860694E+03 F= -.22495615E+03 E0= -.22495615E+03  EK= 0.92086E+01 SP= -.13E+02 SK= 0.17E-01
   2081 T=   568. E= -.22860705E+03 F= -.22498015E+03 E0= -.22498015E+03  EK= 0.93236E+01 SP= -.13E+02 SK= 0.22E-01
   2082 T=   576. E= -.22860731E+03 F= -.22500900E+03 E0= -.22500900E+03  EK= 0.94566E+01 SP= -.13E+02 SK= 0.27E-01
   2083 T=   585. E= -.22860766E+03 F= -.22503905E+03 E0= -.22503905E+03  EK= 0.96011E+01 SP= -.13E+02 SK= 0.31E-01
   2084 T=   594. E= -.22860804E+03 F= -.22506580E+03 E0= -.22506580E+03  EK= 0.97497E+01 SP= -.13E+02 SK= 0.33E-01
   2085 T=   603. E= -.22860840E+03 F= -.22508483E+03 E0= -.22508483E+03  EK= 0.98945E+01 SP= -.13E+02 SK= 0.33E-01
   2086 T=   611. E= -.22860869E+03 F= -.22509273E+03 E0= -.22509273E+03  EK= 0.10028E+02 SP= -.14E+02 SK= 0.31E-01
   2087 T=   618. E= -.22860887E+03 F= -.22508757E+03 E0= -.22508757E+03  EK= 0.10146E+02 SP= -.14E+02 SK= 0.28E-01
   2088 T=   624. E= -.22860892E+03 F= -.22506934E+03 E0= -.22506934E+03  EK= 0.10244E+02 SP= -.14E+02 SK= 0.24E-01
   2089 T=   629. E= -.22860885E+03 F= -.22504018E+03 E0= -.22504018E+03  EK= 0.10321E+02 SP= -.14E+02 SK= 0.19E-01
   2090 T=   632. E= -.22860869E+03 F= -.22500383E+03 E0= -.22500383E+03  EK= 0.10380E+02 SP= -.14E+02 SK= 0.14E-01
   2091 T=   635. E= -.22860851E+03 F= -.22496507E+03 E0= -.22496507E+03  EK= 0.10422E+02 SP= -.14E+02 SK= 0.98E-02
   2092 T=   637. E= -.22860836E+03 F= -.22492864E+03 E0= -.22492864E+03  EK= 0.10451E+02 SP= -.14E+02 SK= 0.60E-02
   2093 T=   638. E= -.22860829E+03 F= -.22489839E+03 E0= -.22489839E+03  EK= 0.10470E+02 SP= -.14E+02 SK= 0.30E-02
   2094 T=   638. E= -.22860831E+03 F= -.22487667E+03 E0= -.22487667E+03  EK= 0.10481E+02 SP= -.14E+02 SK= 0.10E-02
   2095 T=   639. E= -.22860837E+03 F= -.22486412E+03 E0= -.22486412E+03  EK= 0.10483E+02 SP= -.14E+02 SK= 0.81E-04
   2096 T=   638. E= -.22860839E+03 F= -.22486032E+03 E0= -.22486032E+03  EK= 0.10478E+02 SP= -.14E+02 SK= 0.20E-03
   2097 T=   637. E= -.22860837E+03 F= -.22486470E+03 E0= -.22486470E+03  EK= 0.10463E+02 SP= -.14E+02 SK= 0.14E-02
   2098 T=   636. E= -.22860825E+03 F= -.22487695E+03 E0= -.22487695E+03  EK= 0.10440E+02 SP= -.14E+02 SK= 0.35E-02
   2099 T=   634. E= -.22860808E+03 F= -.22489750E+03 E0= -.22489750E+03  EK= 0.10409E+02 SP= -.14E+02 SK= 0.64E-02
   2100 T=   632. E= -.22860788E+03 F= -.22492722E+03 E0= -.22492722E+03  EK= 0.10373E+02 SP= -.14E+02 SK= 0.10E-01
   2101 T=   629. E= -.22860772E+03 F= -.22496700E+03 E0= -.22496700E+03  EK= 0.10332E+02 SP= -.14E+02 SK= 0.14E-01
   2102 T=   627. E= -.22860762E+03 F= -.22501714E+03 E0= -.22501714E+03  EK= 0.10290E+02 SP= -.14E+02 SK= 0.18E-01
   2103 T=   624. E= -.22860763E+03 F= -.22507689E+03 E0= -.22507689E+03  EK= 0.10245E+02 SP= -.14E+02 SK= 0.23E-01
   2104 T=   621. E= -.22860774E+03 F= -.22514376E+03 E0= -.22514376E+03  EK= 0.10197E+02 SP= -.14E+02 SK= 0.27E-01
   2105 T=   618. E= -.22860796E+03 F= -.22521351E+03 E0= -.22521351E+03  EK= 0.10144E+02 SP= -.14E+02 SK= 0.31E-01
   2106 T=   614. E= -.22860823E+03 F= -.22528032E+03 E0= -.22528032E+03  EK= 0.10080E+02 SP= -.13E+02 SK= 0.35E-01
   2107 T=   609. E= -.22860848E+03 F= -.22533763E+03 E0= -.22533763E+03  EK= 0.10001E+02 SP= -.13E+02 SK= 0.38E-01
   2108 T=   603. E= -.22860865E+03 F= -.22537894E+03 E0= -.22537894E+03  EK= 0.99031E+01 SP= -.13E+02 SK= 0.40E-01
   2109 T=   596. E= -.22860871E+03 F= -.22539891E+03 E0= -.22539891E+03  EK= 0.97839E+01 SP= -.13E+02 SK= 0.40E-01
   2110 T=   587. E= -.22860859E+03 F= -.22539428E+03 E0= -.22539428E+03  EK= 0.96433E+01 SP= -.13E+02 SK= 0.38E-01
   2111 T=   578. E= -.22860831E+03 F= -.22536467E+03 E0= -.22536467E+03  EK= 0.94846E+01 SP= -.13E+02 SK= 0.35E-01
   2112 T=   567. E= -.22860791E+03 F= -.22531266E+03 E0= -.22531266E+03  EK= 0.93141E+01 SP= -.13E+02 SK= 0.29E-01
   2113 T=   557. E= -.22860740E+03 F= -.22524362E+03 E0= -.22524362E+03  EK= 0.91408E+01 SP= -.13E+02 SK= 0.22E-01
   2114 T=   547. E= -.22860680E+03 F= -.22516542E+03 E0= -.22516542E+03  EK= 0.89762E+01 SP= -.12E+02 SK= 0.15E-01
   2115 T=   538. E= -.22860621E+03 F= -.22508769E+03 E0= -.22508769E+03  EK= 0.88326E+01 SP= -.12E+02 SK= 0.79E-02
   2116 T=   531. E= -.22860565E+03 F= -.22502068E+03 E0= -.22502068E+03  EK= 0.87227E+01 SP= -.12E+02 SK= 0.26E-02
   2117 T=   527. E= -.22860519E+03 F= -.22497404E+03 E0= -.22497404E+03  EK= 0.86577E+01 SP= -.12E+02 SK= 0.11E-03
   2118 T=   527. E= -.22860487E+03 F= -.22495573E+03 E0= -.22495573E+03  EK= 0.86463E+01 SP= -.12E+02 SK= 0.10E-02
   2119 T=   530. E= -.22860474E+03 F= -.22497087E+03 E0= -.22497087E+03  EK= 0.86940E+01 SP= -.12E+02 SK= 0.54E-02
   2120 T=   536. E= -.22860481E+03 F= -.22502103E+03 E0= -.22502103E+03  EK= 0.88016E+01 SP= -.12E+02 SK= 0.13E-01
   2121 T=   546. E= -.22860508E+03 F= -.22510413E+03 E0= -.22510413E+03  EK= 0.89659E+01 SP= -.12E+02 SK= 0.21E-01
   2122 T=   559. E= -.22860557E+03 F= -.22521454E+03 E0= -.22521454E+03  EK= 0.91786E+01 SP= -.13E+02 SK= 0.30E-01
   2123 T=   574. E= -.22860621E+03 F= -.22534350E+03 E0= -.22534350E+03  EK= 0.94276E+01 SP= -.13E+02 SK= 0.37E-01
   2124 T=   591. E= -.22860700E+03 F= -.22548034E+03 E0= -.22548034E+03  EK= 0.96974E+01 SP= -.13E+02 SK= 0.41E-01
   2125 T=   607. E= -.22860786E+03 F= -.22561340E+03 E0= -.22561340E+03  EK= 0.99705E+01 SP= -.13E+02 SK= 0.41E-01
   2126 T=   623. E= -.22860875E+03 F= -.22573096E+03 E0= -.22573096E+03  EK= 0.10228E+02 SP= -.13E+02 SK= 0.37E-01
   2127 T=   637. E= -.22860957E+03 F= -.22582203E+03 E0= -.22582203E+03  EK= 0.10453E+02 SP= -.13E+02 SK= 0.30E-01
   2128 T=   647. E= -.22861024E+03 F= -.22587748E+03 E0= -.22587748E+03  EK= 0.10629E+02 SP= -.13E+02 SK= 0.22E-01
   2129 T=   654. E= -.22861072E+03 F= -.22589068E+03 E0= -.22589068E+03  EK= 0.10742E+02 SP= -.13E+02 SK= 0.14E-01
   2130 T=   657. E= -.22861090E+03 F= -.22585793E+03 E0= -.22585793E+03  EK= 0.10787E+02 SP= -.14E+02 SK= 0.71E-02
   2131 T=   655. E= -.22861075E+03 F= -.22577924E+03 E0= -.22577924E+03  EK= 0.10760E+02 SP= -.14E+02 SK= 0.25E-02
   2132 T=   650. E= -.22861029E+03 F= -.22565877E+03 E0= -.22565877E+03  EK= 0.10666E+02 SP= -.14E+02 SK= 0.35E-03
   2133 T=   641. E= -.22860953E+03 F= -.22550451E+03 E0= -.22550451E+03  EK= 0.10516E+02 SP= -.14E+02 SK= 0.73E-04
   2134 T=   629. E= -.22860859E+03 F= -.22532812E+03 E0= -.22532812E+03  EK= 0.10327E+02 SP= -.14E+02 SK= 0.88E-03
   2135 T=   616. E= -.22860755E+03 F= -.22514403E+03 E0= -.22514403E+03  EK= 0.10117E+02 SP= -.14E+02 SK= 0.19E-02
   2136 T=   604. E= -.22860655E+03 F= -.22496811E+03 E0= -.22496811E+03  EK= 0.99087E+01 SP= -.14E+02 SK= 0.25E-02
   2137 T=   592. E= -.22860574E+03 F= -.22481589E+03 E0= -.22481589E+03  EK= 0.97228E+01 SP= -.14E+02 SK= 0.24E-02
   2138 T=   583. E= -.22860518E+03 F= -.22470048E+03 E0= -.22470048E+03  EK= 0.95766E+01 SP= -.13E+02 SK= 0.18E-02
   2139 T=   578. E= -.22860491E+03 F= -.22463132E+03 E0= -.22463132E+03  EK= 0.94827E+01 SP= -.13E+02 SK= 0.99E-03
   2140 T=   576. E= -.22860495E+03 F= -.22461340E+03 E0= -.22461340E+03  EK= 0.94481E+01 SP= -.13E+02 SK= 0.33E-03
   2141 T=   577. E= -.22860525E+03 F= -.22464668E+03 E0= -.22464668E+03  EK= 0.94734E+01 SP= -.13E+02 SK= 0.22E-04
   2142 T=   582. E= -.22860578E+03 F= -.22472667E+03 E0= -.22472667E+03  EK= 0.95536E+01 SP= -.13E+02 SK= 0.48E-04
   2143 T=   590. E= -.22860649E+03 F= -.22484513E+03 E0= -.22484513E+03  EK= 0.96787E+01 SP= -.13E+02 SK= 0.22E-03
   2144 T=   599. E= -.22860734E+03 F= -.22499072E+03 E0= -.22499072E+03  EK= 0.98346E+01 SP= -.13E+02 SK= 0.31E-03
   2145 T=   609. E= -.22860829E+03 F= -.22515006E+03 E0= -.22515006E+03  EK= 0.10004E+02 SP= -.13E+02 SK= 0.21E-03
   2146 T=   619. E= -.22860922E+03 F= -.22530867E+03 E0= -.22530867E+03  EK= 0.10169E+02 SP= -.13E+02 SK= 0.27E-04
   2147 T=   628. E= -.22861004E+03 F= -.22545234E+03 E0= -.22545234E+03  EK= 0.10310E+02 SP= -.13E+02 SK= 0.92E-04
   2148 T=   634. E= -.22861062E+03 F= -.22556871E+03 E0= -.22556871E+03  EK= 0.10412E+02 SP= -.13E+02 SK= 0.82E-03
   2149 T=   637. E= -.22861086E+03 F= -.22564877E+03 E0= -.22564877E+03  EK= 0.10462E+02 SP= -.13E+02 SK= 0.26E-02
   2150 T=   637. E= -.22861072E+03 F= -.22568807E+03 E0= -.22568807E+03  EK= 0.10456E+02 SP= -.13E+02 SK= 0.54E-02
   2151 T=   633. E= -.22861022E+03 F= -.22568740E+03 E0= -.22568740E+03  EK= 0.10393E+02 SP= -.13E+02 SK= 0.90E-02
   2152 T=   626. E= -.22860941E+03 F= -.22565261E+03 E0= -.22565261E+03  EK= 0.10283E+02 SP= -.13E+02 SK= 0.13E-01
   2153 T=   618. E= -.22860845E+03 F= -.22559379E+03 E0= -.22559379E+03  EK= 0.10139E+02 SP= -.13E+02 SK= 0.16E-01
   2154 T=   608. E= -.22860745E+03 F= -.22552373E+03 E0= -.22552373E+03  EK= 0.99763E+01 SP= -.13E+02 SK= 0.18E-01
   2155 T=   598. E= -.22860654E+03 F= -.22545619E+03 E0= -.22545619E+03  EK= 0.98143E+01 SP= -.13E+02 SK= 0.19E-01
   2156 T=   589. E= -.22860585E+03 F= -.22540402E+03 E0= -.22540402E+03  EK= 0.96694E+01 SP= -.13E+02 SK= 0.18E-01
   2157 T=   582. E= -.22860543E+03 F= -.22537740E+03 E0= -.22537740E+03  EK= 0.95549E+01 SP= -.13E+02 SK= 0.16E-01
   2158 T=   577. E= -.22860529E+03 F= -.22538275E+03 E0= -.22538275E+03  EK= 0.94794E+01 SP= -.13E+02 SK= 0.13E-01
   2159 T=   575. E= -.22860543E+03 F= -.22542227E+03 E0= -.22542227E+03  EK= 0.94467E+01 SP= -.13E+02 SK= 0.10E-01
   2160 T=   576. E= -.22860577E+03 F= -.22549403E+03 E0= -.22549403E+03  EK= 0.94551E+01 SP= -.13E+02 SK= 0.76E-02
   2161 T=   579. E= -.22860625E+03 F= -.22559273E+03 E0= -.22559273E+03  EK= 0.94990E+01 SP= -.13E+02 SK= 0.55E-02
   2162 T=   583. E= -.22860680E+03 F= -.22571073E+03 E0= -.22571073E+03  EK= 0.95697E+01 SP= -.12E+02 SK= 0.41E-02
   2163 T=   588. E= -.22860736E+03 F= -.22583910E+03 E0= -.22583910E+03  EK= 0.96567E+01 SP= -.12E+02 SK= 0.31E-02
   2164 T=   594. E= -.22860788E+03 F= -.22596869E+03 E0= -.22596869E+03  EK= 0.97488E+01 SP= -.12E+02 SK= 0.27E-02
   2165 T=   599. E= -.22860833E+03 F= -.22609088E+03 E0= -.22609088E+03  EK= 0.98352E+01 SP= -.12E+02 SK= 0.25E-02
   2166 T=   603. E= -.22860867E+03 F= -.22619827E+03 E0= -.22619827E+03  EK= 0.99066E+01 SP= -.12E+02 SK= 0.27E-02
   2167 T=   606. E= -.22860887E+03 F= -.22628513E+03 E0= -.22628513E+03  EK= 0.99554E+01 SP= -.12E+02 SK= 0.31E-02
   2168 T=   608. E= -.22860890E+03 F= -.22634785E+03 E0= -.22634785E+03  EK= 0.99771E+01 SP= -.12E+02 SK= 0.37E-02
   2169 T=   607. E= -.22860878E+03 F= -.22638531E+03 E0= -.22638531E+03  EK= 0.99701E+01 SP= -.12E+02 SK= 0.43E-02
   2170 T=   605. E= -.22860852E+03 F= -.22639867E+03 E0= -.22639867E+03  EK= 0.99357E+01 SP= -.12E+02 SK= 0.49E-02
   2171 T=   602. E= -.22860818E+03 F= -.22639108E+03 E0= -.22639108E+03  EK= 0.98780E+01 SP= -.12E+02 SK= 0.53E-02
   2172 T=   597. E= -.22860779E+03 F= -.22636701E+03 E0= -.22636701E+03  EK= 0.98032E+01 SP= -.12E+02 SK= 0.54E-02
   2173 T=   592. E= -.22860740E+03 F= -.22633176E+03 E0= -.22633176E+03  EK= 0.97183E+01 SP= -.12E+02 SK= 0.51E-02
   2174 T=   587. E= -.22860709E+03 F= -.22629068E+03 E0= -.22629068E+03  EK= 0.96306E+01 SP= -.12E+02 SK= 0.43E-02
   2175 T=   582. E= -.22860683E+03 F= -.22624836E+03 E0= -.22624836E+03  EK= 0.95470E+01 SP= -.12E+02 SK= 0.32E-02
   2176 T=   577. E= -.22860665E+03 F= -.22620854E+03 E0= -.22620854E+03  EK= 0.94728E+01 SP= -.12E+02 SK= 0.21E-02
   2177 T=   573. E= -.22860655E+03 F= -.22617377E+03 E0= -.22617377E+03  EK= 0.94123E+01 SP= -.12E+02 SK= 0.10E-02
   2178 T=   571. E= -.22860658E+03 F= -.22614526E+03 E0= -.22614526E+03  EK= 0.93680E+01 SP= -.12E+02 SK= 0.25E-03
   2179 T=   569. E= -.22860667E+03 F= -.22612258E+03 E0= -.22612258E+03  EK= 0.93404E+01 SP= -.12E+02 SK= 0.13E-05
   2180 T=   568. E= -.22860681E+03 F= -.22610408E+03 E0= -.22610408E+03  EK= 0.93284E+01 SP= -.12E+02 SK= 0.36E-03
   2181 T=   568. E= -.22860701E+03 F= -.22608734E+03 E0= -.22608734E+03  EK= 0.93298E+01 SP= -.12E+02 SK= 0.13E-02
   2182 T=   569. E= -.22860718E+03 F= -.22606945E+03 E0= -.22606945E+03  EK= 0.93419E+01 SP= -.12E+02 SK= 0.30E-02
   2183 T=   570. E= -.22860733E+03 F= -.22604775E+03 E0= -.22604775E+03  EK= 0.93618E+01 SP= -.12E+02 SK= 0.51E-02
   2184 T=   572. E= -.22860747E+03 F= -.22602012E+03 E0= -.22602012E+03  EK= 0.93868E+01 SP= -.12E+02 SK= 0.77E-02
   2185 T=   574. E= -.22860759E+03 F= -.22598487E+03 E0= -.22598487E+03  EK= 0.94149E+01 SP= -.12E+02 SK= 0.11E-01
   2186 T=   575. E= -.22860772E+03 F= -.22594079E+03 E0= -.22594079E+03  EK= 0.94443E+01 SP= -.12E+02 SK= 0.14E-01
   2187 T=   577. E= -.22860781E+03 F= -.22588704E+03 E0= -.22588704E+03  EK= 0.94734E+01 SP= -.12E+02 SK= 0.17E-01
   2188 T=   579. E= -.22860784E+03 F= -.22582364E+03 E0= -.22582364E+03  EK= 0.95017E+01 SP= -.12E+02 SK= 0.20E-01
   2189 T=   581. E= -.22860776E+03 F= -.22575187E+03 E0= -.22575187E+03  EK= 0.95299E+01 SP= -.12E+02 SK= 0.24E-01
   2190 T=   582. E= -.22860754E+03 F= -.22567485E+03 E0= -.22567485E+03  EK= 0.95605E+01 SP= -.13E+02 SK= 0.27E-01
   2191 T=   585. E= -.22860721E+03 F= -.22559766E+03 E0= -.22559766E+03  EK= 0.95979E+01 SP= -.13E+02 SK= 0.30E-01
   2192 T=   588. E= -.22860683E+03 F= -.22552695E+03 E0= -.22552695E+03  EK= 0.96480E+01 SP= -.13E+02 SK= 0.32E-01
   2193 T=   592. E= -.22860651E+03 F= -.22546989E+03 E0= -.22546989E+03  EK= 0.97168E+01 SP= -.13E+02 SK= 0.34E-01
   2194 T=   598. E= -.22860634E+03 F= -.22543269E+03 E0= -.22543269E+03  EK= 0.98090E+01 SP= -.13E+02 SK= 0.35E-01
   2195 T=   605. E= -.22860644E+03 F= -.22541904E+03 E0= -.22541904E+03  EK= 0.99264E+01 SP= -.13E+02 SK= 0.35E-01
   2196 T=   613. E= -.22860685E+03 F= -.22542879E+03 E0= -.22542879E+03  EK= 0.10066E+02 SP= -.13E+02 SK= 0.33E-01
   2197 T=   623. E= -.22860757E+03 F= -.22545727E+03 E0= -.22545727E+03  EK= 0.10220E+02 SP= -.13E+02 SK= 0.29E-01
   2198 T=   632. E= -.22860850E+03 F= -.22549558E+03 E0= -.22549558E+03  EK= 0.10376E+02 SP= -.14E+02 SK= 0.24E-01
   2199 T=   641. E= -.22860951E+03 F= -.22553206E+03 E0= -.22553206E+03  EK= 0.10517E+02 SP= -.14E+02 SK= 0.17E-01
   2200 T=   647. E= -.22861042E+03 F= -.22555417E+03 E0= -.22555417E+03  EK= 0.10627E+02 SP= -.14E+02 SK= 0.11E-01
   2201 T=   651. E= -.22861103E+03 F= -.22555090E+03 E0= -.22555090E+03  EK= 0.10691E+02 SP= -.14E+02 SK= 0.56E-02
   2202 T=   652. E= -.22861127E+03 F= -.22551491E+03 E0= -.22551491E+03  EK= 0.10700E+02 SP= -.14E+02 SK= 0.19E-02
   2203 T=   649. E= -.22861107E+03 F= -.22544368E+03 E0= -.22544368E+03  EK= 0.10651E+02 SP= -.14E+02 SK= 0.18E-03
   2204 T=   642. E= -.22861052E+03 F= -.22534001E+03 E0= -.22534001E+03  EK= 0.10547E+02 SP= -.14E+02 SK= 0.20E-03
   2205 T=   634. E= -.22860971E+03 F= -.22521142E+03 E0= -.22521142E+03  EK= 0.10400E+02 SP= -.14E+02 SK= 0.14E-02
   2206 T=   623. E= -.22860876E+03 F= -.22506899E+03 E0= -.22506899E+03  EK= 0.10225E+02 SP= -.14E+02 SK= 0.30E-02
   2207 T=   612. E= -.22860782E+03 F= -.22492569E+03 E0= -.22492569E+03  EK= 0.10040E+02 SP= -.14E+02 SK= 0.42E-02
   2208 T=   601. E= -.22860705E+03 F= -.22479458E+03 E0= -.22479458E+03  EK= 0.98623E+01 SP= -.14E+02 SK= 0.48E-02
   2209 T=   591. E= -.22860645E+03 F= -.22468689E+03 E0= -.22468689E+03  EK= 0.97077E+01 SP= -.14E+02 SK= 0.46E-02
   2210 T=   584. E= -.22860611E+03 F= -.22461122E+03 E0= -.22461122E+03  EK= 0.95884E+01 SP= -.14E+02 SK= 0.37E-02
   2211 T=   579. E= -.22860603E+03 F= -.22457263E+03 E0= -.22457263E+03  EK= 0.95122E+01 SP= -.14E+02 SK= 0.26E-02
   2212 T=   578. E= -.22860619E+03 F= -.22457227E+03 E0= -.22457227E+03  EK= 0.94816E+01 SP= -.14E+02 SK= 0.15E-02
   2213 T=   578. E= -.22860649E+03 F= -.22460776E+03 E0= -.22460776E+03  EK= 0.94950E+01 SP= -.13E+02 SK= 0.69E-03
   2214 T=   582. E= -.22860687E+03 F= -.22467423E+03 E0= -.22467423E+03  EK= 0.95472E+01 SP= -.13E+02 SK= 0.23E-03
   2215 T=   587. E= -.22860727E+03 F= -.22476540E+03 E0= -.22476540E+03  EK= 0.96307E+01 SP= -.13E+02 SK= 0.40E-04
   2216 T=   593. E= -.22860768E+03 F= -.22487446E+03 E0= -.22487446E+03  EK= 0.97369E+01 SP= -.13E+02 SK= 0.99E-06
   2217 T=   600. E= -.22860805E+03 F= -.22499454E+03 E0= -.22499454E+03  EK= 0.98563E+01 SP= -.13E+02 SK= 0.61E-07
   2218 T=   608. E= -.22860840E+03 F= -.22511927E+03 E0= -.22511927E+03  EK= 0.99798E+01 SP= -.13E+02 SK= 0.83E-05
   2219 T=   615. E= -.22860872E+03 F= -.22524301E+03 E0= -.22524301E+03  EK= 0.10099E+02 SP= -.13E+02 SK= 0.11E-03
   2220 T=   622. E= -.22860903E+03 F= -.22536055E+03 E0= -.22536055E+03  EK= 0.10204E+02 SP= -.13E+02 SK= 0.48E-03
   2221 T=   627. E= -.22860930E+03 F= -.22546695E+03 E0= -.22546695E+03  EK= 0.10289E+02 SP= -.13E+02 SK= 0.14E-02
   2222 T=   630. E= -.22860953E+03 F= -.22555772E+03 E0= -.22555772E+03  EK= 0.10346E+02 SP= -.13E+02 SK= 0.29E-02
   2223 T=   632. E= -.22860966E+03 F= -.22562890E+03 E0= -.22562890E+03  EK= 0.10370E+02 SP= -.13E+02 SK= 0.54E-02
   2224 T=   631. E= -.22860964E+03 F= -.22567772E+03 E0= -.22567772E+03  EK= 0.10358E+02 SP= -.13E+02 SK= 0.85E-02
   2225 T=   628. E= -.22860949E+03 F= -.22570309E+03 E0= -.22570309E+03  EK= 0.10309E+02 SP= -.13E+02 SK= 0.12E-01
   2226 T=   623. E= -.22860918E+03 F= -.22570570E+03 E0= -.22570570E+03  EK= 0.10226E+02 SP= -.13E+02 SK= 0.16E-01
   2227 T=   616. E= -.22860871E+03 F= -.22568827E+03 E0= -.22568827E+03  EK= 0.10114E+02 SP= -.13E+02 SK= 0.19E-01
   2228 T=   608. E= -.22860817E+03 F= -.22565560E+03 E0= -.22565560E+03  EK= 0.99802E+01 SP= -.13E+02 SK= 0.21E-01
   2229 T=   599. E= -.22860759E+03 F= -.22561400E+03 E0= -.22561400E+03  EK= 0.98355E+01 SP= -.13E+02 SK= 0.22E-01
   2230 T=   590. E= -.22860705E+03 F= -.22557067E+03 E0= -.22557067E+03  EK= 0.96904E+01 SP= -.13E+02 SK= 0.21E-01
   2231 T=   582. E= -.22860656E+03 F= -.22553284E+03 E0= -.22553284E+03  EK= 0.95557E+01 SP= -.13E+02 SK= 0.19E-01
   2232 T=   575. E= -.22860616E+03 F= -.22550739E+03 E0= -.22550739E+03  EK= 0.94410E+01 SP= -.13E+02 SK= 0.16E-01
   2233 T=   570. E= -.22860589E+03 F= -.22550011E+03 E0= -.22550011E+03  EK= 0.93546E+01 SP= -.12E+02 SK= 0.12E-01
   2234 T=   567. E= -.22860578E+03 F= -.22551500E+03 E0= -.22551500E+03  EK= 0.93018E+01 SP= -.12E+02 SK= 0.87E-02
   2235 T=   566. E= -.22860585E+03 F= -.22555371E+03 E0= -.22555371E+03  EK= 0.92853E+01 SP= -.12E+02 SK= 0.55E-02
   2236 T=   567. E= -.22860610E+03 F= -.22561510E+03 E0= -.22561510E+03  EK= 0.93039E+01 SP= -.12E+02 SK= 0.30E-02
   2237 T=   570. E= -.22860648E+03 F= -.22569518E+03 E0= -.22569518E+03  EK= 0.93532E+01 SP= -.12E+02 SK= 0.14E-02
   2238 T=   574. E= -.22860697E+03 F= -.22578770E+03 E0= -.22578770E+03  EK= 0.94259E+01 SP= -.12E+02 SK= 0.45E-03
   2239 T=   579. E= -.22860748E+03 F= -.22588481E+03 E0= -.22588481E+03  EK= 0.95127E+01 SP= -.12E+02 SK= 0.68E-04
   2240 T=   585. E= -.22860793E+03 F= -.22597832E+03 E0= -.22597832E+03  EK= 0.96034E+01 SP= -.12E+02 SK= 0.20E-05
   2241 T=   590. E= -.22860826E+03 F= -.22606103E+03 E0= -.22606103E+03  EK= 0.96890E+01 SP= -.12E+02 SK= 0.62E-04
   2242 T=   595. E= -.22860844E+03 F= -.22612770E+03 E0= -.22612770E+03  EK= 0.97621E+01 SP= -.12E+02 SK= 0.13E-03
   2243 T=   598. E= -.22860845E+03 F= -.22617554E+03 E0= -.22617554E+03  EK= 0.98184E+01 SP= -.12E+02 SK= 0.16E-03
   2244 T=   600. E= -.22860836E+03 F= -.22620424E+03 E0= -.22620424E+03  EK= 0.98561E+01 SP= -.12E+02 SK= 0.16E-03
   2245 T=   602. E= -.22860823E+03 F= -.22621520E+03 E0= -.22621520E+03  EK= 0.98754E+01 SP= -.12E+02 SK= 0.12E-03
   2246 T=   602. E= -.22860805E+03 F= -.22621089E+03 E0= -.22621089E+03  EK= 0.98785E+01 SP= -.12E+02 SK= 0.88E-04
   2247 T=   601. E= -.22860785E+03 F= -.22619446E+03 E0= -.22619446E+03  EK= 0.98683E+01 SP= -.12E+02 SK= 0.61E-04
   2248 T=   600. E= -.22860764E+03 F= -.22616954E+03 E0= -.22616954E+03  EK= 0.98487E+01 SP= -.12E+02 SK= 0.46E-04
   2249 T=   598. E= -.22860739E+03 F= -.22614009E+03 E0= -.22614009E+03  EK= 0.98241E+01 SP= -.12E+02 SK= 0.43E-04
   2250 T=   597. E= -.22860714E+03 F= -.22611047E+03 E0= -.22611047E+03  EK= 0.97996E+01 SP= -.12E+02 SK= 0.52E-04
   2251 T=   596. E= -.22860690E+03 F= -.22608510E+03 E0= -.22608510E+03  EK= 0.97800E+01 SP= -.12E+02 SK= 0.76E-04
   2252 T=   595. E= -.22860672E+03 F= -.22606808E+03 E0= -.22606808E+03  EK= 0.97699E+01 SP= -.12E+02 SK= 0.12E-03
   2253 T=   595. E= -.22860661E+03 F= -.22606269E+03 E0= -.22606269E+03  EK= 0.97729E+01 SP= -.12E+02 SK= 0.17E-03
   2254 T=   596. E= -.22860659E+03 F= -.22607107E+03 E0= -.22607107E+03  EK= 0.97909E+01 SP= -.12E+02 SK= 0.22E-03
   2255 T=   598. E= -.22860665E+03 F= -.22609403E+03 E0= -.22609403E+03  EK= 0.98244E+01 SP= -.12E+02 SK= 0.25E-03
   2256 T=   601. E= -.22860679E+03 F= -.22613092E+03 E0= -.22613092E+03  EK= 0.98719E+01 SP= -.12E+02 SK= 0.23E-03
   2257 T=   605. E= -.22860705E+03 F= -.22617957E+03 E0= -.22617957E+03  EK= 0.99301E+01 SP= -.12E+02 SK= 0.16E-03
   2258 T=   609. E= -.22860739E+03 F= -.22623620E+03 E0= -.22623620E+03  EK= 0.99937E+01 SP= -.12E+02 SK= 0.65E-04
   2259 T=   613. E= -.22860777E+03 F= -.22629571E+03 E0= -.22629571E+03  EK= 0.10056E+02 SP= -.12E+02 SK= 0.12E-05
   2260 T=   616. E= -.22860818E+03 F= -.22635208E+03 E0= -.22635208E+03  EK= 0.10110E+02 SP= -.12E+02 SK= 0.63E-04
   2261 T=   618. E= -.22860854E+03 F= -.22639892E+03 E0= -.22639892E+03  EK= 0.10146E+02 SP= -.12E+02 SK= 0.35E-03
   2262 T=   619. E= -.22860879E+03 F= -.22643035E+03 E0= -.22643035E+03  EK= 0.10160E+02 SP= -.12E+02 SK= 0.92E-03
   2263 T=   618. E= -.22860883E+03 F= -.22644213E+03 E0= -.22644213E+03  EK= 0.10146E+02 SP= -.12E+02 SK= 0.18E-02
   2264 T=   615. E= -.22860867E+03 F= -.22643263E+03 E0= -.22643263E+03  EK= 0.10103E+02 SP= -.12E+02 SK= 0.28E-02
   2265 T=   611. E= -.22860830E+03 F= -.22640324E+03 E0= -.22640324E+03  EK= 0.10033E+02 SP= -.12E+02 SK= 0.37E-02
   2266 T=   606. E= -.22860776E+03 F= -.22635836E+03 E0= -.22635836E+03  EK= 0.99433E+01 SP= -.12E+02 SK= 0.45E-02
   2267 T=   600. E= -.22860713E+03 F= -.22630490E+03 E0= -.22630490E+03  EK= 0.98429E+01 SP= -.12E+02 SK= 0.48E-02
   2268 T=   593. E= -.22860649E+03 F= -.22625136E+03 E0= -.22625136E+03  EK= 0.97426E+01 SP= -.12E+02 SK= 0.46E-02
   2269 T=   588. E= -.22860592E+03 F= -.22620657E+03 E0= -.22620657E+03  EK= 0.96535E+01 SP= -.12E+02 SK= 0.39E-02
   2270 T=   584. E= -.22860551E+03 F= -.22617844E+03 E0= -.22617844E+03  EK= 0.95856E+01 SP= -.12E+02 SK= 0.30E-02
   2271 T=   582. E= -.22860525E+03 F= -.22617282E+03 E0= -.22617282E+03  EK= 0.95462E+01 SP= -.12E+02 SK= 0.21E-02
   2272 T=   581. E= -.22860524E+03 F= -.22619296E+03 E0= -.22619296E+03  EK= 0.95391E+01 SP= -.12E+02 SK= 0.12E-02
   2273 T=   583. E= -.22860545E+03 F= -.22623863E+03 E0= -.22623863E+03  EK= 0.95643E+01 SP= -.12E+02 SK= 0.62E-03
   2274 T=   586. E= -.22860584E+03 F= -.22630619E+03 E0= -.22630619E+03  EK= 0.96175E+01 SP= -.12E+02 SK= 0.26E-03
   2275 T=   590. E= -.22860640E+03 F= -.22638910E+03 E0= -.22638910E+03  EK= 0.96909E+01 SP= -.12E+02 SK= 0.96E-04
   2276 T=   595. E= -.22860704E+03 F= -.22647872E+03 E0= -.22647872E+03  EK= 0.97743E+01 SP= -.12E+02 SK= 0.39E-04
   2277 T=   600. E= -.22860765E+03 F= -.22656523E+03 E0= -.22656523E+03  EK= 0.98561E+01 SP= -.12E+02 SK= 0.33E-04
   2278 T=   605. E= -.22860819E+03 F= -.22663925E+03 E0= -.22663925E+03  EK= 0.99247E+01 SP= -.12E+02 SK= 0.63E-04
   2279 T=   607. E= -.22860858E+03 F= -.22669269E+03 E0= -.22669269E+03  EK= 0.99707E+01 SP= -.12E+02 SK= 0.15E-03
   2280 T=   608. E= -.22860880E+03 F= -.22671980E+03 E0= -.22671980E+03  EK= 0.99869E+01 SP= -.12E+02 SK= 0.31E-03
   2281 T=   607. E= -.22860881E+03 F= -.22671762E+03 E0= -.22671762E+03  EK= 0.99703E+01 SP= -.12E+02 SK= 0.54E-03
   2282 T=   604. E= -.22860864E+03 F= -.22668626E+03 E0= -.22668626E+03  EK= 0.99212E+01 SP= -.12E+02 SK= 0.75E-03
   2283 T=   600. E= -.22860837E+03 F= -.22662853E+03 E0= -.22662853E+03  EK= 0.98438E+01 SP= -.12E+02 SK= 0.87E-03
   2284 T=   594. E= -.22860801E+03 F= -.22654921E+03 E0= -.22654921E+03  EK= 0.97448E+01 SP= -.12E+02 SK= 0.80E-03
   2285 T=   587. E= -.22860763E+03 F= -.22645431E+03 E0= -.22645431E+03  EK= 0.96326E+01 SP= -.12E+02 SK= 0.54E-03
   2286 T=   580. E= -.22860727E+03 F= -.22635040E+03 E0= -.22635040E+03  EK= 0.95163E+01 SP= -.12E+02 SK= 0.20E-03
   2287 T=   573. E= -.22860696E+03 F= -.22624390E+03 E0= -.22624390E+03  EK= 0.94050E+01 SP= -.12E+02 SK= 0.11E-05
   2288 T=   567. E= -.22860672E+03 F= -.22614057E+03 E0= -.22614057E+03  EK= 0.93068E+01 SP= -.12E+02 SK= 0.25E-03
   2289 T=   562. E= -.22860657E+03 F= -.22604506E+03 E0= -.22604506E+03  EK= 0.92285E+01 SP= -.12E+02 SK= 0.13E-02
   2290 T=   559. E= -.22860651E+03 F= -.22596060E+03 E0= -.22596060E+03  EK= 0.91749E+01 SP= -.12E+02 SK= 0.34E-02
   2291 T=   557. E= -.22860656E+03 F= -.22588878E+03 E0= -.22588878E+03  EK= 0.91487E+01 SP= -.12E+02 SK= 0.68E-02
   2292 T=   557. E= -.22860672E+03 F= -.22582941E+03 E0= -.22582941E+03  EK= 0.91504E+01 SP= -.12E+02 SK= 0.11E-01
   2293 T=   559. E= -.22860695E+03 F= -.22578058E+03 E0= -.22578058E+03  EK= 0.91783E+01 SP= -.12E+02 SK= 0.17E-01
   2294 T=   562. E= -.22860723E+03 F= -.22573923E+03 E0= -.22573923E+03  EK= 0.92290E+01 SP= -.12E+02 SK= 0.23E-01
   2295 T=   566. E= -.22860750E+03 F= -.22570162E+03 E0= -.22570162E+03  EK= 0.92980E+01 SP= -.12E+02 SK= 0.30E-01
   2296 T=   571. E= -.22860777E+03 F= -.22566417E+03 E0= -.22566417E+03  EK= 0.93806E+01 SP= -.12E+02 SK= 0.36E-01
   2297 T=   577. E= -.22860798E+03 F= -.22562376E+03 E0= -.22562376E+03  EK= 0.94720E+01 SP= -.12E+02 SK= 0.42E-01
   2298 T=   583. E= -.22860812E+03 F= -.22557826E+03 E0= -.22557826E+03  EK= 0.95682E+01 SP= -.13E+02 SK= 0.47E-01
   2299 T=   589. E= -.22860822E+03 F= -.22552686E+03 E0= -.22552686E+03  EK= 0.96664E+01 SP= -.13E+02 SK= 0.50E-01
   2300 T=   595. E= -.22860828E+03 F= -.22546988E+03 E0= -.22546988E+03  EK= 0.97646E+01 SP= -.13E+02 SK= 0.52E-01
   2301 T=   601. E= -.22860828E+03 F= -.22540852E+03 E0= -.22540852E+03  EK= 0.98616E+01 SP= -.13E+02 SK= 0.52E-01
   2302 T=   607. E= -.22860823E+03 F= -.22534505E+03 E0= -.22534505E+03  EK= 0.99573E+01 SP= -.13E+02 SK= 0.51E-01
   2303 T=   612. E= -.22860813E+03 F= -.22528270E+03 E0= -.22528270E+03  EK= 0.10052E+02 SP= -.13E+02 SK= 0.48E-01
   2304 T=   618. E= -.22860796E+03 F= -.22522558E+03 E0= -.22522558E+03  EK= 0.10149E+02 SP= -.14E+02 SK= 0.44E-01
   2305 T=   624. E= -.22860775E+03 F= -.22517870E+03 E0= -.22517870E+03  EK= 0.10249E+02 SP= -.14E+02 SK= 0.38E-01
   2306 T=   631. E= -.22860751E+03 F= -.22514767E+03 E0= -.22514767E+03  EK= 0.10355E+02 SP= -.14E+02 SK= 0.32E-01
   2307 T=   638. E= -.22860733E+03 F= -.22513811E+03 E0= -.22513811E+03  EK= 0.10470E+02 SP= -.14E+02 SK= 0.25E-01
   2308 T=   645. E= -.22860726E+03 F= -.22515463E+03 E0= -.22515463E+03  EK= 0.10596E+02 SP= -.14E+02 SK= 0.18E-01
   2309 T=   654. E= -.22860743E+03 F= -.22519988E+03 E0= -.22519988E+03  EK= 0.10731E+02 SP= -.14E+02 SK= 0.11E-01
   2310 T=   662. E= -.22860785E+03 F= -.22527303E+03 E0= -.22527303E+03  EK= 0.10871E+02 SP= -.14E+02 SK= 0.49E-02
   2311 T=   670. E= -.22860852E+03 F= -.22536926E+03 E0= -.22536926E+03  EK= 0.11005E+02 SP= -.14E+02 SK= 0.93E-03
   2312 T=   677. E= -.22860932E+03 F= -.22548008E+03 E0= -.22548008E+03  EK= 0.11122E+02 SP= -.14E+02 SK= 0.18E-03
   2313 T=   683. E= -.22861009E+03 F= -.22559446E+03 E0= -.22559446E+03  EK= 0.11206E+02 SP= -.14E+02 SK= 0.37E-02
   2314 T=   685. E= -.22861067E+03 F= -.22570088E+03 E0= -.22570088E+03  EK= 0.11243E+02 SP= -.14E+02 SK= 0.12E-01
   2315 T=   684. E= -.22861090E+03 F= -.22578932E+03 E0= -.22578932E+03  EK= 0.11223E+02 SP= -.14E+02 SK= 0.26E-01
   2316 T=   679. E= -.22861076E+03 F= -.22585292E+03 E0= -.22585292E+03  EK= 0.11140E+02 SP= -.14E+02 SK= 0.44E-01
   2317 T=   670. E= -.22861028E+03 F= -.22588873E+03 E0= -.22588873E+03  EK= 0.10994E+02 SP= -.14E+02 SK= 0.64E-01
   2318 T=   657. E= -.22860955E+03 F= -.22589766E+03 E0= -.22589766E+03  EK= 0.10793E+02 SP= -.14E+02 SK= 0.85E-01
   2319 T=   642. E= -.22860868E+03 F= -.22588382E+03 E0= -.22588382E+03  EK= 0.10547E+02 SP= -.13E+02 SK= 0.10E+00
   2320 T=   626. E= -.22860776E+03 F= -.22585366E+03 E0= -.22585366E+03  EK= 0.10273E+02 SP= -.13E+02 SK= 0.12E+00
   2321 T=   608. E= -.22860689E+03 F= -.22581521E+03 E0= -.22581521E+03  EK= 0.99852E+01 SP= -.13E+02 SK= 0.12E+00
   2322 T=   591. E= -.22860613E+03 F= -.22577728E+03 E0= -.22577728E+03  EK= 0.97014E+01 SP= -.13E+02 SK= 0.12E+00
   2323 T=   575. E= -.22860550E+03 F= -.22574855E+03 E0= -.22574855E+03  EK= 0.94368E+01 SP= -.12E+02 SK= 0.12E+00
   2324 T=   561. E= -.22860504E+03 F= -.22573705E+03 E0= -.22573705E+03  EK= 0.92045E+01 SP= -.12E+02 SK= 0.11E+00
   2325 T=   549. E= -.22860478E+03 F= -.22574930E+03 E0= -.22574930E+03  EK= 0.90152E+01 SP= -.12E+02 SK= 0.90E-01
   2326 T=   541. E= -.22860471E+03 F= -.22578944E+03 E0= -.22578944E+03  EK= 0.88754E+01 SP= -.12E+02 SK= 0.72E-01
   2327 T=   535. E= -.22860483E+03 F= -.22585876E+03 E0= -.22585876E+03  EK= 0.87881E+01 SP= -.12E+02 SK= 0.54E-01
   2328 T=   533. E= -.22860512E+03 F= -.22595550E+03 E0= -.22595550E+03  EK= 0.87521E+01 SP= -.11E+02 SK= 0.38E-01
   2329 T=   534. E= -.22860555E+03 F= -.22607489E+03 E0= -.22607489E+03  EK= 0.87624E+01 SP= -.11E+02 SK= 0.24E-01
   2330 T=   537. E= -.22860607E+03 F= -.22620949E+03 E0= -.22620949E+03  EK= 0.88110E+01 SP= -.11E+02 SK= 0.14E-01
   2331 T=   541. E= -.22860662E+03 F= -.22635008E+03 E0= -.22635008E+03  EK= 0.88876E+01 SP= -.11E+02 SK= 0.70E-02
   2332 T=   547. E= -.22860718E+03 F= -.22648662E+03 E0= -.22648662E+03  EK= 0.89807E+01 SP= -.11E+02 SK= 0.27E-02
   2333 T=   553. E= -.22860767E+03 F= -.22660905E+03 E0= -.22660905E+03  EK= 0.90786E+01 SP= -.11E+02 SK= 0.54E-03
   2334 T=   559. E= -.22860806E+03 F= -.22670841E+03 E0= -.22670841E+03  EK= 0.91705E+01 SP= -.11E+02 SK= 0.29E-05
   2335 T=   563. E= -.22860832E+03 F= -.22677767E+03 E0= -.22677767E+03  EK= 0.92478E+01 SP= -.11E+02 SK= 0.56E-03
   2336 T=   567. E= -.22860841E+03 F= -.22681231E+03 E0= -.22681231E+03  EK= 0.93044E+01 SP= -.11E+02 SK= 0.19E-02
   2337 T=   569. E= -.22860831E+03 F= -.22681094E+03 E0= -.22681094E+03  EK= 0.93376E+01 SP= -.11E+02 SK= 0.37E-02
   2338 T=   569. E= -.22860803E+03 F= -.22677561E+03 E0= -.22677561E+03  EK= 0.93489E+01 SP= -.11E+02 SK= 0.61E-02
   2339 T=   569. E= -.22860759E+03 F= -.22671150E+03 E0= -.22671150E+03  EK= 0.93429E+01 SP= -.11E+02 SK= 0.91E-02
   2340 T=   568. E= -.22860705E+03 F= -.22662657E+03 E0= -.22662657E+03  EK= 0.93275E+01 SP= -.11E+02 SK= 0.13E-01
   2341 T=   567. E= -.22860646E+03 F= -.22653056E+03 E0= -.22653056E+03  EK= 0.93129E+01 SP= -.11E+02 SK= 0.17E-01
   2342 T=   567. E= -.22860592E+03 F= -.22643385E+03 E0= -.22643385E+03  EK= 0.93096E+01 SP= -.12E+02 SK= 0.22E-01
   2343 T=   568. E= -.22860556E+03 F= -.22634594E+03 E0= -.22634594E+03  EK= 0.93271E+01 SP= -.12E+02 SK= 0.28E-01
   2344 T=   571. E= -.22860544E+03 F= -.22627369E+03 E0= -.22627369E+03  EK= 0.93722E+01 SP= -.12E+02 SK= 0.34E-01
   2345 T=   575. E= -.22860565E+03 F= -.22622006E+03 E0= -.22622006E+03  EK= 0.94472E+01 SP= -.12E+02 SK= 0.40E-01
   2346 T=   582. E= -.22860615E+03 F= -.22618335E+03 E0= -.22618335E+03  EK= 0.95491E+01 SP= -.12E+02 SK= 0.45E-01
   2347 T=   589. E= -.22860695E+03 F= -.22615740E+03 E0= -.22615740E+03  EK= 0.96700E+01 SP= -.12E+02 SK= 0.49E-01
   2348 T=   597. E= -.22860789E+03 F= -.22613237E+03 E0= -.22613237E+03  EK= 0.97975E+01 SP= -.12E+02 SK= 0.50E-01
   2349 T=   604. E= -.22860881E+03 F= -.22609692E+03 E0= -.22609692E+03  EK= 0.99175E+01 SP= -.12E+02 SK= 0.50E-01
   2350 T=   610. E= -.22860956E+03 F= -.22604051E+03 E0= -.22604051E+03  EK= 0.10016E+02 SP= -.13E+02 SK= 0.48E-01
   2351 T=   614. E= -.22861003E+03 F= -.22595567E+03 E0= -.22595567E+03  EK= 0.10084E+02 SP= -.13E+02 SK= 0.44E-01
   2352 T=   616. E= -.22861020E+03 F= -.22583922E+03 E0= -.22583922E+03  EK= 0.10114E+02 SP= -.13E+02 SK= 0.40E-01
   2353 T=   616. E= -.22861010E+03 F= -.22569238E+03 E0= -.22569238E+03  EK= 0.10107E+02 SP= -.13E+02 SK= 0.36E-01
   2354 T=   613. E= -.22860978E+03 F= -.22552027E+03 E0= -.22552027E+03  EK= 0.10068E+02 SP= -.13E+02 SK= 0.33E-01
   2355 T=   609. E= -.22860933E+03 F= -.22533090E+03 E0= -.22533090E+03  EK= 0.10005E+02 SP= -.13E+02 SK= 0.30E-01
   2356 T=   605. E= -.22860884E+03 F= -.22513396E+03 E0= -.22513396E+03  EK= 0.99292E+01 SP= -.13E+02 SK= 0.28E-01
   2357 T=   600. E= -.22860836E+03 F= -.22493951E+03 E0= -.22493951E+03  EK= 0.98524E+01 SP= -.14E+02 SK= 0.28E-01
   2358 T=   596. E= -.22860793E+03 F= -.22475715E+03 E0= -.22475715E+03  EK= 0.97862E+01 SP= -.14E+02 SK= 0.28E-01
   2359 T=   593. E= -.22860758E+03 F= -.22459546E+03 E0= -.22459546E+03  EK= 0.97409E+01 SP= -.14E+02 SK= 0.29E-01
   2360 T=   592. E= -.22860735E+03 F= -.22446160E+03 E0= -.22446160E+03  EK= 0.97250E+01 SP= -.14E+02 SK= 0.30E-01
   2361 T=   594. E= -.22860728E+03 F= -.22436059E+03 E0= -.22436059E+03  EK= 0.97443E+01 SP= -.14E+02 SK= 0.31E-01
   2362 T=   597. E= -.22860743E+03 F= -.22429483E+03 E0= -.22429483E+03  EK= 0.98011E+01 SP= -.14E+02 SK= 0.32E-01
   2363 T=   603. E= -.22860779E+03 F= -.22426361E+03 E0= -.22426361E+03  EK= 0.98938E+01 SP= -.14E+02 SK= 0.32E-01
   2364 T=   610. E= -.22860830E+03 F= -.22426325E+03 E0= -.22426325E+03  EK= 0.10017E+02 SP= -.14E+02 SK= 0.30E-01
 bond charge predicted
       N       E                     dE             d eps       ncg     rms          rms(c)
DAV:   1    -0.223376626075E+03    0.20440E+01   -0.19598E+03   264   0.644E+01
DAV:   2    -0.235692137326E+03   -0.12316E+02   -0.12154E+02   348   0.164E+01
DAV:   3    -0.235980061436E+03   -0.28792E+00   -0.28734E+00   324   0.272E+00
DAV:   4    -0.235987226530E+03   -0.71651E-02   -0.71611E-02   324   0.432E-01
DAV:   5    -0.235987505646E+03   -0.27912E-03   -0.27907E-03   336   0.889E-02    0.860E+00
RMM:   6    -0.225657953089E+03    0.10330E+02   -0.12608E+01   264   0.253E+00    0.401E+00
RMM:   7    -0.224695131537E+03    0.96282E+00   -0.30387E+00   264   0.187E+00    0.265E+00
RMM:   8    -0.224114815816E+03    0.58032E+00   -0.10537E+00   264   0.113E+00    0.133E+00
RMM:   9    -0.224077522565E+03    0.37293E-01   -0.42370E-01   264   0.744E-01    0.622E-01
RMM:  10    -0.224080127281E+03   -0.26047E-02   -0.10508E-01   273   0.440E-01    0.381E-01
RMM:  11    -0.224079334314E+03    0.79297E-03   -0.30213E-02   273   0.242E-01    0.168E-01
RMM:  12    -0.224079765319E+03   -0.43101E-03   -0.68508E-03   265   0.134E-01    0.665E-02
RMM:  13    -0.224079862615E+03   -0.97296E-04   -0.18094E-03   269   0.673E-02    0.383E-02
RMM:  14    -0.224079846345E+03    0.16270E-04   -0.46036E-04   238   0.352E-02
   2365 T=   619. E= -.22840781E+03 F= -.22407985E+03 E0= -.22405863E+03  EK= 0.10155E+02 SP= -.15E+02 SK= 0.27E-01
   2366 T=   628. E= -.22862353E+03 F= -.22433165E+03 E0= -.22433165E+03  EK= 0.10305E+02 SP= -.15E+02 SK= 0.23E-01
   2367 T=   637. E= -.22862417E+03 F= -.22438782E+03 E0= -.22438782E+03  EK= 0.10464E+02 SP= -.15E+02 SK= 0.17E-01
   2368 T=   646. E= -.22862481E+03 F= -.22444946E+03 E0= -.22444946E+03  EK= 0.10613E+02 SP= -.15E+02 SK= 0.11E-01
   2369 T=   654. E= -.22862531E+03 F= -.22450946E+03 E0= -.22450946E+03  EK= 0.10740E+02 SP= -.15E+02 SK= 0.56E-02
   2370 T=   660. E= -.22862558E+03 F= -.22456259E+03 E0= -.22456259E+03  EK= 0.10837E+02 SP= -.15E+02 SK= 0.16E-02
   2371 T=   664. E= -.22862556E+03 F= -.22460649E+03 E0= -.22460649E+03  EK= 0.10898E+02 SP= -.15E+02 SK= 0.99E-05
   2372 T=   665. E= -.22862543E+03 F= -.22464156E+03 E0= -.22464156E+03  EK= 0.10920E+02 SP= -.15E+02 SK= 0.13E-02
   2373 T=   664. E= -.22862529E+03 F= -.22466900E+03 E0= -.22466900E+03  EK= 0.10905E+02 SP= -.15E+02 SK= 0.55E-02
   2374 T=   661. E= -.22862512E+03 F= -.22468923E+03 E0= -.22468923E+03  EK= 0.10854E+02 SP= -.15E+02 SK= 0.12E-01
   2375 T=   656. E= -.22862485E+03 F= -.22470203E+03 E0= -.22470203E+03  EK= 0.10768E+02 SP= -.15E+02 SK= 0.22E-01
   2376 T=   649. E= -.22862446E+03 F= -.22470778E+03 E0= -.22470778E+03  EK= 0.10650E+02 SP= -.15E+02 SK= 0.32E-01
   2377 T=   640. E= -.22862405E+03 F= -.22470767E+03 E0= -.22470767E+03  EK= 0.10507E+02 SP= -.14E+02 SK= 0.42E-01
   2378 T=   630. E= -.22862363E+03 F= -.22470338E+03 E0= -.22470338E+03  EK= 0.10343E+02 SP= -.14E+02 SK= 0.51E-01
   2379 T=   619. E= -.22862310E+03 F= -.22469722E+03 E0= -.22469722E+03  EK= 0.10167E+02 SP= -.14E+02 SK= 0.58E-01
   2380 T=   608. E= -.22862249E+03 F= -.22469315E+03 E0= -.22469315E+03  EK= 0.99881E+01 SP= -.14E+02 SK= 0.63E-01
   2381 T=   598. E= -.22862189E+03 F= -.22469685E+03 E0= -.22469685E+03  EK= 0.98157E+01 SP= -.14E+02 SK= 0.64E-01
   2382 T=   588. E= -.22862141E+03 F= -.22471436E+03 E0= -.22471436E+03  EK= 0.96603E+01 SP= -.14E+02 SK= 0.62E-01
   2383 T=   581. E= -.22862111E+03 F= -.22475060E+03 E0= -.22475060E+03  EK= 0.95300E+01 SP= -.13E+02 SK= 0.58E-01
   2384 T=   574. E= -.22862101E+03 F= -.22480822E+03 E0= -.22480822E+03  EK= 0.94300E+01 SP= -.13E+02 SK= 0.52E-01
   2385 T=   570. E= -.22862103E+03 F= -.22488719E+03 E0= -.22488719E+03  EK= 0.93620E+01 SP= -.13E+02 SK= 0.45E-01
   2386 T=   568. E= -.22862115E+03 F= -.22498544E+03 E0= -.22498544E+03  EK= 0.93250E+01 SP= -.13E+02 SK= 0.38E-01
   2387 T=   567. E= -.22862132E+03 F= -.22509929E+03 E0= -.22509929E+03  EK= 0.93157E+01 SP= -.13E+02 SK= 0.31E-01
   2388 T=   568. E= -.22862151E+03 F= -.22522398E+03 E0= -.22522398E+03  EK= 0.93291E+01 SP= -.13E+02 SK= 0.25E-01
   2389 T=   570. E= -.22862170E+03 F= -.22535419E+03 E0= -.22535419E+03  EK= 0.93596E+01 SP= -.13E+02 SK= 0.20E-01
   2390 T=   573. E= -.22862188E+03 F= -.22548450E+03 E0= -.22548450E+03  EK= 0.94009E+01 SP= -.13E+02 SK= 0.16E-01
   2391 T=   575. E= -.22862199E+03 F= -.22560981E+03 E0= -.22560981E+03  EK= 0.94470E+01 SP= -.12E+02 SK= 0.12E-01
   2392 T=   578. E= -.22862203E+03 F= -.22572611E+03 E0= -.22572611E+03  EK= 0.94930E+01 SP= -.12E+02 SK= 0.97E-02
   2393 T=   581. E= -.22862201E+03 F= -.22583057E+03 E0= -.22583057E+03  EK= 0.95350E+01 SP= -.12E+02 SK= 0.76E-02
   2394 T=   583. E= -.22862194E+03 F= -.22592148E+03 E0= -.22592148E+03  EK= 0.95703E+01 SP= -.12E+02 SK= 0.60E-02
   2395 T=   585. E= -.22862184E+03 F= -.22599833E+03 E0= -.22599833E+03  EK= 0.95978E+01 SP= -.12E+02 SK= 0.47E-02
   2396 T=   586. E= -.22862166E+03 F= -.22606172E+03 E0= -.22606172E+03  EK= 0.96175E+01 SP= -.12E+02 SK= 0.37E-02
   2397 T=   587. E= -.22862141E+03 F= -.22611353E+03 E0= -.22611353E+03  EK= 0.96308E+01 SP= -.12E+02 SK= 0.28E-02
   2398 T=   587. E= -.22862113E+03 F= -.22615684E+03 E0= -.22615684E+03  EK= 0.96405E+01 SP= -.12E+02 SK= 0.21E-02
   2399 T=   588. E= -.22862084E+03 F= -.22619544E+03 E0= -.22619544E+03  EK= 0.96501E+01 SP= -.12E+02 SK= 0.16E-02
   2400 T=   589. E= -.22862062E+03 F= -.22623324E+03 E0= -.22623324E+03  EK= 0.96632E+01 SP= -.12E+02 SK= 0.11E-02
   2401 T=   590. E= -.22862051E+03 F= -.22627333E+03 E0= -.22627333E+03  EK= 0.96826E+01 SP= -.12E+02 SK= 0.76E-03
   2402 T=   591. E= -.22862056E+03 F= -.22631727E+03 E0= -.22631727E+03  EK= 0.97093E+01 SP= -.12E+02 SK= 0.51E-03
   2403 T=   593. E= -.22862080E+03 F= -.22636423E+03 E0= -.22636423E+03  EK= 0.97418E+01 SP= -.12E+02 SK= 0.35E-03
   2404 T=   596. E= -.22862113E+03 F= -.22641098E+03 E0= -.22641098E+03  EK= 0.97761E+01 SP= -.12E+02 SK= 0.26E-03
   2405 T=   597. E= -.22862153E+03 F= -.22645260E+03 E0= -.22645260E+03  EK= 0.98066E+01 SP= -.12E+02 SK= 0.22E-03
   2406 T=   599. E= -.22862194E+03 F= -.22648316E+03 E0= -.22648316E+03  EK= 0.98267E+01 SP= -.12E+02 SK= 0.20E-03
   2407 T=   599. E= -.22862224E+03 F= -.22649682E+03 E0= -.22649682E+03  EK= 0.98301E+01 SP= -.12E+02 SK= 0.20E-03
   2408 T=   598. E= -.22862238E+03 F= -.22648927E+03 E0= -.22648927E+03  EK= 0.98126E+01 SP= -.12E+02 SK= 0.20E-03
   2409 T=   595. E= -.22862230E+03 F= -.22645883E+03 E0= -.22645883E+03  EK= 0.97729E+01 SP= -.12E+02 SK= 0.16E-03
   2410 T=   592. E= -.22862203E+03 F= -.22640695E+03 E0= -.22640695E+03  EK= 0.97135E+01 SP= -.12E+02 SK= 0.95E-04
   2411 T=   587. E= -.22862165E+03 F= -.22633794E+03 E0= -.22633794E+03  EK= 0.96401E+01 SP= -.12E+02 SK= 0.18E-04
   2412 T=   582. E= -.22862126E+03 F= -.22625800E+03 E0= -.22625800E+03  EK= 0.95604E+01 SP= -.12E+02 SK= 0.15E-04
   2413 T=   578. E= -.22862092E+03 F= -.22617367E+03 E0= -.22617367E+03  EK= 0.94828E+01 SP= -.12E+02 SK= 0.22E-03
   2414 T=   573. E= -.22862078E+03 F= -.22609051E+03 E0= -.22609051E+03  EK= 0.94143E+01 SP= -.12E+02 SK= 0.82E-03
   2415 T=   570. E= -.22862080E+03 F= -.22601178E+03 E0= -.22601178E+03  EK= 0.93599E+01 SP= -.12E+02 SK= 0.20E-02
   2416 T=   568. E= -.22862097E+03 F= -.22593833E+03 E0= -.22593833E+03  EK= 0.93216E+01 SP= -.12E+02 SK= 0.38E-02
   2417 T=   566. E= -.22862119E+03 F= -.22586884E+03 E0= -.22586884E+03  EK= 0.92989E+01 SP= -.12E+02 SK= 0.65E-02
   2418 T=   566. E= -.22862140E+03 F= -.22580106E+03 E0= -.22580106E+03  EK= 0.92903E+01 SP= -.12E+02 SK= 0.99E-02
   2419 T=   566. E= -.22862155E+03 F= -.22573290E+03 E0= -.22573290E+03  EK= 0.92940E+01 SP= -.12E+02 SK= 0.14E-01
   2420 T=   567. E= -.22862168E+03 F= -.22566278E+03 E0= -.22566278E+03  EK= 0.93083E+01 SP= -.12E+02 SK= 0.19E-01
   2421 T=   568. E= -.22862179E+03 F= -.22558960E+03 E0= -.22558960E+03  EK= 0.93321E+01 SP= -.12E+02 SK= 0.24E-01
   2422 T=   570. E= -.22862193E+03 F= -.22551261E+03 E0= -.22551261E+03  EK= 0.93640E+01 SP= -.13E+02 SK= 0.30E-01
   2423 T=   573. E= -.22862204E+03 F= -.22543106E+03 E0= -.22543106E+03  EK= 0.94027E+01 SP= -.13E+02 SK= 0.36E-01
   2424 T=   575. E= -.22862213E+03 F= -.22534464E+03 E0= -.22534464E+03  EK= 0.94473E+01 SP= -.13E+02 SK= 0.41E-01
   2425 T=   579. E= -.22862218E+03 F= -.22525344E+03 E0= -.22525344E+03  EK= 0.94970E+01 SP= -.13E+02 SK= 0.47E-01
   2426 T=   582. E= -.22862220E+03 F= -.22515818E+03 E0= -.22515818E+03  EK= 0.95513E+01 SP= -.13E+02 SK= 0.52E-01
   2427 T=   585. E= -.22862219E+03 F= -.22506028E+03 E0= -.22506028E+03  EK= 0.96107E+01 SP= -.13E+02 SK= 0.56E-01
   2428 T=   589. E= -.22862215E+03 F= -.22496160E+03 E0= -.22496160E+03  EK= 0.96757E+01 SP= -.13E+02 SK= 0.59E-01
   2429 T=   594. E= -.22862214E+03 F= -.22486439E+03 E0= -.22486439E+03  EK= 0.97470E+01 SP= -.14E+02 SK= 0.61E-01
   2430 T=   599. E= -.22862216E+03 F= -.22477067E+03 E0= -.22477067E+03  EK= 0.98251E+01 SP= -.14E+02 SK= 0.62E-01
   2431 T=   604. E= -.22862227E+03 F= -.22468197E+03 E0= -.22468197E+03  EK= 0.99097E+01 SP= -.14E+02 SK= 0.61E-01
   2432 T=   609. E= -.22862244E+03 F= -.22459893E+03 E0= -.22459893E+03  EK= 0.99995E+01 SP= -.14E+02 SK= 0.59E-01
   2433 T=   615. E= -.22862263E+03 F= -.22452146E+03 E0= -.22452146E+03  EK= 0.10092E+02 SP= -.14E+02 SK= 0.55E-01
   2434 T=   620. E= -.22862285E+03 F= -.22444912E+03 E0= -.22444912E+03  EK= 0.10185E+02 SP= -.14E+02 SK= 0.50E-01
   2435 T=   626. E= -.22862304E+03 F= -.22438137E+03 E0= -.22438137E+03  EK= 0.10274E+02 SP= -.15E+02 SK= 0.44E-01
   2436 T=   631. E= -.22862319E+03 F= -.22431800E+03 E0= -.22431800E+03  EK= 0.10358E+02 SP= -.15E+02 SK= 0.37E-01
   2437 T=   636. E= -.22862329E+03 F= -.22425930E+03 E0= -.22425930E+03  EK= 0.10434E+02 SP= -.15E+02 SK= 0.30E-01
   2438 T=   640. E= -.22862338E+03 F= -.22420611E+03 E0= -.22420611E+03  EK= 0.10500E+02 SP= -.15E+02 SK= 0.22E-01
   2439 T=   643. E= -.22862344E+03 F= -.22415944E+03 E0= -.22415944E+03  EK= 0.10556E+02 SP= -.15E+02 SK= 0.16E-01
   2440 T=   646. E= -.22862349E+03 F= -.22412032E+03 E0= -.22412032E+03  EK= 0.10601E+02 SP= -.15E+02 SK= 0.97E-02
   2441 T=   648. E= -.22862362E+03 F= -.22408942E+03 E0= -.22408942E+03  EK= 0.10634E+02 SP= -.15E+02 SK= 0.50E-02
   2442 T=   649. E= -.22862378E+03 F= -.22406643E+03 E0= -.22406643E+03  EK= 0.10653E+02 SP= -.15E+02 SK= 0.17E-02
   2443 T=   649. E= -.22862400E+03 F= -.22405006E+03 E0= -.22405006E+03  EK= 0.10656E+02 SP= -.15E+02 SK= 0.15E-03
   2444 T=   648. E= -.22862425E+03 F= -.22403790E+03 E0= -.22403790E+03  EK= 0.10642E+02 SP= -.15E+02 SK= 0.29E-03
   2445 T=   646. E= -.22862446E+03 F= -.22402682E+03 E0= -.22402682E+03  EK= 0.10607E+02 SP= -.15E+02 SK= 0.21E-02
   2446 T=   643. E= -.22862456E+03 F= -.22401382E+03 E0= -.22401382E+03  EK= 0.10550E+02 SP= -.15E+02 SK= 0.52E-02
   2447 T=   638. E= -.22862448E+03 F= -.22399709E+03 E0= -.22399709E+03  EK= 0.10470E+02 SP= -.15E+02 SK= 0.93E-02
   2448 T=   632. E= -.22862420E+03 F= -.22397705E+03 E0= -.22397705E+03  EK= 0.10371E+02 SP= -.15E+02 SK= 0.14E-01
   2449 T=   625. E= -.22862377E+03 F= -.22395669E+03 E0= -.22395669E+03  EK= 0.10259E+02 SP= -.15E+02 SK= 0.18E-01
   2450 T=   618. E= -.22862325E+03 F= -.22394111E+03 E0= -.22394111E+03  EK= 0.10141E+02 SP= -.15E+02 SK= 0.22E-01
   2451 T=   611. E= -.22862273E+03 F= -.22393682E+03 E0= -.22393682E+03  EK= 0.10028E+02 SP= -.15E+02 SK= 0.25E-01
   2452 T=   605. E= -.22862228E+03 F= -.22395034E+03 E0= -.22395034E+03  EK= 0.99292E+01 SP= -.15E+02 SK= 0.26E-01
   2453 T=   600. E= -.22862199E+03 F= -.22398697E+03 E0= -.22398697E+03  EK= 0.98515E+01 SP= -.15E+02 SK= 0.27E-01
   2454 T=   597. E= -.22862192E+03 F= -.22404967E+03 E0= -.22404967E+03  EK= 0.97999E+01 SP= -.14E+02 SK= 0.27E-01
   2455 T=   595. E= -.22862205E+03 F= -.22413818E+03 E0= -.22413818E+03  EK= 0.97749E+01 SP= -.14E+02 SK= 0.26E-01
   2456 T=   595. E= -.22862236E+03 F= -.22424890E+03 E0= -.22424890E+03  EK= 0.97734E+01 SP= -.14E+02 SK= 0.26E-01
   2457 T=   596. E= -.22862281E+03 F= -.22437538E+03 E0= -.22437538E+03  EK= 0.97887E+01 SP= -.14E+02 SK= 0.25E-01
   2458 T=   598. E= -.22862335E+03 F= -.22450874E+03 E0= -.22450874E+03  EK= 0.98116E+01 SP= -.14E+02 SK= 0.25E-01
   2459 T=   599. E= -.22862393E+03 F= -.22463848E+03 E0= -.22463848E+03  EK= 0.98311E+01 SP= -.14E+02 SK= 0.25E-01
   2460 T=   599. E= -.22862446E+03 F= -.22475342E+03 E0= -.22475342E+03  EK= 0.98355E+01 SP= -.14E+02 SK= 0.25E-01
   2461 T=   598. E= -.22862488E+03 F= -.22484296E+03 E0= -.22484296E+03  EK= 0.98147E+01 SP= -.14E+02 SK= 0.25E-01
   2462 T=   595. E= -.22862512E+03 F= -.22489818E+03 E0= -.22489818E+03  EK= 0.97606E+01 SP= -.14E+02 SK= 0.24E-01
   2463 T=   589. E= -.22862512E+03 F= -.22491304E+03 E0= -.22491304E+03  EK= 0.96689E+01 SP= -.13E+02 SK= 0.23E-01
   2464 T=   581. E= -.22862487E+03 F= -.22488531E+03 E0= -.22488531E+03  EK= 0.95400E+01 SP= -.13E+02 SK= 0.21E-01
   2465 T=   571. E= -.22862439E+03 F= -.22481699E+03 E0= -.22481699E+03  EK= 0.93792E+01 SP= -.13E+02 SK= 0.17E-01
   2466 T=   560. E= -.22862372E+03 F= -.22471423E+03 E0= -.22471423E+03  EK= 0.91965E+01 SP= -.13E+02 SK= 0.13E-01
   2467 T=   549. E= -.22862290E+03 F= -.22458678E+03 E0= -.22458678E+03  EK= 0.90053E+01 SP= -.13E+02 SK= 0.76E-02
   2468 T=   537. E= -.22862206E+03 F= -.22444749E+03 E0= -.22444749E+03  EK= 0.88222E+01 SP= -.13E+02 SK= 0.30E-02
   2469 T=   528. E= -.22862122E+03 F= -.22431064E+03 E0= -.22431064E+03  EK= 0.86645E+01 SP= -.13E+02 SK= 0.25E-03
   2470 T=   521. E= -.22862047E+03 F= -.22419061E+03 E0= -.22419061E+03  EK= 0.85490E+01 SP= -.13E+02 SK= 0.79E-03
   2471 T=   517. E= -.22861980E+03 F= -.22410066E+03 E0= -.22410066E+03  EK= 0.84908E+01 SP= -.13E+02 SK= 0.56E-02
   2472 T=   518. E= -.22861935E+03 F= -.22405176E+03 E0= -.22405176E+03  EK= 0.85017E+01 SP= -.13E+02 SK= 0.15E-01
   2473 T=   523. E= -.22861918E+03 F= -.22405082E+03 E0= -.22405082E+03  EK= 0.85891E+01 SP= -.13E+02 SK= 0.28E-01
   2474 T=   533. E= -.22861934E+03 F= -.22409948E+03 E0= -.22409948E+03  EK= 0.87540E+01 SP= -.13E+02 SK= 0.44E-01
   2475 T=   548. E= -.22861987E+03 F= -.22419360E+03 E0= -.22419360E+03  EK= 0.89905E+01 SP= -.13E+02 SK= 0.60E-01
   2476 T=   566. E= -.22862074E+03 F= -.22432355E+03 E0= -.22432355E+03  EK= 0.92861E+01 SP= -.14E+02 SK= 0.73E-01
   2477 T=   586. E= -.22862191E+03 F= -.22447532E+03 E0= -.22447532E+03  EK= 0.96218E+01 SP= -.14E+02 SK= 0.80E-01
   2478 T=   608. E= -.22862320E+03 F= -.22463225E+03 E0= -.22463225E+03  EK= 0.99745E+01 SP= -.14E+02 SK= 0.81E-01
   2479 T=   629. E= -.22862451E+03 F= -.22477758E+03 E0= -.22477758E+03  EK= 0.10319E+02 SP= -.14E+02 SK= 0.74E-01
   2480 T=   648. E= -.22862563E+03 F= -.22489660E+03 E0= -.22489660E+03  EK= 0.10631E+02 SP= -.14E+02 SK= 0.62E-01
   2481 T=   663. E= -.22862647E+03 F= -.22497870E+03 E0= -.22497870E+03  EK= 0.10890E+02 SP= -.15E+02 SK= 0.47E-01
   2482 T=   675. E= -.22862687E+03 F= -.22501863E+03 E0= -.22501863E+03  EK= 0.11082E+02 SP= -.15E+02 SK= 0.30E-01
   2483 T=   682. E= -.22862679E+03 F= -.22501722E+03 E0= -.22501722E+03  EK= 0.11200E+02 SP= -.15E+02 SK= 0.16E-01
   2484 T=   685. E= -.22862626E+03 F= -.22498125E+03 E0= -.22498125E+03  EK= 0.11246E+02 SP= -.15E+02 SK= 0.60E-02
   2485 T=   684. E= -.22862541E+03 F= -.22492239E+03 E0= -.22492239E+03  EK= 0.11230E+02 SP= -.15E+02 SK= 0.73E-03
   2486 T=   680. E= -.22862434E+03 F= -.22485547E+03 E0= -.22485547E+03  EK= 0.11166E+02 SP= -.15E+02 SK= 0.48E-03
   2487 T=   675. E= -.22862329E+03 F= -.22479667E+03 E0= -.22479667E+03  EK= 0.11073E+02 SP= -.15E+02 SK= 0.46E-02
   2488 T=   668. E= -.22862245E+03 F= -.22476082E+03 E0= -.22476082E+03  EK= 0.10969E+02 SP= -.15E+02 SK= 0.12E-01
   2489 T=   662. E= -.22862195E+03 F= -.22475892E+03 E0= -.22475892E+03  EK= 0.10867E+02 SP= -.15E+02 SK= 0.22E-01
   2490 T=   656. E= -.22862189E+03 F= -.22479621E+03 E0= -.22479621E+03  EK= 0.10777E+02 SP= -.15E+02 SK= 0.34E-01
   2491 T=   652. E= -.22862219E+03 F= -.22487122E+03 E0= -.22487122E+03  EK= 0.10699E+02 SP= -.14E+02 SK= 0.47E-01
   2492 T=   647. E= -.22862274E+03 F= -.22497647E+03 E0= -.22497647E+03  EK= 0.10629E+02 SP= -.14E+02 SK= 0.60E-01
   2493 T=   643. E= -.22862329E+03 F= -.22510034E+03 E0= -.22510034E+03  EK= 0.10557E+02 SP= -.14E+02 SK= 0.74E-01
   2494 T=   638. E= -.22862368E+03 F= -.22523008E+03 E0= -.22523008E+03  EK= 0.10474E+02 SP= -.14E+02 SK= 0.88E-01
   2495 T=   632. E= -.22862381E+03 F= -.22535459E+03 E0= -.22535459E+03  EK= 0.10371E+02 SP= -.14E+02 SK= 0.10E+00
   2496 T=   624. E= -.22862360E+03 F= -.22546619E+03 E0= -.22546619E+03  EK= 0.10243E+02 SP= -.14E+02 SK= 0.11E+00
   2497 T=   615. E= -.22862316E+03 F= -.22556162E+03 E0= -.22556162E+03  EK= 0.10092E+02 SP= -.13E+02 SK= 0.12E+00
   2498 T=   605. E= -.22862257E+03 F= -.22564164E+03 E0= -.22564164E+03  EK= 0.99236E+01 SP= -.13E+02 SK= 0.13E+00
   2499 T=   594. E= -.22862192E+03 F= -.22570986E+03 E0= -.22570986E+03  EK= 0.97453E+01 SP= -.13E+02 SK= 0.13E+00
   2500 T=   583. E= -.22862132E+03 F= -.22577160E+03 E0= -.22577160E+03  EK= 0.95670E+01 SP= -.13E+02 SK= 0.12E+00
   2501 T=   573. E= -.22862082E+03 F= -.22583263E+03 E0= -.22583263E+03  EK= 0.93985E+01 SP= -.12E+02 SK= 0.11E+00
   2502 T=   563. E= -.22862046E+03 F= -.22589805E+03 E0= -.22589805E+03  EK= 0.92482E+01 SP= -.12E+02 SK= 0.10E+00
   2503 T=   556. E= -.22862022E+03 F= -.22597188E+03 E0= -.22597188E+03  EK= 0.91229E+01 SP= -.12E+02 SK= 0.87E-01
   2504 T=   550. E= -.22862010E+03 F= -.22605673E+03 E0= -.22605673E+03  EK= 0.90270E+01 SP= -.12E+02 SK= 0.72E-01
   2505 T=   546. E= -.22862005E+03 F= -.22615370E+03 E0= -.22615370E+03  EK= 0.89629E+01 SP= -.11E+02 SK= 0.57E-01
   2506 T=   544. E= -.22862006E+03 F= -.22626288E+03 E0= -.22626288E+03  EK= 0.89312E+01 SP= -.11E+02 SK= 0.43E-01
   2507 T=   544. E= -.22862008E+03 F= -.22638349E+03 E0= -.22638349E+03  EK= 0.89314E+01 SP= -.11E+02 SK= 0.30E-01
   2508 T=   546. E= -.22862012E+03 F= -.22651424E+03 E0= -.22651424E+03  EK= 0.89616E+01 SP= -.11E+02 SK= 0.20E-01
   2509 T=   549. E= -.22862017E+03 F= -.22665345E+03 E0= -.22665345E+03  EK= 0.90194E+01 SP= -.11E+02 SK= 0.13E-01
   2510 T=   554. E= -.22862027E+03 F= -.22679902E+03 E0= -.22679902E+03  EK= 0.91014E+01 SP= -.11E+02 SK= 0.73E-02
   2511 T=   561. E= -.22862042E+03 F= -.22694806E+03 E0= -.22694806E+03  EK= 0.92029E+01 SP= -.11E+02 SK= 0.37E-02
   2512 T=   568. E= -.22862064E+03 F= -.22709674E+03 E0= -.22709674E+03  EK= 0.93179E+01 SP= -.11E+02 SK= 0.17E-02
   2513 T=   575. E= -.22862086E+03 F= -.22724050E+03 E0= -.22724050E+03  EK= 0.94398E+01 SP= -.11E+02 SK= 0.60E-03
   2514 T=   582. E= -.22862109E+03 F= -.22737465E+03 E0= -.22737465E+03  EK= 0.95611E+01 SP= -.11E+02 SK= 0.17E-03
   2515 T=   589. E= -.22862127E+03 F= -.22749470E+03 E0= -.22749470E+03  EK= 0.96748E+01 SP= -.11E+02 SK= 0.29E-04
   2516 T=   595. E= -.22862140E+03 F= -.22759703E+03 E0= -.22759703E+03  EK= 0.97745E+01 SP= -.11E+02 SK= 0.27E-05
   2517 T=   600. E= -.22862145E+03 F= -.22767910E+03 E0= -.22767910E+03  EK= 0.98556E+01 SP= -.11E+02 SK= 0.14E-05
   2518 T=   604. E= -.22862145E+03 F= -.22773957E+03 E0= -.22773957E+03  EK= 0.99145E+01 SP= -.11E+02 SK= 0.10E-04
   2519 T=   606. E= -.22862145E+03 F= -.22777801E+03 E0= -.22777801E+03  EK= 0.99494E+01 SP= -.11E+02 SK= 0.48E-04
   2520 T=   607. E= -.22862143E+03 F= -.22779438E+03 E0= -.22779438E+03  EK= 0.99593E+01 SP= -.11E+02 SK= 0.13E-03
   2521 T=   606. E= -.22862141E+03 F= -.22778896E+03 E0= -.22778896E+03  EK= 0.99443E+01 SP= -.11E+02 SK= 0.25E-03
   2522 T=   603. E= -.22862137E+03 F= -.22776231E+03 E0= -.22776231E+03  EK= 0.99054E+01 SP= -.11E+02 SK= 0.37E-03
   2523 T=   600. E= -.22862125E+03 F= -.22771558E+03 E0= -.22771558E+03  EK= 0.98448E+01 SP= -.11E+02 SK= 0.44E-03
   2524 T=   595. E= -.22862103E+03 F= -.22765110E+03 E0= -.22765110E+03  EK= 0.97663E+01 SP= -.11E+02 SK= 0.40E-03
   2525 T=   589. E= -.22862073E+03 F= -.22757278E+03 E0= -.22757278E+03  EK= 0.96758E+01 SP= -.11E+02 SK= 0.26E-03
   2526 T=   584. E= -.22862037E+03 F= -.22748593E+03 E0= -.22748593E+03  EK= 0.95807E+01 SP= -.11E+02 SK= 0.80E-04
   2527 T=   578. E= -.22861998E+03 F= -.22739695E+03 E0= -.22739695E+03  EK= 0.94896E+01 SP= -.11E+02 SK= 0.26E-05
   2528 T=   573. E= -.22861968E+03 F= -.22731247E+03 E0= -.22731247E+03  EK= 0.94111E+01 SP= -.11E+02 SK= 0.23E-03
   2529 T=   570. E= -.22861949E+03 F= -.22723810E+03 E0= -.22723810E+03  EK= 0.93524E+01 SP= -.11E+02 SK= 0.98E-03
   2530 T=   568. E= -.22861947E+03 F= -.22717737E+03 E0= -.22717737E+03  EK= 0.93183E+01 SP= -.11E+02 SK= 0.24E-02
   2531 T=   567. E= -.22861961E+03 F= -.22713116E+03 E0= -.22713116E+03  EK= 0.93105E+01 SP= -.11E+02 SK= 0.46E-02
   2532 T=   568. E= -.22861985E+03 F= -.22709781E+03 E0= -.22709781E+03  EK= 0.93276E+01 SP= -.11E+02 SK= 0.74E-02
   2533 T=   571. E= -.22862016E+03 F= -.22707376E+03 E0= -.22707376E+03  EK= 0.93658E+01 SP= -.11E+02 SK= 0.11E-01
   2534 T=   574. E= -.22862044E+03 F= -.22705449E+03 E0= -.22705449E+03  EK= 0.94202E+01 SP= -.11E+02 SK= 0.14E-01
   2535 T=   578. E= -.22862068E+03 F= -.22703573E+03 E0= -.22703573E+03  EK= 0.94854E+01 SP= -.11E+02 SK= 0.18E-01
   2536 T=   582. E= -.22862077E+03 F= -.22701425E+03 E0= -.22701425E+03  EK= 0.95569E+01 SP= -.11E+02 SK= 0.21E-01
   2537 T=   587. E= -.22862081E+03 F= -.22698857E+03 E0= -.22698857E+03  EK= 0.96316E+01 SP= -.11E+02 SK= 0.23E-01
   2538 T=   591. E= -.22862079E+03 F= -.22695857E+03 E0= -.22695857E+03  EK= 0.97076E+01 SP= -.11E+02 SK= 0.25E-01
   2539 T=   596. E= -.22862078E+03 F= -.22692506E+03 E0= -.22692506E+03  EK= 0.97840E+01 SP= -.12E+02 SK= 0.26E-01
   2540 T=   601. E= -.22862087E+03 F= -.22688883E+03 E0= -.22688883E+03  EK= 0.98597E+01 SP= -.12E+02 SK= 0.26E-01
   2541 T=   605. E= -.22862105E+03 F= -.22684965E+03 E0= -.22684965E+03  EK= 0.99324E+01 SP= -.12E+02 SK= 0.25E-01
   2542 T=   609. E= -.22862137E+03 F= -.22680595E+03 E0= -.22680595E+03  EK= 0.99988E+01 SP= -.12E+02 SK= 0.24E-01
   2543 T=   612. E= -.22862174E+03 F= -.22675472E+03 E0= -.22675472E+03  EK= 0.10054E+02 SP= -.12E+02 SK= 0.22E-01
   2544 T=   615. E= -.22862211E+03 F= -.22669219E+03 E0= -.22669219E+03  EK= 0.10093E+02 SP= -.12E+02 SK= 0.19E-01
   2545 T=   616. E= -.22862237E+03 F= -.22661489E+03 E0= -.22661489E+03  EK= 0.10111E+02 SP= -.12E+02 SK= 0.16E-01
   2546 T=   616. E= -.22862244E+03 F= -.22652092E+03 E0= -.22652092E+03  EK= 0.10105E+02 SP= -.12E+02 SK= 0.14E-01
   2547 T=   614. E= -.22862237E+03 F= -.22641086E+03 E0= -.22641086E+03  EK= 0.10077E+02 SP= -.12E+02 SK= 0.12E-01
   2548 T=   611. E= -.22862218E+03 F= -.22628753E+03 E0= -.22628753E+03  EK= 0.10028E+02 SP= -.12E+02 SK= 0.10E-01
   2549 T=   607. E= -.22862193E+03 F= -.22615537E+03 E0= -.22615537E+03  EK= 0.99659E+01 SP= -.12E+02 SK= 0.90E-02
   2550 T=   603. E= -.22862174E+03 F= -.22601944E+03 E0= -.22601944E+03  EK= 0.98959E+01 SP= -.13E+02 SK= 0.84E-02
   2551 T=   598. E= -.22862164E+03 F= -.22588418E+03 E0= -.22588418E+03  EK= 0.98243E+01 SP= -.13E+02 SK= 0.82E-02
   2552 T=   594. E= -.22862165E+03 F= -.22575268E+03 E0= -.22575268E+03  EK= 0.97561E+01 SP= -.13E+02 SK= 0.84E-02
   2553 T=   591. E= -.22862172E+03 F= -.22562647E+03 E0= -.22562647E+03  EK= 0.96944E+01 SP= -.13E+02 SK= 0.91E-02
   2554 T=   587. E= -.22862182E+03 F= -.22550609E+03 E0= -.22550609E+03  EK= 0.96415E+01 SP= -.13E+02 SK= 0.10E-01
   2555 T=   585. E= -.22862188E+03 F= -.22539178E+03 E0= -.22539178E+03  EK= 0.95989E+01 SP= -.13E+02 SK= 0.12E-01
   2556 T=   583. E= -.22862188E+03 F= -.22528414E+03 E0= -.22528414E+03  EK= 0.95683E+01 SP= -.13E+02 SK= 0.14E-01
   2557 T=   582. E= -.22862177E+03 F= -.22518475E+03 E0= -.22518475E+03  EK= 0.95521E+01 SP= -.13E+02 SK= 0.16E-01
   2558 T=   582. E= -.22862156E+03 F= -.22509653E+03 E0= -.22509653E+03  EK= 0.95537E+01 SP= -.13E+02 SK= 0.19E-01
   2559 T=   583. E= -.22862128E+03 F= -.22502375E+03 E0= -.22502375E+03  EK= 0.95776E+01 SP= -.13E+02 SK= 0.22E-01
   2560 T=   587. E= -.22862100E+03 F= -.22497146E+03 E0= -.22497146E+03  EK= 0.96283E+01 SP= -.13E+02 SK= 0.24E-01
   2561 T=   591. E= -.22862084E+03 F= -.22494434E+03 E0= -.22494434E+03  EK= 0.97097E+01 SP= -.13E+02 SK= 0.26E-01
   2562 T=   598. E= -.22862083E+03 F= -.22494545E+03 E0= -.22494545E+03  EK= 0.98231E+01 SP= -.14E+02 SK= 0.27E-01
   2563 T=   607. E= -.22862104E+03 F= -.22497539E+03 E0= -.22497539E+03  EK= 0.99667E+01 SP= -.14E+02 SK= 0.26E-01
   2564 T=   617. E= -.22862146E+03 F= -.22503171E+03 E0= -.22503171E+03  EK= 0.10135E+02 SP= -.14E+02 SK= 0.24E-01
   2565 T=   629. E= -.22862205E+03 F= -.22510907E+03 E0= -.22510907E+03  EK= 0.10318E+02 SP= -.14E+02 SK= 0.19E-01
   2566 T=   640. E= -.22862276E+03 F= -.22519983E+03 E0= -.22519983E+03  EK= 0.10503E+02 SP= -.14E+02 SK= 0.14E-01
   2567 T=   650. E= -.22862346E+03 F= -.22529497E+03 E0= -.22529497E+03  EK= 0.10677E+02 SP= -.14E+02 SK= 0.84E-02
   2568 T=   659. E= -.22862403E+03 F= -.22538556E+03 E0= -.22538556E+03  EK= 0.10824E+02 SP= -.14E+02 SK= 0.35E-02
   2569 T=   666. E= -.22862440E+03 F= -.22546429E+03 E0= -.22546429E+03  EK= 0.10934E+02 SP= -.14E+02 SK= 0.46E-03
   2570 T=   670. E= -.22862450E+03 F= -.22552619E+03 E0= -.22552619E+03  EK= 0.10996E+02 SP= -.14E+02 SK= 0.37E-03
   2571 T=   671. E= -.22862437E+03 F= -.22556920E+03 E0= -.22556920E+03  EK= 0.11008E+02 SP= -.14E+02 SK= 0.37E-02
   2572 T=   668. E= -.22862402E+03 F= -.22559382E+03 E0= -.22559382E+03  EK= 0.10969E+02 SP= -.14E+02 SK= 0.11E-01
   2573 T=   663. E= -.22862359E+03 F= -.22560235E+03 E0= -.22560235E+03  EK= 0.10884E+02 SP= -.14E+02 SK= 0.20E-01
   2574 T=   655. E= -.22862312E+03 F= -.22559790E+03 E0= -.22559790E+03  EK= 0.10757E+02 SP= -.14E+02 SK= 0.31E-01
   2575 T=   646. E= -.22862269E+03 F= -.22558348E+03 E0= -.22558348E+03  EK= 0.10598E+02 SP= -.14E+02 SK= 0.43E-01
   2576 T=   634. E= -.22862236E+03 F= -.22556121E+03 E0= -.22556121E+03  EK= 0.10412E+02 SP= -.14E+02 SK= 0.53E-01
   2577 T=   622. E= -.22862215E+03 F= -.22553196E+03 E0= -.22553196E+03  EK= 0.10208E+02 SP= -.13E+02 SK= 0.62E-01
   2578 T=   609. E= -.22862203E+03 F= -.22549512E+03 E0= -.22549512E+03  EK= 0.99899E+01 SP= -.13E+02 SK= 0.67E-01
   2579 T=   595. E= -.22862200E+03 F= -.22544904E+03 E0= -.22544904E+03  EK= 0.97626E+01 SP= -.13E+02 SK= 0.67E-01
   2580 T=   581. E= -.22862199E+03 F= -.22539164E+03 E0= -.22539164E+03  EK= 0.95299E+01 SP= -.13E+02 SK= 0.64E-01
   2581 T=   566. E= -.22862196E+03 F= -.22532127E+03 E0= -.22532127E+03  EK= 0.92956E+01 SP= -.13E+02 SK= 0.57E-01
   2582 T=   552. E= -.22862186E+03 F= -.22523743E+03 E0= -.22523743E+03  EK= 0.90643E+01 SP= -.12E+02 SK= 0.46E-01
   2583 T=   539. E= -.22862168E+03 F= -.22514154E+03 E0= -.22514154E+03  EK= 0.88420E+01 SP= -.12E+02 SK= 0.34E-01
   2584 T=   526. E= -.22862140E+03 F= -.22503725E+03 E0= -.22503725E+03  EK= 0.86361E+01 SP= -.12E+02 SK= 0.21E-01
   2585 T=   515. E= -.22862103E+03 F= -.22493051E+03 E0= -.22493051E+03  EK= 0.84558E+01 SP= -.12E+02 SK= 0.98E-02
 bond charge predicted
       N       E                     dE             d eps       ncg     rms          rms(c)
DAV:   1    -0.224945325298E+03   -0.86546E+00   -0.19150E+03   264   0.641E+01
DAV:   2    -0.237305577608E+03   -0.12360E+02   -0.12163E+02   348   0.165E+01
DAV:   3    -0.237604732364E+03   -0.29915E+00   -0.29823E+00   324   0.278E+00
DAV:   4    -0.237611975160E+03   -0.72428E-02   -0.72387E-02   324   0.440E-01
DAV:   5    -0.237612250595E+03   -0.27544E-03   -0.27541E-03   348   0.884E-02    0.877E+00
RMM:   6    -0.228289099048E+03    0.93232E+01   -0.14152E+01   264   0.262E+00    0.524E+00
RMM:   7    -0.225073027186E+03    0.32161E+01   -0.27037E+00   264   0.190E+00    0.267E+00
RMM:   8    -0.224562374188E+03    0.51065E+00   -0.12720E+00   264   0.115E+00    0.136E+00
RMM:   9    -0.224525440065E+03    0.36934E-01   -0.39432E-01   264   0.728E-01    0.759E-01
RMM:  10    -0.224518305921E+03    0.71341E-02   -0.10009E-01   268   0.437E-01    0.443E-01
RMM:  11    -0.224515808557E+03    0.24974E-02   -0.29428E-02   267   0.243E-01    0.218E-01
RMM:  12    -0.224516336072E+03   -0.52752E-03   -0.94484E-03   271   0.146E-01    0.984E-02
RMM:  13    -0.224516325895E+03    0.10176E-04   -0.22159E-03   269   0.717E-02    0.544E-02
RMM:  14    -0.224516259914E+03    0.65982E-04   -0.59524E-04   258   0.406E-02
   2586 T=   506. E= -.22831422E+03 F= -.22451626E+03 E0= -.22450426E+03  EK= 0.83047E+01 SP= -.12E+02 SK= 0.23E-02
   2587 T=   500. E= -.22863254E+03 F= -.22474278E+03 E0= -.22474278E+03  EK= 0.82016E+01 SP= -.12E+02 SK= 0.76E-04
   2588 T=   497. E= -.22863215E+03 F= -.22467933E+03 E0= -.22467933E+03  EK= 0.81606E+01 SP= -.12E+02 SK= 0.46E-02
   2589 T=   499. E= -.22863185E+03 F= -.22464580E+03 E0= -.22464580E+03  EK= 0.81837E+01 SP= -.12E+02 SK= 0.16E-01
   2590 T=   504. E= -.22863165E+03 F= -.22464696E+03 E0= -.22464696E+03  EK= 0.82756E+01 SP= -.12E+02 SK= 0.34E-01
   2591 T=   514. E= -.22863164E+03 F= -.22468456E+03 E0= -.22468456E+03  EK= 0.84378E+01 SP= -.12E+02 SK= 0.56E-01
   2592 T=   528. E= -.22863188E+03 F= -.22475657E+03 E0= -.22475657E+03  EK= 0.86668E+01 SP= -.13E+02 SK= 0.80E-01
   2593 T=   545. E= -.22863234E+03 F= -.22485701E+03 E0= -.22485701E+03  EK= 0.89546E+01 SP= -.13E+02 SK= 0.10E+00
   2594 T=   566. E= -.22863298E+03 F= -.22497691E+03 E0= -.22497691E+03  EK= 0.92883E+01 SP= -.13E+02 SK= 0.12E+00
   2595 T=   588. E= -.22863374E+03 F= -.22510566E+03 E0= -.22510566E+03  EK= 0.96518E+01 SP= -.13E+02 SK= 0.13E+00
   2596 T=   611. E= -.22863455E+03 F= -.22523242E+03 E0= -.22523242E+03  EK= 0.10027E+02 SP= -.14E+02 SK= 0.13E+00
   2597 T=   633. E= -.22863538E+03 F= -.22534740E+03 E0= -.22534740E+03  EK= 0.10395E+02 SP= -.14E+02 SK= 0.12E+00
   2598 T=   654. E= -.22863615E+03 F= -.22544272E+03 E0= -.22544272E+03  EK= 0.10737E+02 SP= -.14E+02 SK= 0.10E+00
   2599 T=   672. E= -.22863684E+03 F= -.22551281E+03 E0= -.22551281E+03  EK= 0.11037E+02 SP= -.14E+02 SK= 0.78E-01
   2600 T=   687. E= -.22863741E+03 F= -.22555414E+03 E0= -.22555414E+03  EK= 0.11280E+02 SP= -.14E+02 SK= 0.54E-01
   2601 T=   698. E= -.22863784E+03 F= -.22556485E+03 E0= -.22556485E+03  EK= 0.11455E+02 SP= -.15E+02 SK= 0.31E-01
   2602 T=   704. E= -.22863805E+03 F= -.22554449E+03 E0= -.22554449E+03  EK= 0.11555E+02 SP= -.15E+02 SK= 0.14E-01
   2603 T=   705. E= -.22863807E+03 F= -.22549393E+03 E0= -.22549393E+03  EK= 0.11575E+02 SP= -.15E+02 SK= 0.30E-02
   2604 T=   701. E= -.22863791E+03 F= -.22541495E+03 E0= -.22541495E+03  EK= 0.11516E+02 SP= -.15E+02 SK= 0.42E-04
   2605 T=   693. E= -.22863759E+03 F= -.22530993E+03 E0= -.22530993E+03  EK= 0.11382E+02 SP= -.15E+02 SK= 0.41E-02
   2606 T=   681. E= -.22863711E+03 F= -.22518174E+03 E0= -.22518174E+03  EK= 0.11182E+02 SP= -.15E+02 SK= 0.14E-01
   2607 T=   666. E= -.22863654E+03 F= -.22503397E+03 E0= -.22503397E+03  EK= 0.10926E+02 SP= -.15E+02 SK= 0.26E-01
   2608 T=   647. E= -.22863593E+03 F= -.22487094E+03 E0= -.22487094E+03  EK= 0.10629E+02 SP= -.14E+02 SK= 0.38E-01
   2609 T=   628. E= -.22863531E+03 F= -.22469776E+03 E0= -.22469776E+03  EK= 0.10304E+02 SP= -.14E+02 SK= 0.47E-01
   2610 T=   607. E= -.22863463E+03 F= -.22452078E+03 E0= -.22452078E+03  EK= 0.99678E+01 SP= -.14E+02 SK= 0.52E-01
   2611 T=   587. E= -.22863385E+03 F= -.22434851E+03 E0= -.22434851E+03  EK= 0.96386E+01 SP= -.14E+02 SK= 0.51E-01
   2612 T=   569. E= -.22863300E+03 F= -.22419213E+03 E0= -.22419213E+03  EK= 0.93350E+01 SP= -.14E+02 SK= 0.46E-01
   2613 T=   553. E= -.22863216E+03 F= -.22406510E+03 E0= -.22406510E+03  EK= 0.90766E+01 SP= -.14E+02 SK= 0.37E-01
 bond charge predicted
       N       E                     dE             d eps       ncg     rms          rms(c)
DAV:   1    -0.230675328329E+03   -0.61590E+01   -0.97470E+02   264   0.480E+01
DAV:   2    -0.237371790651E+03   -0.66965E+01   -0.66545E+01   336   0.122E+01
DAV:   3    -0.237503806985E+03   -0.13202E+00   -0.13191E+00   336   0.191E+00
DAV:   4    -0.237507574063E+03   -0.37671E-02   -0.37666E-02   336   0.316E-01
DAV:   5    -0.237507727461E+03   -0.15340E-03   -0.15338E-03   336   0.656E-02    0.878E+00
RMM:   6    -0.226718787270E+03    0.10789E+02   -0.14427E+01   264   0.267E+00    0.454E+00
RMM:   7    -0.224337815023E+03    0.23810E+01   -0.29651E+00   264   0.189E+00    0.245E+00
RMM:   8    -0.223791191362E+03    0.54662E+00   -0.13948E+00   264   0.119E+00    0.114E+00
RMM:   9    -0.223762921046E+03    0.28270E-01   -0.40915E-01   264   0.750E-01    0.679E-01
RMM:  10    -0.223746713068E+03    0.16208E-01   -0.11869E-01   270   0.453E-01    0.384E-01
RMM:  11    -0.223745924566E+03    0.78850E-03   -0.33734E-02   270   0.250E-01    0.204E-01
RMM:  12    -0.223746521320E+03   -0.59675E-03   -0.10491E-02   269   0.148E-01    0.106E-01
RMM:  13    -0.223746566590E+03   -0.45270E-04   -0.22816E-03   266   0.714E-02    0.593E-02
RMM:  14    -0.223746583237E+03   -0.16647E-04   -0.72389E-04   260   0.429E-02
   2614 T=   541. E= -.22839688E+03 F= -.22374658E+03 E0= -.22371313E+03  EK= 0.88813E+01 SP= -.14E+02 SK= 0.26E-01
   2615 T=   534. E= -.22863105E+03 F= -.22395281E+03 E0= -.22395281E+03  EK= 0.87642E+01 SP= -.13E+02 SK= 0.16E-01
   2616 T=   532. E= -.22863100E+03 F= -.22398603E+03 E0= -.22398603E+03  EK= 0.87323E+01 SP= -.13E+02 SK= 0.73E-02
   2617 T=   535. E= -.22863126E+03 F= -.22408214E+03 E0= -.22408214E+03  EK= 0.87870E+01 SP= -.13E+02 SK= 0.22E-02
   2618 T=   543. E= -.22863187E+03 F= -.22423611E+03 E0= -.22423611E+03  EK= 0.89217E+01 SP= -.13E+02 SK= 0.15E-03
   2619 T=   556. E= -.22863274E+03 F= -.22443692E+03 E0= -.22443692E+03  EK= 0.91232E+01 SP= -.13E+02 SK= 0.29E-03
   2620 T=   571. E= -.22863376E+03 F= -.22466902E+03 E0= -.22466902E+03  EK= 0.93723E+01 SP= -.13E+02 SK= 0.14E-02
   2621 T=   588. E= -.22863478E+03 F= -.22491477E+03 E0= -.22491477E+03  EK= 0.96463E+01 SP= -.13E+02 SK= 0.24E-02
   2622 T=   604. E= -.22863570E+03 F= -.22515692E+03 E0= -.22515692E+03  EK= 0.99224E+01 SP= -.13E+02 SK= 0.26E-02
   2623 T=   620. E= -.22863646E+03 F= -.22538061E+03 E0= -.22538061E+03  EK= 0.10179E+02 SP= -.13E+02 SK= 0.18E-02
   2624 T=   633. E= -.22863704E+03 F= -.22557412E+03 E0= -.22557412E+03  EK= 0.10397E+02 SP= -.13E+02 SK= 0.70E-03
   2625 T=   643. E= -.22863740E+03 F= -.22572909E+03 E0= -.22572909E+03  EK= 0.10563E+02 SP= -.13E+02 SK= 0.91E-05
   2626 T=   650. E= -.22863749E+03 F= -.22584077E+03 E0= -.22584077E+03  EK= 0.10666E+02 SP= -.13E+02 SK= 0.63E-03
   2627 T=   652. E= -.22863730E+03 F= -.22590812E+03 E0= -.22590812E+03  EK= 0.10703E+02 SP= -.13E+02 SK= 0.31E-02
   2628 T=   650. E= -.22863685E+03 F= -.22593370E+03 E0= -.22593370E+03  EK= 0.10674E+02 SP= -.13E+02 SK= 0.75E-02
   2629 T=   645. E= -.22863614E+03 F= -.22592333E+03 E0= -.22592333E+03  EK= 0.10589E+02 SP= -.13E+02 SK= 0.13E-01
   2630 T=   637. E= -.22863522E+03 F= -.22588605E+03 E0= -.22588605E+03  EK= 0.10457E+02 SP= -.13E+02 SK= 0.20E-01
   2631 T=   627. E= -.22863424E+03 F= -.22583363E+03 E0= -.22583363E+03  EK= 0.10295E+02 SP= -.13E+02 SK= 0.25E-01
   2632 T=   617. E= -.22863337E+03 F= -.22577867E+03 E0= -.22577867E+03  EK= 0.10121E+02 SP= -.13E+02 SK= 0.30E-01
   2633 T=   606. E= -.22863276E+03 F= -.22573240E+03 E0= -.22573240E+03  EK= 0.99493E+01 SP= -.13E+02 SK= 0.32E-01
   2634 T=   597. E= -.22863248E+03 F= -.22570265E+03 E0= -.22570265E+03  EK= 0.97933E+01 SP= -.13E+02 SK= 0.33E-01
   2635 T=   588. E= -.22863257E+03 F= -.22569245E+03 E0= -.22569245E+03  EK= 0.96593E+01 SP= -.13E+02 SK= 0.32E-01
   2636 T=   582. E= -.22863290E+03 F= -.22569975E+03 E0= -.22569975E+03  EK= 0.95483E+01 SP= -.13E+02 SK= 0.29E-01
   2637 T=   576. E= -.22863337E+03 F= -.22571876E+03 E0= -.22571876E+03  EK= 0.94567E+01 SP= -.12E+02 SK= 0.25E-01
   2638 T=   571. E= -.22863379E+03 F= -.22574179E+03 E0= -.22574179E+03  EK= 0.93791E+01 SP= -.12E+02 SK= 0.20E-01
   2639 T=   567. E= -.22863408E+03 F= -.22576163E+03 E0= -.22576163E+03  EK= 0.93098E+01 SP= -.12E+02 SK= 0.16E-01
   2640 T=   563. E= -.22863415E+03 F= -.22577305E+03 E0= -.22577305E+03  EK= 0.92451E+01 SP= -.12E+02 SK= 0.11E-01
   2641 T=   559. E= -.22863408E+03 F= -.22577375E+03 E0= -.22577375E+03  EK= 0.91839E+01 SP= -.12E+02 SK= 0.70E-02
   2642 T=   556. E= -.22863391E+03 F= -.22576412E+03 E0= -.22576412E+03  EK= 0.91278E+01 SP= -.12E+02 SK= 0.36E-02
   2643 T=   553. E= -.22863366E+03 F= -.22574648E+03 E0= -.22574648E+03  EK= 0.90802E+01 SP= -.12E+02 SK= 0.12E-02
   2644 T=   551. E= -.22863342E+03 F= -.22572436E+03 E0= -.22572436E+03  EK= 0.90453E+01 SP= -.12E+02 SK= 0.43E-04
   2645 T=   550. E= -.22863320E+03 F= -.22570157E+03 E0= -.22570157E+03  EK= 0.90276E+01 SP= -.12E+02 SK= 0.47E-03
   2646 T=   550. E= -.22863301E+03 F= -.22568170E+03 E0= -.22568170E+03  EK= 0.90310E+01 SP= -.12E+02 SK= 0.25E-02
   2647 T=   552. E= -.22863291E+03 F= -.22566763E+03 E0= -.22566763E+03  EK= 0.90583E+01 SP= -.12E+02 SK= 0.62E-02
   2648 T=   555. E= -.22863290E+03 F= -.22566099E+03 E0= -.22566099E+03  EK= 0.91107E+01 SP= -.12E+02 SK= 0.11E-01
   2649 T=   560. E= -.22863300E+03 F= -.22566205E+03 E0= -.22566205E+03  EK= 0.91878E+01 SP= -.12E+02 SK= 0.17E-01
   2650 T=   566. E= -.22863317E+03 F= -.22566958E+03 E0= -.22566958E+03  EK= 0.92869E+01 SP= -.12E+02 SK= 0.23E-01
   2651 T=   573. E= -.22863339E+03 F= -.22568123E+03 E0= -.22568123E+03  EK= 0.94039E+01 SP= -.12E+02 SK= 0.28E-01
   2652 T=   581. E= -.22863364E+03 F= -.22569414E+03 E0= -.22569414E+03  EK= 0.95337E+01 SP= -.13E+02 SK= 0.33E-01
   2653 T=   589. E= -.22863391E+03 F= -.22570525E+03 E0= -.22570525E+03  EK= 0.96705E+01 SP= -.13E+02 SK= 0.36E-01
   2654 T=   597. E= -.22863420E+03 F= -.22571143E+03 E0= -.22571143E+03  EK= 0.98082E+01 SP= -.13E+02 SK= 0.37E-01
   2655 T=   606. E= -.22863457E+03 F= -.22570948E+03 E0= -.22570948E+03  EK= 0.99401E+01 SP= -.13E+02 SK= 0.36E-01
   2656 T=   613. E= -.22863498E+03 F= -.22569567E+03 E0= -.22569567E+03  EK= 0.10059E+02 SP= -.13E+02 SK= 0.34E-01
   2657 T=   619. E= -.22863544E+03 F= -.22566589E+03 E0= -.22566589E+03  EK= 0.10158E+02 SP= -.13E+02 SK= 0.31E-01
   2658 T=   623. E= -.22863589E+03 F= -.22561582E+03 E0= -.22561582E+03  EK= 0.10229E+02 SP= -.13E+02 SK= 0.26E-01
   2659 T=   625. E= -.22863629E+03 F= -.22554130E+03 E0= -.22554130E+03  EK= 0.10266E+02 SP= -.13E+02 SK= 0.22E-01
   2660 T=   625. E= -.22863654E+03 F= -.22543913E+03 E0= -.22543913E+03  EK= 0.10265E+02 SP= -.13E+02 SK= 0.17E-01
   2661 T=   623. E= -.22863662E+03 F= -.22530805E+03 E0= -.22530805E+03  EK= 0.10224E+02 SP= -.14E+02 SK= 0.13E-01
   2662 T=   618. E= -.22863650E+03 F= -.22514933E+03 E0= -.22514933E+03  EK= 0.10145E+02 SP= -.14E+02 SK= 0.11E-01
   2663 T=   611. E= -.22863619E+03 F= -.22496701E+03 E0= -.22496701E+03  EK= 0.10033E+02 SP= -.14E+02 SK= 0.88E-02
   2664 T=   603. E= -.22863569E+03 F= -.22476800E+03 E0= -.22476800E+03  EK= 0.98995E+01 SP= -.14E+02 SK= 0.79E-02
   2665 T=   594. E= -.22863504E+03 F= -.22456193E+03 E0= -.22456193E+03  EK= 0.97562E+01 SP= -.14E+02 SK= 0.80E-02
   2666 T=   586. E= -.22863427E+03 F= -.22436072E+03 E0= -.22436072E+03  EK= 0.96188E+01 SP= -.14E+02 SK= 0.89E-02
   2667 T=   579. E= -.22863346E+03 F= -.22417776E+03 E0= -.22417776E+03  EK= 0.95038E+01 SP= -.14E+02 SK= 0.11E-01
   2668 T=   574. E= -.22863271E+03 F= -.22402673E+03 E0= -.22402673E+03  EK= 0.94278E+01 SP= -.14E+02 SK= 0.14E-01
   2669 T=   573. E= -.22863215E+03 F= -.22391995E+03 E0= -.22391995E+03  EK= 0.94048E+01 SP= -.14E+02 SK= 0.18E-01
   2670 T=   575. E= -.22863185E+03 F= -.22386646E+03 E0= -.22386646E+03  EK= 0.94448E+01 SP= -.14E+02 SK= 0.22E-01
   2671 T=   582. E= -.22863190E+03 F= -.22387072E+03 E0= -.22387072E+03  EK= 0.95521E+01 SP= -.14E+02 SK= 0.25E-01
   2672 T=   592. E= -.22863230E+03 F= -.22393182E+03 E0= -.22393182E+03  EK= 0.97240E+01 SP= -.14E+02 SK= 0.28E-01
   2673 T=   606. E= -.22863308E+03 F= -.22404341E+03 E0= -.22404341E+03  EK= 0.99509E+01 SP= -.15E+02 SK= 0.28E-01
   2674 T=   622. E= -.22863416E+03 F= -.22419413E+03 E0= -.22419413E+03  EK= 0.10216E+02 SP= -.15E+02 SK= 0.25E-01
   2675 T=   640. E= -.22863547E+03 F= -.22436873E+03 E0= -.22436873E+03  EK= 0.10499E+02 SP= -.15E+02 SK= 0.19E-01
   2676 T=   656. E= -.22863681E+03 F= -.22454986E+03 E0= -.22454986E+03  EK= 0.10773E+02 SP= -.15E+02 SK= 0.12E-01
   2677 T=   671. E= -.22863808E+03 F= -.22472016E+03 E0= -.22472016E+03  EK= 0.11012E+02 SP= -.15E+02 SK= 0.52E-02
   2678 T=   682. E= -.22863904E+03 F= -.22486399E+03 E0= -.22486399E+03  EK= 0.11194E+02 SP= -.15E+02 SK= 0.71E-03
   2679 T=   688. E= -.22863960E+03 F= -.22496927E+03 E0= -.22496927E+03  EK= 0.11300E+02 SP= -.15E+02 SK= 0.59E-03
   2680 T=   689. E= -.22863969E+03 F= -.22502855E+03 E0= -.22502855E+03  EK= 0.11318E+02 SP= -.15E+02 SK= 0.60E-02
   2681 T=   685. E= -.22863928E+03 F= -.22503957E+03 E0= -.22503957E+03  EK= 0.11247E+02 SP= -.15E+02 SK= 0.17E-01
   2682 T=   676. E= -.22863844E+03 F= -.22500537E+03 E0= -.22500537E+03  EK= 0.11092E+02 SP= -.15E+02 SK= 0.31E-01
   2683 T=   662. E= -.22863728E+03 F= -.22493384E+03 E0= -.22493384E+03  EK= 0.10867E+02 SP= -.15E+02 SK= 0.48E-01
   2684 T=   645. E= -.22863595E+03 F= -.22483689E+03 E0= -.22483689E+03  EK= 0.10592E+02 SP= -.14E+02 SK= 0.63E-01
   2685 T=   627. E= -.22863467E+03 F= -.22472896E+03 E0= -.22472896E+03  EK= 0.10292E+02 SP= -.14E+02 SK= 0.74E-01
   2686 T=   608. E= -.22863357E+03 F= -.22462504E+03 E0= -.22462504E+03  EK= 0.99891E+01 SP= -.14E+02 SK= 0.80E-01
   2687 T=   591. E= -.22863280E+03 F= -.22453868E+03 E0= -.22453868E+03  EK= 0.97054E+01 SP= -.14E+02 SK= 0.81E-01
   2688 T=   576. E= -.22863241E+03 F= -.22447990E+03 E0= -.22447990E+03  EK= 0.94572E+01 SP= -.14E+02 SK= 0.76E-01
   2689 T=   564. E= -.22863241E+03 F= -.22445400E+03 E0= -.22445400E+03  EK= 0.92548E+01 SP= -.13E+02 SK= 0.66E-01
   2690 T=   554. E= -.22863272E+03 F= -.22446101E+03 E0= -.22446101E+03  EK= 0.91015E+01 SP= -.13E+02 SK= 0.55E-01
   2691 T=   548. E= -.22863327E+03 F= -.22449607E+03 E0= -.22449607E+03  EK= 0.89947E+01 SP= -.13E+02 SK= 0.43E-01
   2692 T=   544. E= -.22863390E+03 F= -.22455067E+03 E0= -.22455067E+03  EK= 0.89275E+01 SP= -.13E+02 SK= 0.31E-01
   2693 T=   542. E= -.22863452E+03 F= -.22461451E+03 E0= -.22461451E+03  EK= 0.88904E+01 SP= -.13E+02 SK= 0.20E-01
   2694 T=   541. E= -.22863501E+03 F= -.22467734E+03 E0= -.22467734E+03  EK= 0.88737E+01 SP= -.13E+02 SK= 0.12E-01
   2695 T=   540. E= -.22863531E+03 F= -.22473057E+03 E0= -.22473057E+03  EK= 0.88690E+01 SP= -.13E+02 SK= 0.56E-02
   2696 T=   540. E= -.22863540E+03 F= -.22476852E+03 E0= -.22476852E+03  EK= 0.88706E+01 SP= -.13E+02 SK= 0.16E-02
   2697 T=   541. E= -.22863530E+03 F= -.22478895E+03 E0= -.22478895E+03  EK= 0.88763E+01 SP= -.13E+02 SK= 0.43E-04
   2698 T=   541. E= -.22863508E+03 F= -.22479279E+03 E0= -.22479279E+03  EK= 0.88868E+01 SP= -.13E+02 SK= 0.73E-03
   2699 T=   542. E= -.22863479E+03 F= -.22478320E+03 E0= -.22478320E+03  EK= 0.89051E+01 SP= -.13E+02 SK= 0.36E-02
   2700 T=   544. E= -.22863448E+03 F= -.22476486E+03 E0= -.22476486E+03  EK= 0.89354E+01 SP= -.13E+02 SK= 0.86E-02
   2701 T=   547. E= -.22863420E+03 F= -.22474316E+03 E0= -.22474316E+03  EK= 0.89827E+01 SP= -.13E+02 SK= 0.15E-01
   2702 T=   551. E= -.22863396E+03 F= -.22472329E+03 E0= -.22472329E+03  EK= 0.90515E+01 SP= -.13E+02 SK= 0.23E-01
   2703 T=   557. E= -.22863384E+03 F= -.22470976E+03 E0= -.22470976E+03  EK= 0.91450E+01 SP= -.13E+02 SK= 0.32E-01
   2704 T=   564. E= -.22863386E+03 F= -.22470538E+03 E0= -.22470538E+03  EK= 0.92645E+01 SP= -.13E+02 SK= 0.40E-01
   2705 T=   573. E= -.22863408E+03 F= -.22471078E+03 E0= -.22471078E+03  EK= 0.94087E+01 SP= -.13E+02 SK= 0.48E-01
   2706 T=   583. E= -.22863448E+03 F= -.22472399E+03 E0= -.22472399E+03  EK= 0.95729E+01 SP= -.14E+02 SK= 0.53E-01
   2707 T=   594. E= -.22863502E+03 F= -.22474066E+03 E0= -.22474066E+03  EK= 0.97493E+01 SP= -.14E+02 SK= 0.56E-01
   2708 T=   605. E= -.22863565E+03 F= -.22475478E+03 E0= -.22475478E+03  EK= 0.99281E+01 SP= -.14E+02 SK= 0.56E-01
   2709 T=   615. E= -.22863628E+03 F= -.22475975E+03 E0= -.22475975E+03  EK= 0.10098E+02 SP= -.14E+02 SK= 0.53E-01
   2710 T=   624. E= -.22863681E+03 F= -.22474953E+03 E0= -.22474953E+03  EK= 0.10249E+02 SP= -.14E+02 SK= 0.47E-01
   2711 T=   632. E= -.22863717E+03 F= -.22471980E+03 E0= -.22471980E+03  EK= 0.10372E+02 SP= -.14E+02 SK= 0.40E-01
   2712 T=   637. E= -.22863728E+03 F= -.22466893E+03 E0= -.22466893E+03  EK= 0.10461E+02 SP= -.14E+02 SK= 0.32E-01
   2713 T=   641. E= -.22863717E+03 F= -.22459858E+03 E0= -.22459858E+03  EK= 0.10516E+02 SP= -.15E+02 SK= 0.24E-01
   2714 T=   642. E= -.22863683E+03 F= -.22451335E+03 E0= -.22451335E+03  EK= 0.10538E+02 SP= -.15E+02 SK= 0.17E-01
   2715 T=   642. E= -.22863636E+03 F= -.22442049E+03 E0= -.22442049E+03  EK= 0.10534E+02 SP= -.15E+02 SK= 0.11E-01
   2716 T=   640. E= -.22863590E+03 F= -.22432828E+03 E0= -.22432828E+03  EK= 0.10512E+02 SP= -.15E+02 SK= 0.65E-02
   2717 T=   638. E= -.22863556E+03 F= -.22424427E+03 E0= -.22424427E+03  EK= 0.10479E+02 SP= -.15E+02 SK= 0.33E-02
   2718 T=   636. E= -.22863544E+03 F= -.22417351E+03 E0= -.22417351E+03  EK= 0.10443E+02 SP= -.15E+02 SK= 0.12E-02
   2719 T=   634. E= -.22863554E+03 F= -.22411750E+03 E0= -.22411750E+03  EK= 0.10404E+02 SP= -.15E+02 SK= 0.19E-03
   2720 T=   631. E= -.22863582E+03 F= -.22407410E+03 E0= -.22407410E+03  EK= 0.10364E+02 SP= -.15E+02 SK= 0.37E-04
   2721 T=   628. E= -.22863613E+03 F= -.22403849E+03 E0= -.22403849E+03  EK= 0.10317E+02 SP= -.15E+02 SK= 0.59E-03
   2722 T=   625. E= -.22863637E+03 F= -.22400493E+03 E0= -.22400493E+03  EK= 0.10259E+02 SP= -.15E+02 SK= 0.16E-02
   2723 T=   621. E= -.22863642E+03 F= -.22396876E+03 E0= -.22396876E+03  EK= 0.10188E+02 SP= -.15E+02 SK= 0.30E-02
   2724 T=   616. E= -.22863621E+03 F= -.22392805E+03 E0= -.22392805E+03  EK= 0.10104E+02 SP= -.15E+02 SK= 0.43E-02
   2725 T=   610. E= -.22863578E+03 F= -.22388448E+03 E0= -.22388448E+03  EK= 0.10011E+02 SP= -.15E+02 SK= 0.55E-02
   2726 T=   604. E= -.22863521E+03 F= -.22384316E+03 E0= -.22384316E+03  EK= 0.99166E+01 SP= -.15E+02 SK= 0.62E-02
 bond charge predicted
       N       E                     dE             d eps       ncg     rms          rms(c)
DAV:   1    -0.224795018174E+03   -0.10485E+01   -0.17037E+03   264   0.613E+01
DAV:   2    -0.235609882687E+03   -0.10815E+02   -0.10703E+02   348   0.155E+01
DAV:   3    -0.235848163441E+03   -0.23828E+00   -0.23800E+00   336   0.252E+00
DAV:   4    -0.235854350476E+03   -0.61870E-02   -0.61855E-02   336   0.405E-01
DAV:   5    -0.235854594096E+03   -0.24362E-03   -0.24359E-03   336   0.834E-02    0.854E+00
RMM:   6    -0.225857449521E+03    0.99971E+01   -0.14207E+01   264   0.266E+00    0.440E+00
RMM:   7    -0.223945119195E+03    0.19123E+01   -0.27807E+00   264   0.188E+00    0.251E+00
RMM:   8    -0.223511965445E+03    0.43315E+00   -0.13570E+00   264   0.119E+00    0.124E+00
RMM:   9    -0.223491960262E+03    0.20005E-01   -0.34878E-01   266   0.743E-01    0.682E-01
RMM:  10    -0.223488926931E+03    0.30333E-02   -0.10759E-01   270   0.447E-01    0.397E-01
RMM:  11    -0.223488125952E+03    0.80098E-03   -0.30845E-02   267   0.245E-01    0.194E-01
RMM:  12    -0.223488547199E+03   -0.42125E-03   -0.82789E-03   269   0.143E-01    0.777E-02
RMM:  13    -0.223488653412E+03   -0.10621E-03   -0.20950E-03   270   0.704E-02    0.430E-02
RMM:  14    -0.223488628780E+03    0.24632E-04   -0.49689E-04   242   0.380E-02
   2727 T=   599. E= -.22831501E+03 F= -.22348863E+03 E0= -.22346955E+03  EK= 0.98266E+01 SP= -.15E+02 SK= 0.64E-02
   2728 T=   594. E= -.22858140E+03 F= -.22374161E+03 E0= -.22374161E+03  EK= 0.97580E+01 SP= -.15E+02 SK= 0.62E-02
   2729 T=   592. E= -.22858097E+03 F= -.22375913E+03 E0= -.22375913E+03  EK= 0.97228E+01 SP= -.15E+02 SK= 0.57E-02
   2730 T=   592. E= -.22858077E+03 F= -.22381141E+03 E0= -.22381141E+03  EK= 0.97248E+01 SP= -.14E+02 SK= 0.51E-02
   2731 T=   595. E= -.22858083E+03 F= -.22390112E+03 E0= -.22390112E+03  EK= 0.97664E+01 SP= -.14E+02 SK= 0.46E-02
   2732 T=   600. E= -.22858114E+03 F= -.22402700E+03 E0= -.22402700E+03  EK= 0.98451E+01 SP= -.14E+02 SK= 0.45E-02
   2733 T=   606. E= -.22858163E+03 F= -.22418392E+03 E0= -.22418392E+03  EK= 0.99538E+01 SP= -.14E+02 SK= 0.48E-02
   2734 T=   614. E= -.22858221E+03 F= -.22436399E+03 E0= -.22436399E+03  EK= 0.10082E+02 SP= -.14E+02 SK= 0.57E-02
   2735 T=   622. E= -.22858279E+03 F= -.22455774E+03 E0= -.22455774E+03  EK= 0.10216E+02 SP= -.14E+02 SK= 0.76E-02
   2736 T=   630. E= -.22858330E+03 F= -.22475539E+03 E0= -.22475539E+03  EK= 0.10344E+02 SP= -.14E+02 SK= 0.11E-01
   2737 T=   637. E= -.22858367E+03 F= -.22494791E+03 E0= -.22494791E+03  EK= 0.10453E+02 SP= -.14E+02 SK= 0.15E-01
   2738 T=   642. E= -.22858388E+03 F= -.22512782E+03 E0= -.22512782E+03  EK= 0.10532E+02 SP= -.14E+02 SK= 0.22E-01
   2739 T=   644. E= -.22858395E+03 F= -.22528949E+03 E0= -.22528949E+03  EK= 0.10574E+02 SP= -.14E+02 SK= 0.30E-01
   2740 T=   644. E= -.22858384E+03 F= -.22542907E+03 E0= -.22542907E+03  EK= 0.10574E+02 SP= -.14E+02 SK= 0.40E-01
   2741 T=   641. E= -.22858360E+03 F= -.22554449E+03 E0= -.22554449E+03  EK= 0.10530E+02 SP= -.14E+02 SK= 0.51E-01
   2742 T=   636. E= -.22858324E+03 F= -.22563513E+03 E0= -.22563513E+03  EK= 0.10445E+02 SP= -.13E+02 SK= 0.62E-01
   2743 T=   629. E= -.22858282E+03 F= -.22570179E+03 E0= -.22570179E+03  EK= 0.10321E+02 SP= -.13E+02 SK= 0.72E-01
   2744 T=   619. E= -.22858237E+03 F= -.22574627E+03 E0= -.22574627E+03  EK= 0.10166E+02 SP= -.13E+02 SK= 0.80E-01
   2745 T=   608. E= -.22858192E+03 F= -.22577105E+03 E0= -.22577105E+03  EK= 0.99852E+01 SP= -.13E+02 SK= 0.85E-01
   2746 T=   596. E= -.22858151E+03 F= -.22577902E+03 E0= -.22577902E+03  EK= 0.97880E+01 SP= -.13E+02 SK= 0.87E-01
   2747 T=   584. E= -.22858115E+03 F= -.22577333E+03 E0= -.22577333E+03  EK= 0.95824E+01 SP= -.12E+02 SK= 0.84E-01
   2748 T=   571. E= -.22858087E+03 F= -.22575713E+03 E0= -.22575713E+03  EK= 0.93765E+01 SP= -.12E+02 SK= 0.76E-01
   2749 T=   559. E= -.22858066E+03 F= -.22573339E+03 E0= -.22573339E+03  EK= 0.91777E+01 SP= -.12E+02 SK= 0.66E-01
   2750 T=   548. E= -.22858052E+03 F= -.22570486E+03 E0= -.22570486E+03  EK= 0.89926E+01 SP= -.12E+02 SK= 0.53E-01
   2751 T=   538. E= -.22858042E+03 F= -.22567404E+03 E0= -.22567404E+03  EK= 0.88270E+01 SP= -.12E+02 SK= 0.39E-01
   2752 T=   529. E= -.22858031E+03 F= -.22564330E+03 E0= -.22564330E+03  EK= 0.86859E+01 SP= -.12E+02 SK= 0.25E-01
   2753 T=   522. E= -.22858021E+03 F= -.22561524E+03 E0= -.22561524E+03  EK= 0.85739E+01 SP= -.12E+02 SK= 0.13E-01
   2754 T=   517. E= -.22858009E+03 F= -.22559264E+03 E0= -.22559264E+03  EK= 0.84953E+01 SP= -.11E+02 SK= 0.49E-02
   2755 T=   515. E= -.22857995E+03 F= -.22557840E+03 E0= -.22557840E+03  EK= 0.84538E+01 SP= -.11E+02 SK= 0.46E-03
   2756 T=   515. E= -.22857983E+03 F= -.22557526E+03 E0= -.22557526E+03  EK= 0.84528E+01 SP= -.11E+02 SK= 0.77E-03
   2757 T=   517. E= -.22857974E+03 F= -.22558540E+03 E0= -.22558540E+03  EK= 0.84942E+01 SP= -.11E+02 SK= 0.58E-02
   2758 T=   523. E= -.22857972E+03 F= -.22560994E+03 E0= -.22560994E+03  EK= 0.85789E+01 SP= -.12E+02 SK= 0.15E-01
   2759 T=   530. E= -.22857978E+03 F= -.22564861E+03 E0= -.22564861E+03  EK= 0.87055E+01 SP= -.12E+02 SK= 0.27E-01
   2760 T=   540. E= -.22857997E+03 F= -.22569958E+03 E0= -.22569958E+03  EK= 0.88706E+01 SP= -.12E+02 SK= 0.41E-01
   2761 T=   552. E= -.22858028E+03 F= -.22575926E+03 E0= -.22575926E+03  EK= 0.90683E+01 SP= -.12E+02 SK= 0.54E-01
   2762 T=   566. E= -.22858071E+03 F= -.22582248E+03 E0= -.22582248E+03  EK= 0.92902E+01 SP= -.12E+02 SK= 0.66E-01
   2763 T=   580. E= -.22858126E+03 F= -.22588276E+03 E0= -.22588276E+03  EK= 0.95259E+01 SP= -.12E+02 SK= 0.74E-01
   2764 T=   595. E= -.22858191E+03 F= -.22593290E+03 E0= -.22593290E+03  EK= 0.97633E+01 SP= -.12E+02 SK= 0.77E-01
   2765 T=   609. E= -.22858256E+03 F= -.22596565E+03 E0= -.22596565E+03  EK= 0.99895E+01 SP= -.13E+02 SK= 0.76E-01
   2766 T=   621. E= -.22858314E+03 F= -.22597467E+03 E0= -.22597467E+03  EK= 0.10192E+02 SP= -.13E+02 SK= 0.71E-01
   2767 T=   631. E= -.22858357E+03 F= -.22595551E+03 E0= -.22595551E+03  EK= 0.10362E+02 SP= -.13E+02 SK= 0.63E-01
   2768 T=   639. E= -.22858385E+03 F= -.22590620E+03 E0= -.22590620E+03  EK= 0.10490E+02 SP= -.13E+02 SK= 0.53E-01
   2769 T=   644. E= -.22858390E+03 F= -.22582747E+03 E0= -.22582747E+03  EK= 0.10573E+02 SP= -.13E+02 SK= 0.42E-01
   2770 T=   646. E= -.22858379E+03 F= -.22572274E+03 E0= -.22572274E+03  EK= 0.10612E+02 SP= -.14E+02 SK= 0.31E-01
   2771 T=   646. E= -.22858351E+03 F= -.22559749E+03 E0= -.22559749E+03  EK= 0.10609E+02 SP= -.14E+02 SK= 0.22E-01
   2772 T=   644. E= -.22858318E+03 F= -.22545875E+03 E0= -.22545875E+03  EK= 0.10573E+02 SP= -.14E+02 SK= 0.15E-01
   2773 T=   640. E= -.22858285E+03 F= -.22531384E+03 E0= -.22531384E+03  EK= 0.10510E+02 SP= -.14E+02 SK= 0.93E-02
   2774 T=   635. E= -.22858259E+03 F= -.22516949E+03 E0= -.22516949E+03  EK= 0.10429E+02 SP= -.14E+02 SK= 0.54E-02
   2775 T=   630. E= -.22858244E+03 F= -.22503103E+03 E0= -.22503103E+03  EK= 0.10338E+02 SP= -.14E+02 SK= 0.29E-02
   2776 T=   624. E= -.22858243E+03 F= -.22490179E+03 E0= -.22490179E+03  EK= 0.10242E+02 SP= -.14E+02 SK= 0.14E-02
   2777 T=   618. E= -.22858253E+03 F= -.22478294E+03 E0= -.22478294E+03  EK= 0.10146E+02 SP= -.14E+02 SK= 0.62E-03
   2778 T=   612. E= -.22858269E+03 F= -.22467391E+03 E0= -.22467391E+03  EK= 0.10051E+02 SP= -.14E+02 SK= 0.24E-03
   2779 T=   607. E= -.22858285E+03 F= -.22457321E+03 E0= -.22457321E+03  EK= 0.99589E+01 SP= -.14E+02 SK= 0.83E-04
   2780 T=   601. E= -.22858287E+03 F= -.22447967E+03 E0= -.22447967E+03  EK= 0.98707E+01 SP= -.14E+02 SK= 0.37E-04
   2781 T=   596. E= -.22858273E+03 F= -.22439385E+03 E0= -.22439385E+03  EK= 0.97893E+01 SP= -.14E+02 SK= 0.37E-04
   2782 T=   592. E= -.22858240E+03 F= -.22431877E+03 E0= -.22431877E+03  EK= 0.97197E+01 SP= -.14E+02 SK= 0.78E-04
   2783 T=   589. E= -.22858197E+03 F= -.22425997E+03 E0= -.22425997E+03  EK= 0.96691E+01 SP= -.14E+02 SK= 0.19E-03
   2784 T=   588. E= -.22858154E+03 F= -.22422438E+03 E0= -.22422438E+03  EK= 0.96455E+01 SP= -.14E+02 SK= 0.40E-03
   2785 T=   588. E= -.22858126E+03 F= -.22421855E+03 E0= -.22421855E+03  EK= 0.96558E+01 SP= -.14E+02 SK= 0.71E-03
   2786 T=   591. E= -.22858124E+03 F= -.22424655E+03 E0= -.22424655E+03  EK= 0.97040E+01 SP= -.14E+02 SK= 0.10E-02
   2787 T=   596. E= -.22858151E+03 F= -.22430852E+03 E0= -.22430852E+03  EK= 0.97890E+01 SP= -.14E+02 SK= 0.12E-02
   2788 T=   603. E= -.22858211E+03 F= -.22439982E+03 E0= -.22439982E+03  EK= 0.99041E+01 SP= -.14E+02 SK= 0.12E-02
   2789 T=   611. E= -.22858292E+03 F= -.22451121E+03 E0= -.22451121E+03  EK= 0.10038E+02 SP= -.14E+02 SK= 0.89E-03
   2790 T=   620. E= -.22858383E+03 F= -.22463042E+03 E0= -.22463042E+03  EK= 0.10174E+02 SP= -.14E+02 SK= 0.40E-03
   2791 T=   627. E= -.22858466E+03 F= -.22474414E+03 E0= -.22474414E+03  EK= 0.10296E+02 SP= -.14E+02 SK= 0.29E-04
   2792 T=   633. E= -.22858528E+03 F= -.22484018E+03 E0= -.22484018E+03  EK= 0.10388E+02 SP= -.14E+02 SK= 0.17E-03
   2793 T=   636. E= -.22858559E+03 F= -.22490943E+03 E0= -.22490943E+03  EK= 0.10440E+02 SP= -.14E+02 SK= 0.12E-02
   2794 T=   636. E= -.22858556E+03 F= -.22494708E+03 E0= -.22494708E+03  EK= 0.10444E+02 SP= -.14E+02 SK= 0.32E-02
   2795 T=   634. E= -.22858525E+03 F= -.22495285E+03 E0= -.22495285E+03  EK= 0.10401E+02 SP= -.14E+02 SK= 0.60E-02
   2796 T=   628. E= -.22858470E+03 F= -.22493040E+03 E0= -.22493040E+03  EK= 0.10315E+02 SP= -.14E+02 SK= 0.93E-02
   2797 T=   621. E= -.22858403E+03 F= -.22488648E+03 E0= -.22488648E+03  EK= 0.10196E+02 SP= -.14E+02 SK= 0.13E-01
   2798 T=   613. E= -.22858335E+03 F= -.22482961E+03 E0= -.22482961E+03  EK= 0.10055E+02 SP= -.14E+02 SK= 0.15E-01
   2799 T=   603. E= -.22858273E+03 F= -.22476867E+03 E0= -.22476867E+03  EK= 0.99063E+01 SP= -.14E+02 SK= 0.16E-01
   2800 T=   595. E= -.22858225E+03 F= -.22471171E+03 E0= -.22471171E+03  EK= 0.97606E+01 SP= -.14E+02 SK= 0.16E-01
   2801 T=   586. E= -.22858192E+03 F= -.22466513E+03 E0= -.22466513E+03  EK= 0.96280E+01 SP= -.14E+02 SK= 0.15E-01
   2802 T=   580. E= -.22858172E+03 F= -.22463337E+03 E0= -.22463337E+03  EK= 0.95160E+01 SP= -.13E+02 SK= 0.13E-01
   2803 T=   574. E= -.22858165E+03 F= -.22461880E+03 E0= -.22461880E+03  EK= 0.94293E+01 SP= -.13E+02 SK= 0.10E-01
   2804 T=   571. E= -.22858166E+03 F= -.22462184E+03 E0= -.22462184E+03  EK= 0.93701E+01 SP= -.13E+02 SK= 0.73E-02
   2805 T=   569. E= -.22858171E+03 F= -.22464156E+03 E0= -.22464156E+03  EK= 0.93386E+01 SP= -.13E+02 SK= 0.47E-02
   2806 T=   569. E= -.22858178E+03 F= -.22467624E+03 E0= -.22467624E+03  EK= 0.93336E+01 SP= -.13E+02 SK= 0.26E-02
   2807 T=   570. E= -.22858184E+03 F= -.22472369E+03 E0= -.22472369E+03  EK= 0.93529E+01 SP= -.13E+02 SK= 0.11E-02
   2808 T=   572. E= -.22858191E+03 F= -.22478157E+03 E0= -.22478157E+03  EK= 0.93938E+01 SP= -.13E+02 SK= 0.30E-03
   2809 T=   576. E= -.22858200E+03 F= -.22484741E+03 E0= -.22484741E+03  EK= 0.94529E+01 SP= -.13E+02 SK= 0.79E-05
   2810 T=   580. E= -.22858211E+03 F= -.22491866E+03 E0= -.22491866E+03  EK= 0.95262E+01 SP= -.13E+02 SK= 0.87E-04
   2811 T=   585. E= -.22858226E+03 F= -.22499247E+03 E0= -.22499247E+03  EK= 0.96094E+01 SP= -.13E+02 SK= 0.35E-03
   2812 T=   591. E= -.22858244E+03 F= -.22506567E+03 E0= -.22506567E+03  EK= 0.96973E+01 SP= -.13E+02 SK= 0.62E-03
   2813 T=   596. E= -.22858263E+03 F= -.22513488E+03 E0= -.22513488E+03  EK= 0.97847E+01 SP= -.13E+02 SK= 0.79E-03
   2814 T=   601. E= -.22858283E+03 F= -.22519672E+03 E0= -.22519672E+03  EK= 0.98660E+01 SP= -.13E+02 SK= 0.80E-03
   2815 T=   605. E= -.22858302E+03 F= -.22524790E+03 E0= -.22524790E+03  EK= 0.99359E+01 SP= -.13E+02 SK= 0.66E-03
   2816 T=   609. E= -.22858319E+03 F= -.22528534E+03 E0= -.22528534E+03  EK= 0.99897E+01 SP= -.13E+02 SK= 0.44E-03
   2817 T=   611. E= -.22858332E+03 F= -.22530627E+03 E0= -.22530627E+03  EK= 0.10023E+02 SP= -.13E+02 SK= 0.21E-03
   2818 T=   611. E= -.22858345E+03 F= -.22530823E+03 E0= -.22530823E+03  EK= 0.10033E+02 SP= -.13E+02 SK= 0.54E-04
   2819 T=   610. E= -.22858353E+03 F= -.22528908E+03 E0= -.22528908E+03  EK= 0.10016E+02 SP= -.13E+02 SK= 0.95E-07
   2820 T=   607. E= -.22858355E+03 F= -.22524735E+03 E0= -.22524735E+03  EK= 0.99724E+01 SP= -.13E+02 SK= 0.32E-04
   2821 T=   603. E= -.22858346E+03 F= -.22518275E+03 E0= -.22518275E+03  EK= 0.99025E+01 SP= -.13E+02 SK= 0.92E-04
   2822 T=   598. E= -.22858323E+03 F= -.22509667E+03 E0= -.22509667E+03  EK= 0.98096E+01 SP= -.13E+02 SK= 0.11E-03
   2823 T=   591. E= -.22858289E+03 F= -.22499269E+03 E0= -.22499269E+03  EK= 0.96995E+01 SP= -.13E+02 SK= 0.65E-04
   2824 T=   584. E= -.22858240E+03 F= -.22487653E+03 E0= -.22487653E+03  EK= 0.95806E+01 SP= -.13E+02 SK= 0.17E-05
   2825 T=   576. E= -.22858187E+03 F= -.22475607E+03 E0= -.22475607E+03  EK= 0.94636E+01 SP= -.13E+02 SK= 0.94E-04
   2826 T=   570. E= -.22858133E+03 F= -.22464026E+03 E0= -.22464026E+03  EK= 0.93598E+01 SP= -.13E+02 SK= 0.61E-03
   2827 T=   565. E= -.22858088E+03 F= -.22453821E+03 E0= -.22453821E+03  EK= 0.92805E+01 SP= -.13E+02 SK= 0.18E-02
   2828 T=   563. E= -.22858055E+03 F= -.22445787E+03 E0= -.22445787E+03  EK= 0.92354E+01 SP= -.13E+02 SK= 0.40E-02
   2829 T=   562. E= -.22858040E+03 F= -.22440506E+03 E0= -.22440506E+03  EK= 0.92313E+01 SP= -.13E+02 SK= 0.72E-02
   2830 T=   565. E= -.22858043E+03 F= -.22438279E+03 E0= -.22438279E+03  EK= 0.92715E+01 SP= -.13E+02 SK= 0.11E-01
   2831 T=   570. E= -.22858066E+03 F= -.22439100E+03 E0= -.22439100E+03  EK= 0.93555E+01 SP= -.14E+02 SK= 0.15E-01
   2832 T=   577. E= -.22858105E+03 F= -.22442664E+03 E0= -.22442664E+03  EK= 0.94787E+01 SP= -.14E+02 SK= 0.19E-01
   2833 T=   587. E= -.22858157E+03 F= -.22448415E+03 E0= -.22448415E+03  EK= 0.96334E+01 SP= -.14E+02 SK= 0.22E-01
   2834 T=   598. E= -.22858216E+03 F= -.22455614E+03 E0= -.22455614E+03  EK= 0.98090E+01 SP= -.14E+02 SK= 0.23E-01
   2835 T=   609. E= -.22858278E+03 F= -.22463443E+03 E0= -.22463443E+03  EK= 0.99933E+01 SP= -.14E+02 SK= 0.23E-01
   2836 T=   620. E= -.22858336E+03 F= -.22471087E+03 E0= -.22471087E+03  EK= 0.10174E+02 SP= -.14E+02 SK= 0.20E-01
   2837 T=   630. E= -.22858383E+03 F= -.22477845E+03 E0= -.22477845E+03  EK= 0.10338E+02 SP= -.14E+02 SK= 0.16E-01
   2838 T=   638. E= -.22858418E+03 F= -.22483185E+03 E0= -.22483185E+03  EK= 0.10477E+02 SP= -.14E+02 SK= 0.11E-01
   2839 T=   645. E= -.22858434E+03 F= -.22486786E+03 E0= -.22486786E+03  EK= 0.10582E+02 SP= -.14E+02 SK= 0.65E-02
   2840 T=   649. E= -.22858435E+03 F= -.22488548E+03 E0= -.22488548E+03  EK= 0.10650E+02 SP= -.14E+02 SK= 0.27E-02
   2841 T=   650. E= -.22858422E+03 F= -.22488566E+03 E0= -.22488566E+03  EK= 0.10679E+02 SP= -.14E+02 SK= 0.51E-03
   2842 T=   650. E= -.22858402E+03 F= -.22487086E+03 E0= -.22487086E+03  EK= 0.10670E+02 SP= -.14E+02 SK= 0.58E-04
   2843 T=   647. E= -.22858379E+03 F= -.22484406E+03 E0= -.22484406E+03  EK= 0.10626E+02 SP= -.14E+02 SK= 0.14E-02
   2844 T=   643. E= -.22858358E+03 F= -.22480798E+03 E0= -.22480798E+03  EK= 0.10553E+02 SP= -.14E+02 SK= 0.41E-02
   2845 T=   637. E= -.22858340E+03 F= -.22476469E+03 E0= -.22476469E+03  EK= 0.10453E+02 SP= -.14E+02 SK= 0.77E-02
   2846 T=   629. E= -.22858324E+03 F= -.22471553E+03 E0= -.22471553E+03  EK= 0.10332E+02 SP= -.14E+02 SK= 0.12E-01
   2847 T=   621. E= -.22858306E+03 F= -.22466137E+03 E0= -.22466137E+03  EK= 0.10193E+02 SP= -.14E+02 SK= 0.15E-01
   2848 T=   612. E= -.22858284E+03 F= -.22460335E+03 E0= -.22460335E+03  EK= 0.10043E+02 SP= -.14E+02 SK= 0.18E-01
   2849 T=   602. E= -.22858253E+03 F= -.22454351E+03 E0= -.22454351E+03  EK= 0.98875E+01 SP= -.14E+02 SK= 0.19E-01
   2850 T=   593. E= -.22858218E+03 F= -.22448529E+03 E0= -.22448529E+03  EK= 0.97335E+01 SP= -.14E+02 SK= 0.19E-01
   2851 T=   584. E= -.22858183E+03 F= -.22443312E+03 E0= -.22443312E+03  EK= 0.95893E+01 SP= -.14E+02 SK= 0.17E-01
   2852 T=   576. E= -.22858150E+03 F= -.22439187E+03 E0= -.22439187E+03  EK= 0.94631E+01 SP= -.14E+02 SK= 0.15E-01
   2853 T=   570. E= -.22858129E+03 F= -.22436617E+03 E0= -.22436617E+03  EK= 0.93620E+01 SP= -.14E+02 SK= 0.11E-01
   2854 T=   566. E= -.22858116E+03 F= -.22435956E+03 E0= -.22435956E+03  EK= 0.92915E+01 SP= -.14E+02 SK= 0.77E-02
   2855 T=   564. E= -.22858116E+03 F= -.22437422E+03 E0= -.22437422E+03  EK= 0.92551E+01 SP= -.13E+02 SK= 0.46E-02
   2856 T=   564. E= -.22858123E+03 F= -.22441065E+03 E0= -.22441065E+03  EK= 0.92537E+01 SP= -.13E+02 SK= 0.22E-02
   2857 T=   566. E= -.22858143E+03 F= -.22446796E+03 E0= -.22446796E+03  EK= 0.92864E+01 SP= -.13E+02 SK= 0.74E-03
   2858 T=   570. E= -.22858168E+03 F= -.22454379E+03 E0= -.22454379E+03  EK= 0.93501E+01 SP= -.13E+02 SK= 0.78E-04
   2859 T=   575. E= -.22858201E+03 F= -.22463470E+03 E0= -.22463470E+03  EK= 0.94400E+01 SP= -.13E+02 SK= 0.45E-04
   2860 T=   582. E= -.22858240E+03 F= -.22473639E+03 E0= -.22473639E+03  EK= 0.95499E+01 SP= -.13E+02 SK= 0.35E-03
   2861 T=   589. E= -.22858282E+03 F= -.22484384E+03 E0= -.22484384E+03  EK= 0.96723E+01 SP= -.13E+02 SK= 0.70E-03
   2862 T=   597. E= -.22858328E+03 F= -.22495157E+03 E0= -.22495157E+03  EK= 0.97990E+01 SP= -.13E+02 SK= 0.89E-03
   2863 T=   604. E= -.22858373E+03 F= -.22505386E+03 E0= -.22505386E+03  EK= 0.99212E+01 SP= -.13E+02 SK= 0.82E-03
   2864 T=   611. E= -.22858407E+03 F= -.22514531E+03 E0= -.22514531E+03  EK= 0.10031E+02 SP= -.13E+02 SK= 0.54E-03
   2865 T=   617. E= -.22858425E+03 F= -.22522200E+03 E0= -.22522200E+03  EK= 0.10121E+02 SP= -.13E+02 SK= 0.20E-03
   2866 T=   621. E= -.22858422E+03 F= -.22528239E+03 E0= -.22528239E+03  EK= 0.10187E+02 SP= -.13E+02 SK= 0.67E-05
   2867 T=   623. E= -.22858390E+03 F= -.22532792E+03 E0= -.22532792E+03  EK= 0.10230E+02 SP= -.13E+02 SK= 0.12E-03
   2868 T=   625. E= -.22858335E+03 F= -.22536377E+03 E0= -.22536377E+03  EK= 0.10253E+02 SP= -.13E+02 SK= 0.67E-03
   2869 T=   625. E= -.22858259E+03 F= -.22539842E+03 E0= -.22539842E+03  EK= 0.10264E+02 SP= -.13E+02 SK= 0.17E-02
   2870 T=   626. E= -.22858181E+03 F= -.22544264E+03 E0= -.22544264E+03  EK= 0.10273E+02 SP= -.13E+02 SK= 0.32E-02
   2871 T=   627. E= -.22858121E+03 F= -.22550702E+03 E0= -.22550702E+03  EK= 0.10291E+02 SP= -.13E+02 SK= 0.53E-02
   2872 T=   629. E= -.22858098E+03 F= -.22559903E+03 E0= -.22559903E+03  EK= 0.10324E+02 SP= -.13E+02 SK= 0.80E-02
   2873 T=   632. E= -.22858116E+03 F= -.22572070E+03 E0= -.22572070E+03  EK= 0.10373E+02 SP= -.13E+02 SK= 0.12E-01
   2874 T=   635. E= -.22858169E+03 F= -.22586771E+03 E0= -.22586771E+03  EK= 0.10432E+02 SP= -.13E+02 SK= 0.16E-01
   2875 T=   639. E= -.22858243E+03 F= -.22603025E+03 E0= -.22603025E+03  EK= 0.10491E+02 SP= -.13E+02 SK= 0.23E-01
   2876 T=   642. E= -.22858317E+03 F= -.22619509E+03 E0= -.22619509E+03  EK= 0.10533E+02 SP= -.13E+02 SK= 0.31E-01
   2877 T=   642. E= -.22858377E+03 F= -.22634817E+03 E0= -.22634817E+03  EK= 0.10545E+02 SP= -.13E+02 SK= 0.40E-01
   2878 T=   641. E= -.22858407E+03 F= -.22647704E+03 E0= -.22647704E+03  EK= 0.10515E+02 SP= -.13E+02 SK= 0.51E-01
   2879 T=   636. E= -.22858402E+03 F= -.22657295E+03 E0= -.22657295E+03  EK= 0.10434E+02 SP= -.13E+02 SK= 0.62E-01
   2880 T=   628. E= -.22858358E+03 F= -.22663202E+03 E0= -.22663202E+03  EK= 0.10304E+02 SP= -.12E+02 SK= 0.72E-01
   2881 T=   617. E= -.22858282E+03 F= -.22665585E+03 E0= -.22665585E+03  EK= 0.10129E+02 SP= -.12E+02 SK= 0.80E-01
   2882 T=   604. E= -.22858182E+03 F= -.22665135E+03 E0= -.22665135E+03  EK= 0.99219E+01 SP= -.12E+02 SK= 0.84E-01
   2883 T=   591. E= -.22858073E+03 F= -.22662971E+03 E0= -.22662971E+03  EK= 0.97003E+01 SP= -.12E+02 SK= 0.83E-01
   2884 T=   578. E= -.22857973E+03 F= -.22660451E+03 E0= -.22660451E+03  EK= 0.94827E+01 SP= -.12E+02 SK= 0.78E-01
   2885 T=   566. E= -.22857898E+03 F= -.22658925E+03 E0= -.22658925E+03  EK= 0.92873E+01 SP= -.11E+02 SK= 0.70E-01
   2886 T=   556. E= -.22857859E+03 F= -.22659474E+03 E0= -.22659474E+03  EK= 0.91282E+01 SP= -.11E+02 SK= 0.58E-01
   2887 T=   549. E= -.22857855E+03 F= -.22662704E+03 E0= -.22662704E+03  EK= 0.90140E+01 SP= -.11E+02 SK= 0.46E-01
   2888 T=   545. E= -.22857881E+03 F= -.22668705E+03 E0= -.22668705E+03  EK= 0.89471E+01 SP= -.11E+02 SK= 0.34E-01
   2889 T=   544. E= -.22857931E+03 F= -.22677076E+03 E0= -.22677076E+03  EK= 0.89240E+01 SP= -.11E+02 SK= 0.23E-01
   2890 T=   544. E= -.22857992E+03 F= -.22687020E+03 E0= -.22687020E+03  EK= 0.89369E+01 SP= -.11E+02 SK= 0.14E-01
   2891 T=   547. E= -.22858051E+03 F= -.22697529E+03 E0= -.22697529E+03  EK= 0.89753E+01 SP= -.11E+02 SK= 0.78E-02
   2892 T=   550. E= -.22858100E+03 F= -.22707574E+03 E0= -.22707574E+03  EK= 0.90281E+01 SP= -.11E+02 SK= 0.35E-02
   2893 T=   553. E= -.22858133E+03 F= -.22716274E+03 E0= -.22716274E+03  EK= 0.90856E+01 SP= -.11E+02 SK= 0.10E-02
   2894 T=   557. E= -.22858148E+03 F= -.22723001E+03 E0= -.22723001E+03  EK= 0.91405E+01 SP= -.10E+02 SK= 0.38E-04
   2895 T=   560. E= -.22858147E+03 F= -.22727406E+03 E0= -.22727406E+03  EK= 0.91883E+01 SP= -.10E+02 SK= 0.30E-03
   2896 T=   562. E= -.22858135E+03 F= -.22729406E+03 E0= -.22729406E+03  EK= 0.92269E+01 SP= -.11E+02 SK= 0.16E-02
   2897 T=   564. E= -.22858117E+03 F= -.22729124E+03 E0= -.22729124E+03  EK= 0.92570E+01 SP= -.11E+02 SK= 0.36E-02
   2898 T=   565. E= -.22858097E+03 F= -.22726811E+03 E0= -.22726811E+03  EK= 0.92803E+01 SP= -.11E+02 SK= 0.64E-02
   2899 T=   566. E= -.22858077E+03 F= -.22722775E+03 E0= -.22722775E+03  EK= 0.92994E+01 SP= -.11E+02 SK= 0.99E-02
   2900 T=   568. E= -.22858060E+03 F= -.22717339E+03 E0= -.22717339E+03  EK= 0.93170E+01 SP= -.11E+02 SK= 0.14E-01
   2901 T=   569. E= -.22858048E+03 F= -.22710809E+03 E0= -.22710809E+03  EK= 0.93358E+01 SP= -.11E+02 SK= 0.19E-01
   2902 T=   570. E= -.22858043E+03 F= -.22703443E+03 E0= -.22703443E+03  EK= 0.93581E+01 SP= -.11E+02 SK= 0.23E-01
   2903 T=   572. E= -.22858040E+03 F= -.22695435E+03 E0= -.22695435E+03  EK= 0.93853E+01 SP= -.11E+02 SK= 0.29E-01
   2904 T=   574. E= -.22858044E+03 F= -.22686941E+03 E0= -.22686941E+03  EK= 0.94185E+01 SP= -.11E+02 SK= 0.34E-01
   2905 T=   576. E= -.22858052E+03 F= -.22678047E+03 E0= -.22678047E+03  EK= 0.94579E+01 SP= -.11E+02 SK= 0.40E-01
   2906 T=   579. E= -.22858065E+03 F= -.22668787E+03 E0= -.22668787E+03  EK= 0.95031E+01 SP= -.11E+02 SK= 0.45E-01
   2907 T=   582. E= -.22858082E+03 F= -.22659163E+03 E0= -.22659163E+03  EK= 0.95532E+01 SP= -.12E+02 SK= 0.49E-01
   2908 T=   585. E= -.22858097E+03 F= -.22649171E+03 E0= -.22649171E+03  EK= 0.96071E+01 SP= -.12E+02 SK= 0.53E-01
   2909 T=   589. E= -.22858109E+03 F= -.22638832E+03 E0= -.22638832E+03  EK= 0.96639E+01 SP= -.12E+02 SK= 0.57E-01
   2910 T=   592. E= -.22858119E+03 F= -.22628207E+03 E0= -.22628207E+03  EK= 0.97229E+01 SP= -.12E+02 SK= 0.59E-01
   2911 T=   596. E= -.22858129E+03 F= -.22617414E+03 E0= -.22617414E+03  EK= 0.97839E+01 SP= -.12E+02 SK= 0.60E-01
   2912 T=   600. E= -.22858137E+03 F= -.22606595E+03 E0= -.22606595E+03  EK= 0.98469E+01 SP= -.12E+02 SK= 0.61E-01
   2913 T=   604. E= -.22858146E+03 F= -.22595903E+03 E0= -.22595903E+03  EK= 0.99118E+01 SP= -.13E+02 SK= 0.60E-01
   2914 T=   608. E= -.22858158E+03 F= -.22585481E+03 E0= -.22585481E+03  EK= 0.99785E+01 SP= -.13E+02 SK= 0.58E-01
   2915 T=   612. E= -.22858173E+03 F= -.22575426E+03 E0= -.22575426E+03  EK= 0.10046E+02 SP= -.13E+02 SK= 0.55E-01
   2916 T=   616. E= -.22858190E+03 F= -.22565786E+03 E0= -.22565786E+03  EK= 0.10114E+02 SP= -.13E+02 SK= 0.51E-01
   2917 T=   620. E= -.22858209E+03 F= -.22556573E+03 E0= -.22556573E+03  EK= 0.10180E+02 SP= -.13E+02 SK= 0.46E-01
   2918 T=   624. E= -.22858230E+03 F= -.22547748E+03 E0= -.22547748E+03  EK= 0.10241E+02 SP= -.13E+02 SK= 0.40E-01
   2919 T=   627. E= -.22858252E+03 F= -.22539233E+03 E0= -.22539233E+03  EK= 0.10296E+02 SP= -.14E+02 SK= 0.34E-01
   2920 T=   630. E= -.22858273E+03 F= -.22530916E+03 E0= -.22530916E+03  EK= 0.10341E+02 SP= -.14E+02 SK= 0.28E-01
   2921 T=   632. E= -.22858294E+03 F= -.22522666E+03 E0= -.22522666E+03  EK= 0.10375E+02 SP= -.14E+02 SK= 0.22E-01
   2922 T=   633. E= -.22858309E+03 F= -.22514364E+03 E0= -.22514364E+03  EK= 0.10394E+02 SP= -.14E+02 SK= 0.17E-01
   2923 T=   633. E= -.22858315E+03 F= -.22505950E+03 E0= -.22505950E+03  EK= 0.10397E+02 SP= -.14E+02 SK= 0.12E-01
   2924 T=   633. E= -.22858309E+03 F= -.22497458E+03 E0= -.22497458E+03  EK= 0.10385E+02 SP= -.14E+02 SK= 0.78E-02
   2925 T=   631. E= -.22858296E+03 F= -.22489035E+03 E0= -.22489035E+03  EK= 0.10359E+02 SP= -.14E+02 SK= 0.48E-02
   2926 T=   629. E= -.22858275E+03 F= -.22480920E+03 E0= -.22480920E+03  EK= 0.10322E+02 SP= -.14E+02 SK= 0.26E-02
   2927 T=   626. E= -.22858255E+03 F= -.22473417E+03 E0= -.22473417E+03  EK= 0.10278E+02 SP= -.14E+02 SK= 0.12E-02
   2928 T=   623. E= -.22858236E+03 F= -.22466813E+03 E0= -.22466813E+03  EK= 0.10232E+02 SP= -.14E+02 SK= 0.37E-03
   2929 T=   620. E= -.22858225E+03 F= -.22461321E+03 E0= -.22461321E+03  EK= 0.10186E+02 SP= -.14E+02 SK= 0.34E-04
   2930 T=   618. E= -.22858218E+03 F= -.22457061E+03 E0= -.22457061E+03  EK= 0.10143E+02 SP= -.14E+02 SK= 0.36E-04
   2931 T=   616. E= -.22858219E+03 F= -.22454067E+03 E0= -.22454067E+03  EK= 0.10105E+02 SP= -.14E+02 SK= 0.27E-03
   2932 T=   614. E= -.22858224E+03 F= -.22452281E+03 E0= -.22452281E+03  EK= 0.10073E+02 SP= -.14E+02 SK= 0.65E-03
   2933 T=   612. E= -.22858234E+03 F= -.22451579E+03 E0= -.22451579E+03  EK= 0.10044E+02 SP= -.14E+02 SK= 0.11E-02
   2934 T=   610. E= -.22858244E+03 F= -.22451784E+03 E0= -.22451784E+03  EK= 0.10020E+02 SP= -.14E+02 SK= 0.17E-02
   2935 T=   609. E= -.22858256E+03 F= -.22452721E+03 E0= -.22452721E+03  EK= 0.99978E+01 SP= -.14E+02 SK= 0.22E-02
   2936 T=   608. E= -.22858264E+03 F= -.22454222E+03 E0= -.22454222E+03  EK= 0.99774E+01 SP= -.14E+02 SK= 0.28E-02
   2937 T=   607. E= -.22858269E+03 F= -.22456160E+03 E0= -.22456160E+03  EK= 0.99578E+01 SP= -.14E+02 SK= 0.33E-02
   2938 T=   605. E= -.22858271E+03 F= -.22458466E+03 E0= -.22458466E+03  EK= 0.99387E+01 SP= -.14E+02 SK= 0.38E-02
   2939 T=   604. E= -.22858271E+03 F= -.22461107E+03 E0= -.22461107E+03  EK= 0.99204E+01 SP= -.14E+02 SK= 0.43E-02
   2940 T=   603. E= -.22858270E+03 F= -.22464083E+03 E0= -.22464083E+03  EK= 0.99032E+01 SP= -.14E+02 SK= 0.47E-02
   2941 T=   602. E= -.22858270E+03 F= -.22467418E+03 E0= -.22467418E+03  EK= 0.98879E+01 SP= -.14E+02 SK= 0.50E-02
   2942 T=   602. E= -.22858270E+03 F= -.22471110E+03 E0= -.22471110E+03  EK= 0.98747E+01 SP= -.14E+02 SK= 0.52E-02
   2943 T=   601. E= -.22858273E+03 F= -.22475132E+03 E0= -.22475132E+03  EK= 0.98638E+01 SP= -.14E+02 SK= 0.54E-02
   2944 T=   600. E= -.22858280E+03 F= -.22479413E+03 E0= -.22479413E+03  EK= 0.98545E+01 SP= -.14E+02 SK= 0.56E-02
   2945 T=   600. E= -.22858288E+03 F= -.22483833E+03 E0= -.22483833E+03  EK= 0.98461E+01 SP= -.14E+02 SK= 0.57E-02
   2946 T=   599. E= -.22858298E+03 F= -.22488242E+03 E0= -.22488242E+03  EK= 0.98372E+01 SP= -.14E+02 SK= 0.58E-02
   2947 T=   599. E= -.22858311E+03 F= -.22492439E+03 E0= -.22492439E+03  EK= 0.98260E+01 SP= -.13E+02 SK= 0.58E-02
   2948 T=   598. E= -.22858324E+03 F= -.22496197E+03 E0= -.22496197E+03  EK= 0.98105E+01 SP= -.13E+02 SK= 0.57E-02
   2949 T=   596. E= -.22858334E+03 F= -.22499278E+03 E0= -.22499278E+03  EK= 0.97888E+01 SP= -.13E+02 SK= 0.56E-02
   2950 T=   595. E= -.22858337E+03 F= -.22501480E+03 E0= -.22501480E+03  EK= 0.97596E+01 SP= -.13E+02 SK= 0.53E-02
   2951 T=   592. E= -.22858336E+03 F= -.22502681E+03 E0= -.22502681E+03  EK= 0.97223E+01 SP= -.13E+02 SK= 0.49E-02
   2952 T=   590. E= -.22858325E+03 F= -.22502863E+03 E0= -.22502863E+03  EK= 0.96777E+01 SP= -.13E+02 SK= 0.43E-02
   2953 T=   586. E= -.22858307E+03 F= -.22502143E+03 E0= -.22502143E+03  EK= 0.96280E+01 SP= -.13E+02 SK= 0.35E-02
   2954 T=   583. E= -.22858280E+03 F= -.22500764E+03 E0= -.22500764E+03  EK= 0.95770E+01 SP= -.13E+02 SK= 0.26E-02
   2955 T=   580. E= -.22858250E+03 F= -.22499076E+03 E0= -.22499076E+03  EK= 0.95291E+01 SP= -.13E+02 SK= 0.17E-02
   2956 T=   578. E= -.22858221E+03 F= -.22497489E+03 E0= -.22497489E+03  EK= 0.94895E+01 SP= -.13E+02 SK= 0.89E-03
   2957 T=   576. E= -.22858196E+03 F= -.22496410E+03 E0= -.22496410E+03  EK= 0.94631E+01 SP= -.13E+02 SK= 0.30E-03
   2958 T=   576. E= -.22858181E+03 F= -.22496170E+03 E0= -.22496170E+03  EK= 0.94537E+01 SP= -.13E+02 SK= 0.16E-04
   2959 T=   576. E= -.22858174E+03 F= -.22496982E+03 E0= -.22496982E+03  EK= 0.94637E+01 SP= -.13E+02 SK= 0.86E-04
   2960 T=   578. E= -.22858177E+03 F= -.22498912E+03 E0= -.22498912E+03  EK= 0.94934E+01 SP= -.13E+02 SK= 0.48E-03
   2961 T=   581. E= -.22858189E+03 F= -.22501874E+03 E0= -.22501874E+03  EK= 0.95414E+01 SP= -.13E+02 SK= 0.11E-02
   2962 T=   585. E= -.22858208E+03 F= -.22505643E+03 E0= -.22505643E+03  EK= 0.96044E+01 SP= -.13E+02 SK= 0.18E-02
   2963 T=   590. E= -.22858231E+03 F= -.22509897E+03 E0= -.22509897E+03  EK= 0.96778E+01 SP= -.13E+02 SK= 0.24E-02
   2964 T=   594. E= -.22858257E+03 F= -.22514256E+03 E0= -.22514256E+03  EK= 0.97562E+01 SP= -.13E+02 SK= 0.28E-02
   2965 T=   599. E= -.22858280E+03 F= -.22518324E+03 E0= -.22518324E+03  EK= 0.98339E+01 SP= -.13E+02 SK= 0.29E-02
   2966 T=   603. E= -.22858302E+03 F= -.22521731E+03 E0= -.22521731E+03  EK= 0.99051E+01 SP= -.13E+02 SK= 0.28E-02
   2967 T=   607. E= -.22858317E+03 F= -.22524174E+03 E0= -.22524174E+03  EK= 0.99651E+01 SP= -.13E+02 SK= 0.24E-02
   2968 T=   610. E= -.22858325E+03 F= -.22525456E+03 E0= -.22525456E+03  EK= 0.10010E+02 SP= -.13E+02 SK= 0.19E-02
   2969 T=   612. E= -.22858328E+03 F= -.22525476E+03 E0= -.22525476E+03  EK= 0.10039E+02 SP= -.13E+02 SK= 0.13E-02
   2970 T=   612. E= -.22858331E+03 F= -.22524209E+03 E0= -.22524209E+03  EK= 0.10049E+02 SP= -.13E+02 SK= 0.80E-03
   2971 T=   612. E= -.22858329E+03 F= -.22521668E+03 E0= -.22521668E+03  EK= 0.10041E+02 SP= -.13E+02 SK= 0.42E-03
   2972 T=   610. E= -.22858326E+03 F= -.22517916E+03 E0= -.22517916E+03  EK= 0.10016E+02 SP= -.13E+02 SK= 0.18E-03
   2973 T=   608. E= -.22858319E+03 F= -.22513040E+03 E0= -.22513040E+03  EK= 0.99744E+01 SP= -.13E+02 SK= 0.56E-04
   2974 T=   604. E= -.22858308E+03 F= -.22507167E+03 E0= -.22507167E+03  EK= 0.99196E+01 SP= -.13E+02 SK= 0.11E-04
   2975 T=   600. E= -.22858296E+03 F= -.22500468E+03 E0= -.22500468E+03  EK= 0.98542E+01 SP= -.13E+02 SK= 0.13E-05
   2976 T=   596. E= -.22858286E+03 F= -.22493129E+03 E0= -.22493129E+03  EK= 0.97819E+01 SP= -.13E+02 SK= 0.23E-05
   2977 T=   591. E= -.22858281E+03 F= -.22485311E+03 E0= -.22485311E+03  EK= 0.97058E+01 SP= -.13E+02 SK= 0.21E-04
   2978 T=   587. E= -.22858283E+03 F= -.22477114E+03 E0= -.22477114E+03  EK= 0.96289E+01 SP= -.13E+02 SK= 0.11E-03
   2979 T=   582. E= -.22858290E+03 F= -.22468560E+03 E0= -.22468560E+03  EK= 0.95532E+01 SP= -.13E+02 SK= 0.35E-03
   2980 T=   577. E= -.22858299E+03 F= -.22459614E+03 E0= -.22459614E+03  EK= 0.94801E+01 SP= -.13E+02 SK= 0.89E-03
   2981 T=   573. E= -.22858308E+03 F= -.22450212E+03 E0= -.22450212E+03  EK= 0.94105E+01 SP= -.13E+02 SK= 0.19E-02
   2982 T=   569. E= -.22858310E+03 F= -.22440335E+03 E0= -.22440335E+03  EK= 0.93460E+01 SP= -.14E+02 SK= 0.35E-02
   2983 T=   566. E= -.22858299E+03 F= -.22430090E+03 E0= -.22430090E+03  EK= 0.92890E+01 SP= -.14E+02 SK= 0.60E-02
   2984 T=   563. E= -.22858274E+03 F= -.22419783E+03 E0= -.22419783E+03  EK= 0.92438E+01 SP= -.14E+02 SK= 0.96E-02
   2985 T=   561. E= -.22858229E+03 F= -.22409965E+03 E0= -.22409965E+03  EK= 0.92170E+01 SP= -.14E+02 SK= 0.14E-01
   2986 T=   561. E= -.22858172E+03 F= -.22401451E+03 E0= -.22401451E+03  EK= 0.92174E+01 SP= -.14E+02 SK= 0.20E-01
   2987 T=   564. E= -.22858111E+03 F= -.22395221E+03 E0= -.22395221E+03  EK= 0.92550E+01 SP= -.14E+02 SK= 0.26E-01
   2988 T=   569. E= -.22858053E+03 F= -.22392294E+03 E0= -.22392294E+03  EK= 0.93395E+01 SP= -.14E+02 SK= 0.33E-01
   2989 T=   577. E= -.22858015E+03 F= -.22393565E+03 E0= -.22393565E+03  EK= 0.94787E+01 SP= -.14E+02 SK= 0.39E-01
   2990 T=   589. E= -.22858007E+03 F= -.22399601E+03 E0= -.22399601E+03  EK= 0.96757E+01 SP= -.14E+02 SK= 0.42E-01
   2991 T=   605. E= -.22858035E+03 F= -.22410507E+03 E0= -.22410507E+03  EK= 0.99280E+01 SP= -.14E+02 SK= 0.43E-01
   2992 T=   623. E= -.22858105E+03 F= -.22425858E+03 E0= -.22425858E+03  EK= 0.10226E+02 SP= -.15E+02 SK= 0.39E-01
   2993 T=   643. E= -.22858210E+03 F= -.22444688E+03 E0= -.22444688E+03  EK= 0.10552E+02 SP= -.15E+02 SK= 0.32E-01
   2994 T=   663. E= -.22858344E+03 F= -.22465600E+03 E0= -.22465600E+03  EK= 0.10884E+02 SP= -.15E+02 SK= 0.22E-01
   2995 T=   682. E= -.22858490E+03 F= -.22486894E+03 E0= -.22486894E+03  EK= 0.11194E+02 SP= -.15E+02 SK= 0.11E-01
   2996 T=   698. E= -.22858627E+03 F= -.22506759E+03 E0= -.22506759E+03  EK= 0.11454E+02 SP= -.15E+02 SK= 0.26E-02
   2997 T=   709. E= -.22858734E+03 F= -.22523474E+03 E0= -.22523474E+03  EK= 0.11636E+02 SP= -.15E+02 SK= 0.11E-03
   2998 T=   714. E= -.22858794E+03 F= -.22535612E+03 E0= -.22535612E+03  EK= 0.11720E+02 SP= -.15E+02 SK= 0.59E-02
   2999 T=   712. E= -.22858797E+03 F= -.22542185E+03 E0= -.22542185E+03  EK= 0.11694E+02 SP= -.15E+02 SK= 0.21E-01
   3000 T=   704. E= -.22858740E+03 F= -.22542736E+03 E0= -.22542736E+03  EK= 0.11554E+02 SP= -.15E+02 SK= 0.44E-01
   3001 T=   689. E= -.22858633E+03 F= -.22537386E+03 E0= -.22537386E+03  EK= 0.11309E+02 SP= -.15E+02 SK= 0.71E-01
   3002 T=   669. E= -.22858493E+03 F= -.22526807E+03 E0= -.22526807E+03  EK= 0.10975E+02 SP= -.14E+02 SK= 0.98E-01
   3003 T=   644. E= -.22858336E+03 F= -.22512157E+03 E0= -.22512157E+03  EK= 0.10578E+02 SP= -.14E+02 SK= 0.12E+00
   3004 T=   618. E= -.22858183E+03 F= -.22494962E+03 E0= -.22494962E+03  EK= 0.10145E+02 SP= -.14E+02 SK= 0.13E+00
   3005 T=   591. E= -.22858046E+03 F= -.22476960E+03 E0= -.22476960E+03  EK= 0.97076E+01 SP= -.14E+02 SK= 0.14E+00
   3006 T=   566. E= -.22857941E+03 F= -.22459947E+03 E0= -.22459947E+03  EK= 0.92937E+01 SP= -.13E+02 SK= 0.13E+00
   3007 T=   544. E= -.22857873E+03 F= -.22445563E+03 E0= -.22445563E+03  EK= 0.89281E+01 SP= -.13E+02 SK= 0.11E+00
   3008 T=   526. E= -.22857841E+03 F= -.22435126E+03 E0= -.22435126E+03  EK= 0.86296E+01 SP= -.13E+02 SK= 0.86E-01
   3009 T=   512. E= -.22857839E+03 F= -.22429535E+03 E0= -.22429535E+03  EK= 0.84105E+01 SP= -.13E+02 SK= 0.61E-01
   3010 T=   504. E= -.22857861E+03 F= -.22429226E+03 E0= -.22429226E+03  EK= 0.82771E+01 SP= -.13E+02 SK= 0.38E-01
   3011 T=   501. E= -.22857902E+03 F= -.22434194E+03 E0= -.22434194E+03  EK= 0.82297E+01 SP= -.12E+02 SK= 0.19E-01
   3012 T=   503. E= -.22857954E+03 F= -.22444003E+03 E0= -.22444003E+03  EK= 0.82637E+01 SP= -.12E+02 SK= 0.65E-02
   3013 T=   510. E= -.22858020E+03 F= -.22457845E+03 E0= -.22457845E+03  EK= 0.83699E+01 SP= -.12E+02 SK= 0.70E-03
   3014 T=   520. E= -.22858097E+03 F= -.22474583E+03 E0= -.22474583E+03  EK= 0.85353E+01 SP= -.12E+02 SK= 0.51E-03
   3015 T=   533. E= -.22858182E+03 F= -.22492823E+03 E0= -.22492823E+03  EK= 0.87437E+01 SP= -.12E+02 SK= 0.42E-02
   3016 T=   547. E= -.22858268E+03 F= -.22511038E+03 E0= -.22511038E+03  EK= 0.89767E+01 SP= -.12E+02 SK= 0.99E-02
   3017 T=   561. E= -.22858351E+03 F= -.22527714E+03 E0= -.22527714E+03  EK= 0.92152E+01 SP= -.13E+02 SK= 0.16E-01
   3018 T=   575. E= -.22858414E+03 F= -.22541518E+03 E0= -.22541518E+03  EK= 0.94415E+01 SP= -.13E+02 SK= 0.20E-01
   3019 T=   587. E= -.22858454E+03 F= -.22551485E+03 E0= -.22551485E+03  EK= 0.96411E+01 SP= -.13E+02 SK= 0.23E-01
   3020 T=   597. E= -.22858461E+03 F= -.22557114E+03 E0= -.22557114E+03  EK= 0.98042E+01 SP= -.13E+02 SK= 0.25E-01
   3021 T=   605. E= -.22858435E+03 F= -.22558446E+03 E0= -.22558446E+03  EK= 0.99270E+01 SP= -.13E+02 SK= 0.24E-01
   3022 T=   610. E= -.22858383E+03 F= -.22556045E+03 E0= -.22556045E+03  EK= 0.10011E+02 SP= -.13E+02 SK= 0.22E-01
   3023 T=   613. E= -.22858309E+03 F= -.22550896E+03 E0= -.22550896E+03  EK= 0.10065E+02 SP= -.13E+02 SK= 0.20E-01
   3024 T=   615. E= -.22858233E+03 F= -.22544244E+03 E0= -.22544244E+03  EK= 0.10098E+02 SP= -.13E+02 SK= 0.18E-01
   3025 T=   617. E= -.22858163E+03 F= -.22537377E+03 E0= -.22537377E+03  EK= 0.10122E+02 SP= -.13E+02 SK= 0.15E-01
   3026 T=   618. E= -.22858110E+03 F= -.22531461E+03 E0= -.22531461E+03  EK= 0.10148E+02 SP= -.13E+02 SK= 0.13E-01
   3027 T=   620. E= -.22858081E+03 F= -.22527390E+03 E0= -.22527390E+03  EK= 0.10185E+02 SP= -.14E+02 SK= 0.10E-01
   3028 T=   624. E= -.22858077E+03 F= -.22525683E+03 E0= -.22525683E+03  EK= 0.10236E+02 SP= -.14E+02 SK= 0.77E-02
   3029 T=   628. E= -.22858098E+03 F= -.22526452E+03 E0= -.22526452E+03  EK= 0.10302E+02 SP= -.14E+02 SK= 0.52E-02
   3030 T=   632. E= -.22858138E+03 F= -.22529442E+03 E0= -.22529442E+03  EK= 0.10377E+02 SP= -.14E+02 SK= 0.29E-02
   3031 T=   637. E= -.22858190E+03 F= -.22534107E+03 E0= -.22534107E+03  EK= 0.10456E+02 SP= -.14E+02 SK= 0.11E-02
   3032 T=   641. E= -.22858243E+03 F= -.22539717E+03 E0= -.22539717E+03  EK= 0.10528E+02 SP= -.14E+02 SK= 0.97E-04
   3033 T=   645. E= -.22858291E+03 F= -.22545482E+03 E0= -.22545482E+03  EK= 0.10582E+02 SP= -.14E+02 SK= 0.26E-03
   3034 T=   646. E= -.22858330E+03 F= -.22550655E+03 E0= -.22550655E+03  EK= 0.10611E+02 SP= -.14E+02 SK= 0.19E-02
   3035 T=   646. E= -.22858350E+03 F= -.22554604E+03 E0= -.22554604E+03  EK= 0.10608E+02 SP= -.14E+02 SK= 0.51E-02
   3036 T=   644. E= -.22858354E+03 F= -.22556889E+03 E0= -.22556889E+03  EK= 0.10567E+02 SP= -.14E+02 SK= 0.97E-02
   3037 T=   639. E= -.22858339E+03 F= -.22557299E+03 E0= -.22557299E+03  EK= 0.10488E+02 SP= -.14E+02 SK= 0.15E-01
   3038 T=   632. E= -.22858312E+03 F= -.22555848E+03 E0= -.22555848E+03  EK= 0.10375E+02 SP= -.13E+02 SK= 0.21E-01
   3039 T=   623. E= -.22858274E+03 F= -.22552725E+03 E0= -.22552725E+03  EK= 0.10232E+02 SP= -.13E+02 SK= 0.26E-01
   3040 T=   613. E= -.22858226E+03 F= -.22548301E+03 E0= -.22548301E+03  EK= 0.10068E+02 SP= -.13E+02 SK= 0.30E-01
   3041 T=   603. E= -.22858179E+03 F= -.22543098E+03 E0= -.22543098E+03  EK= 0.98918E+01 SP= -.13E+02 SK= 0.32E-01
   3042 T=   592. E= -.22858136E+03 F= -.22537682E+03 E0= -.22537682E+03  EK= 0.97144E+01 SP= -.13E+02 SK= 0.31E-01
   3043 T=   581. E= -.22858102E+03 F= -.22532608E+03 E0= -.22532608E+03  EK= 0.95454E+01 SP= -.13E+02 SK= 0.29E-01
   3044 T=   572. E= -.22858076E+03 F= -.22528367E+03 E0= -.22528367E+03  EK= 0.93933E+01 SP= -.13E+02 SK= 0.25E-01
   3045 T=   564. E= -.22858064E+03 F= -.22525336E+03 E0= -.22525336E+03  EK= 0.92651E+01 SP= -.13E+02 SK= 0.19E-01
   3046 T=   558. E= -.22858063E+03 F= -.22523733E+03 E0= -.22523733E+03  EK= 0.91653E+01 SP= -.13E+02 SK= 0.14E-01
   3047 T=   554. E= -.22858069E+03 F= -.22523614E+03 E0= -.22523614E+03  EK= 0.90963E+01 SP= -.12E+02 SK= 0.85E-02
   3048 T=   552. E= -.22858081E+03 F= -.22524915E+03 E0= -.22524915E+03  EK= 0.90585E+01 SP= -.12E+02 SK= 0.43E-02
   3049 T=   551. E= -.22858095E+03 F= -.22527472E+03 E0= -.22527472E+03  EK= 0.90509E+01 SP= -.12E+02 SK= 0.14E-02
   3050 T=   553. E= -.22858112E+03 F= -.22531066E+03 E0= -.22531066E+03  EK= 0.90713E+01 SP= -.12E+02 SK= 0.10E-03
   3051 T=   555. E= -.22858127E+03 F= -.22535449E+03 E0= -.22535449E+03  EK= 0.91169E+01 SP= -.12E+02 SK= 0.26E-03
   3052 T=   559. E= -.22858136E+03 F= -.22540394E+03 E0= -.22540394E+03  EK= 0.91846E+01 SP= -.12E+02 SK= 0.16E-02
   3053 T=   565. E= -.22858141E+03 F= -.22545747E+03 E0= -.22545747E+03  EK= 0.92715E+01 SP= -.12E+02 SK= 0.38E-02
   3054 T=   571. E= -.22858139E+03 F= -.22551431E+03 E0= -.22551431E+03  EK= 0.93752E+01 SP= -.12E+02 SK= 0.64E-02
   3055 T=   578. E= -.22858139E+03 F= -.22557454E+03 E0= -.22557454E+03  EK= 0.94936E+01 SP= -.13E+02 SK= 0.88E-02
   3056 T=   586. E= -.22858137E+03 F= -.22563852E+03 E0= -.22563852E+03  EK= 0.96246E+01 SP= -.13E+02 SK= 0.11E-01
   3057 T=   595. E= -.22858140E+03 F= -.22570676E+03 E0= -.22570676E+03  EK= 0.97658E+01 SP= -.13E+02 SK= 0.12E-01
   3058 T=   604. E= -.22858152E+03 F= -.22577932E+03 E0= -.22577932E+03  EK= 0.99139E+01 SP= -.13E+02 SK= 0.12E-01
   3059 T=   613. E= -.22858172E+03 F= -.22585523E+03 E0= -.22585523E+03  EK= 0.10064E+02 SP= -.13E+02 SK= 0.11E-01
   3060 T=   622. E= -.22858204E+03 F= -.22593233E+03 E0= -.22593233E+03  EK= 0.10211E+02 SP= -.13E+02 SK= 0.84E-02
   3061 T=   630. E= -.22858244E+03 F= -.22600713E+03 E0= -.22600713E+03  EK= 0.10346E+02 SP= -.13E+02 SK= 0.57E-02
   3062 T=   637. E= -.22858288E+03 F= -.22607507E+03 E0= -.22607507E+03  EK= 0.10462E+02 SP= -.13E+02 SK= 0.30E-02
   3063 T=   643. E= -.22858327E+03 F= -.22613103E+03 E0= -.22613103E+03  EK= 0.10550E+02 SP= -.13E+02 SK= 0.96E-03
   3064 T=   646. E= -.22858358E+03 F= -.22617014E+03 E0= -.22617014E+03  EK= 0.10602E+02 SP= -.13E+02 SK= 0.19E-04
   3065 T=   646. E= -.22858379E+03 F= -.22618815E+03 E0= -.22618815E+03  EK= 0.10613E+02 SP= -.13E+02 SK= 0.55E-03
   3066 T=   644. E= -.22858381E+03 F= -.22618201E+03 E0= -.22618201E+03  EK= 0.10578E+02 SP= -.13E+02 SK= 0.26E-02
   3067 T=   640. E= -.22858368E+03 F= -.22615047E+03 E0= -.22615047E+03  EK= 0.10499E+02 SP= -.13E+02 SK= 0.58E-02
   3068 T=   632. E= -.22858343E+03 F= -.22609398E+03 E0= -.22609398E+03  EK= 0.10379E+02 SP= -.13E+02 SK= 0.96E-02
   3069 T=   623. E= -.22858307E+03 F= -.22601443E+03 E0= -.22601443E+03  EK= 0.10221E+02 SP= -.13E+02 SK= 0.13E-01
   3070 T=   611. E= -.22858268E+03 F= -.22591508E+03 E0= -.22591508E+03  EK= 0.10036E+02 SP= -.13E+02 SK= 0.16E-01
   3071 T=   599. E= -.22858230E+03 F= -.22579993E+03 E0= -.22579993E+03  EK= 0.98311E+01 SP= -.13E+02 SK= 0.17E-01
   3072 T=   586. E= -.22858197E+03 F= -.22567325E+03 E0= -.22567325E+03  EK= 0.96167E+01 SP= -.13E+02 SK= 0.16E-01
   3073 T=   573. E= -.22858174E+03 F= -.22553901E+03 E0= -.22553901E+03  EK= 0.94016E+01 SP= -.12E+02 SK= 0.13E-01
   3074 T=   560. E= -.22858164E+03 F= -.22540032E+03 E0= -.22540032E+03  EK= 0.91939E+01 SP= -.12E+02 SK= 0.91E-02
   3075 T=   548. E= -.22858165E+03 F= -.22525913E+03 E0= -.22525913E+03  EK= 0.89995E+01 SP= -.12E+02 SK= 0.48E-02
   3076 T=   537. E= -.22858179E+03 F= -.22511615E+03 E0= -.22511615E+03  EK= 0.88229E+01 SP= -.12E+02 SK= 0.13E-02
   3077 T=   528. E= -.22858201E+03 F= -.22497080E+03 E0= -.22497080E+03  EK= 0.86666E+01 SP= -.12E+02 SK= 0.40E-05
   3078 T=   520. E= -.22858223E+03 F= -.22482174E+03 E0= -.22482174E+03  EK= 0.85319E+01 SP= -.12E+02 SK= 0.21E-02
   3079 T=   513. E= -.22858242E+03 F= -.22466781E+03 E0= -.22466781E+03  EK= 0.84198E+01 SP= -.12E+02 SK= 0.88E-02
   3080 T=   508. E= -.22858249E+03 F= -.22450873E+03 E0= -.22450873E+03  EK= 0.83317E+01 SP= -.12E+02 SK= 0.21E-01
   3081 T=   504. E= -.22858233E+03 F= -.22434632E+03 E0= -.22434632E+03  EK= 0.82712E+01 SP= -.13E+02 SK= 0.40E-01
   3082 T=   502. E= -.22858191E+03 F= -.22418561E+03 E0= -.22418561E+03  EK= 0.82443E+01 SP= -.13E+02 SK= 0.66E-01
   3083 T=   503. E= -.22858122E+03 F= -.22403512E+03 E0= -.22403512E+03  EK= 0.82606E+01 SP= -.13E+02 SK= 0.97E-01
   3084 T=   508. E= -.22858030E+03 F= -.22390670E+03 E0= -.22390670E+03  EK= 0.83326E+01 SP= -.13E+02 SK= 0.13E+00
   3085 T=   516. E= -.22857926E+03 F= -.22381430E+03 E0= -.22381430E+03  EK= 0.84748E+01 SP= -.13E+02 SK= 0.17E+00
   3086 T=   530. E= -.22857824E+03 F= -.22377211E+03 E0= -.22377211E+03  EK= 0.87013E+01 SP= -.14E+02 SK= 0.21E+00
   3087 T=   550. E= -.22857746E+03 F= -.22379222E+03 E0= -.22379222E+03  EK= 0.90232E+01 SP= -.14E+02 SK= 0.25E+00
   3088 T=   575. E= -.22857716E+03 F= -.22388190E+03 E0= -.22388190E+03  EK= 0.94455E+01 SP= -.14E+02 SK= 0.27E+00
   3089 T=   607. E= -.22857755E+03 F= -.22404152E+03 E0= -.22404152E+03  EK= 0.99632E+01 SP= -.15E+02 SK= 0.27E+00
   3090 T=   643. E= -.22857880E+03 F= -.22426325E+03 E0= -.22426325E+03  EK= 0.10559E+02 SP= -.15E+02 SK= 0.26E+00
   3091 T=   682. E= -.22858089E+03 F= -.22453079E+03 E0= -.22453079E+03  EK= 0.11203E+02 SP= -.15E+02 SK= 0.22E+00
   3092 T=   722. E= -.22858364E+03 F= -.22482131E+03 E0= -.22482131E+03  EK= 0.11852E+02 SP= -.16E+02 SK= 0.17E+00
   3093 T=   759. E= -.22858672E+03 F= -.22510808E+03 E0= -.22510808E+03  EK= 0.12455E+02 SP= -.16E+02 SK= 0.11E+00
   3094 T=   789. E= -.22858964E+03 F= -.22536386E+03 E0= -.22536386E+03  EK= 0.12959E+02 SP= -.16E+02 SK= 0.51E-01
   3095 T=   811. E= -.22859185E+03 F= -.22556446E+03 E0= -.22556446E+03  EK= 0.13312E+02 SP= -.16E+02 SK= 0.11E-01
   3096 T=   821. E= -.22859289E+03 F= -.22569201E+03 E0= -.22569201E+03  EK= 0.13480E+02 SP= -.16E+02 SK= 0.43E-03
   3097 T=   819. E= -.22859251E+03 F= -.22573728E+03 E0= -.22573728E+03  EK= 0.13443E+02 SP= -.16E+02 SK= 0.23E-01
   3098 T=   804. E= -.22859080E+03 F= -.22570091E+03 E0= -.22570091E+03  EK= 0.13206E+02 SP= -.16E+02 SK= 0.76E-01
   3099 T=   779. E= -.22858813E+03 F= -.22559308E+03 E0= -.22559308E+03  EK= 0.12793E+02 SP= -.16E+02 SK= 0.15E+00
   3100 T=   746. E= -.22858500E+03 F= -.22543174E+03 E0= -.22543174E+03  EK= 0.12245E+02 SP= -.16E+02 SK= 0.24E+00
   3101 T=   707. E= -.22858193E+03 F= -.22524011E+03 E0= -.22524011E+03  EK= 0.11613E+02 SP= -.15E+02 SK= 0.31E+00
   3102 T=   667. E= -.22857931E+03 F= -.22504364E+03 E0= -.22504364E+03  EK= 0.10949E+02 SP= -.15E+02 SK= 0.38E+00
   3103 T=   628. E= -.22857740E+03 F= -.22486727E+03 E0= -.22486727E+03  EK= 0.10303E+02 SP= -.14E+02 SK= 0.41E+00
   3104 T=   592. E= -.22857627E+03 F= -.22473282E+03 E0= -.22473282E+03  EK= 0.97133E+01 SP= -.14E+02 SK= 0.42E+00
   3105 T=   561. E= -.22857590E+03 F= -.22465679E+03 E0= -.22465679E+03  EK= 0.92091E+01 SP= -.14E+02 SK= 0.40E+00
   3106 T=   536. E= -.22857613E+03 F= -.22464891E+03 E0= -.22464891E+03  EK= 0.88070E+01 SP= -.13E+02 SK= 0.36E+00
   3107 T=   519. E= -.22857683E+03 F= -.22471167E+03 E0= -.22471167E+03  EK= 0.85125E+01 SP= -.13E+02 SK= 0.31E+00
   3108 T=   507. E= -.22857783E+03 F= -.22484045E+03 E0= -.22484045E+03  EK= 0.83212E+01 SP= -.12E+02 SK= 0.26E+00
   3109 T=   501. E= -.22857897E+03 F= -.22502449E+03 E0= -.22502449E+03  EK= 0.82218E+01 SP= -.12E+02 SK= 0.21E+00
   3110 T=   499. E= -.22858010E+03 F= -.22524855E+03 E0= -.22524855E+03  EK= 0.81973E+01 SP= -.12E+02 SK= 0.16E+00
   3111 T=   501. E= -.22858114E+03 F= -.22549510E+03 E0= -.22549510E+03  EK= 0.82289E+01 SP= -.11E+02 SK= 0.11E+00
   3112 T=   505. E= -.22858199E+03 F= -.22574626E+03 E0= -.22574626E+03  EK= 0.82971E+01 SP= -.11E+02 SK= 0.80E-01
   3113 T=   511. E= -.22858258E+03 F= -.22598568E+03 E0= -.22598568E+03  EK= 0.83842E+01 SP= -.11E+02 SK= 0.53E-01
   3114 T=   516. E= -.22858294E+03 F= -.22620024E+03 E0= -.22620024E+03  EK= 0.84756E+01 SP= -.11E+02 SK= 0.33E-01
   3115 T=   521. E= -.22858306E+03 F= -.22638064E+03 E0= -.22638064E+03  EK= 0.85608E+01 SP= -.11E+02 SK= 0.18E-01
   3116 T=   526. E= -.22858293E+03 F= -.22652179E+03 E0= -.22652179E+03  EK= 0.86336E+01 SP= -.11E+02 SK= 0.82E-02
   3117 T=   529. E= -.22858262E+03 F= -.22662291E+03 E0= -.22662291E+03  EK= 0.86922E+01 SP= -.11E+02 SK= 0.24E-02
   3118 T=   532. E= -.22858217E+03 F= -.22668693E+03 E0= -.22668693E+03  EK= 0.87386E+01 SP= -.11E+02 SK= 0.92E-04
   3119 T=   535. E= -.22858158E+03 F= -.22671978E+03 E0= -.22671978E+03  EK= 0.87779E+01 SP= -.11E+02 SK= 0.81E-03
   3120 T=   537. E= -.22858099E+03 F= -.22672972E+03 E0= -.22672972E+03  EK= 0.88176E+01 SP= -.11E+02 SK= 0.42E-02
   3121 T=   540. E= -.22858042E+03 F= -.22672589E+03 E0= -.22672589E+03  EK= 0.88662E+01 SP= -.11E+02 SK= 0.10E-01
   3122 T=   544. E= -.22857995E+03 F= -.22671724E+03 E0= -.22671724E+03  EK= 0.89318E+01 SP= -.11E+02 SK= 0.18E-01
   3123 T=   550. E= -.22857961E+03 F= -.22671140E+03 E0= -.22671140E+03  EK= 0.90209E+01 SP= -.11E+02 SK= 0.27E-01
   3124 T=   557. E= -.22857949E+03 F= -.22671389E+03 E0= -.22671389E+03  EK= 0.91377E+01 SP= -.11E+02 SK= 0.36E-01
   3125 T=   565. E= -.22857957E+03 F= -.22672720E+03 E0= -.22672720E+03  EK= 0.92828E+01 SP= -.11E+02 SK= 0.45E-01
   3126 T=   576. E= -.22857988E+03 F= -.22675066E+03 E0= -.22675066E+03  EK= 0.94530E+01 SP= -.11E+02 SK= 0.53E-01
   3127 T=   587. E= -.22858039E+03 F= -.22678055E+03 E0= -.22678055E+03  EK= 0.96413E+01 SP= -.11E+02 SK= 0.58E-01
   3128 T=   599. E= -.22858105E+03 F= -.22681064E+03 E0= -.22681064E+03  EK= 0.98375E+01 SP= -.12E+02 SK= 0.59E-01
   3129 T=   611. E= -.22858178E+03 F= -.22683317E+03 E0= -.22683317E+03  EK= 0.10029E+02 SP= -.12E+02 SK= 0.57E-01
   3130 T=   622. E= -.22858249E+03 F= -.22684010E+03 E0= -.22684010E+03  EK= 0.10204E+02 SP= -.12E+02 SK= 0.53E-01
   3131 T=   630. E= -.22858307E+03 F= -.22682425E+03 E0= -.22682425E+03  EK= 0.10349E+02 SP= -.12E+02 SK= 0.45E-01
   3132 T=   637. E= -.22858347E+03 F= -.22678055E+03 E0= -.22678055E+03  EK= 0.10454E+02 SP= -.12E+02 SK= 0.37E-01
   3133 T=   641. E= -.22858367E+03 F= -.22670654E+03 E0= -.22670654E+03  EK= 0.10515E+02 SP= -.12E+02 SK= 0.29E-01
   3134 T=   641. E= -.22858367E+03 F= -.22660253E+03 E0= -.22660253E+03  EK= 0.10528E+02 SP= -.13E+02 SK= 0.21E-01
   3135 T=   639. E= -.22858349E+03 F= -.22647128E+03 E0= -.22647128E+03  EK= 0.10495E+02 SP= -.13E+02 SK= 0.14E-01
   3136 T=   635. E= -.22858320E+03 F= -.22631741E+03 E0= -.22631741E+03  EK= 0.10422E+02 SP= -.13E+02 SK= 0.95E-02
   3137 T=   628. E= -.22858286E+03 F= -.22614654E+03 E0= -.22614654E+03  EK= 0.10316E+02 SP= -.13E+02 SK= 0.61E-02
   3138 T=   620. E= -.22858252E+03 F= -.22596459E+03 E0= -.22596459E+03  EK= 0.10186E+02 SP= -.13E+02 SK= 0.40E-02
   3139 T=   612. E= -.22858227E+03 F= -.22577691E+03 E0= -.22577691E+03  EK= 0.10040E+02 SP= -.13E+02 SK= 0.28E-02
   3140 T=   602. E= -.22858212E+03 F= -.22558753E+03 E0= -.22558753E+03  EK= 0.98862E+01 SP= -.13E+02 SK= 0.23E-02
   3141 T=   593. E= -.22858210E+03 F= -.22539901E+03 E0= -.22539901E+03  EK= 0.97314E+01 SP= -.13E+02 SK= 0.24E-02
   3142 T=   584. E= -.22858212E+03 F= -.22521254E+03 E0= -.22521254E+03  EK= 0.95805E+01 SP= -.13E+02 SK= 0.30E-02
   3143 T=   575. E= -.22858212E+03 F= -.22502889E+03 E0= -.22502889E+03  EK= 0.94379E+01 SP= -.13E+02 SK= 0.44E-02
   3144 T=   567. E= -.22858204E+03 F= -.22484946E+03 E0= -.22484946E+03  EK= 0.93082E+01 SP= -.13E+02 SK= 0.69E-02
   3145 T=   560. E= -.22858180E+03 F= -.22467718E+03 E0= -.22467718E+03  EK= 0.91973E+01 SP= -.13E+02 SK= 0.11E-01
   3146 T=   555. E= -.22858139E+03 F= -.22451737E+03 E0= -.22451737E+03  EK= 0.91128E+01 SP= -.13E+02 SK= 0.16E-01
   3147 T=   552. E= -.22858082E+03 F= -.22437781E+03 E0= -.22437781E+03  EK= 0.90645E+01 SP= -.13E+02 SK= 0.24E-01
   3148 T=   552. E= -.22858015E+03 F= -.22426837E+03 E0= -.22426837E+03  EK= 0.90635E+01 SP= -.13E+02 SK= 0.33E-01
   3149 T=   556. E= -.22857950E+03 F= -.22419973E+03 E0= -.22419973E+03  EK= 0.91211E+01 SP= -.14E+02 SK= 0.43E-01
   3150 T=   563. E= -.22857902E+03 F= -.22418158E+03 E0= -.22418158E+03  EK= 0.92464E+01 SP= -.14E+02 SK= 0.54E-01
   3151 T=   575. E= -.22857886E+03 F= -.22422031E+03 E0= -.22422031E+03  EK= 0.94443E+01 SP= -.14E+02 SK= 0.62E-01
   3152 T=   592. E= -.22857916E+03 F= -.22431705E+03 E0= -.22431705E+03  EK= 0.97130E+01 SP= -.14E+02 SK= 0.67E-01
   3153 T=   612. E= -.22858003E+03 F= -.22446627E+03 E0= -.22446627E+03  EK= 0.10042E+02 SP= -.14E+02 SK= 0.66E-01
   3154 T=   634. E= -.22858142E+03 F= -.22465538E+03 E0= -.22465538E+03  EK= 0.10411E+02 SP= -.14E+02 SK= 0.59E-01
   3155 T=   657. E= -.22858324E+03 F= -.22486561E+03 E0= -.22486561E+03  EK= 0.10792E+02 SP= -.15E+02 SK= 0.47E-01
   3156 T=   679. E= -.22858525E+03 F= -.22507402E+03 E0= -.22507402E+03  EK= 0.11150E+02 SP= -.15E+02 SK= 0.31E-01
   3157 T=   698. E= -.22858710E+03 F= -.22525664E+03 E0= -.22525664E+03  EK= 0.11450E+02 SP= -.15E+02 SK= 0.15E-01
   3158 T=   710. E= -.22858847E+03 F= -.22539212E+03 E0= -.22539212E+03  EK= 0.11660E+02 SP= -.15E+02 SK= 0.36E-02
   3159 T=   716. E= -.22858907E+03 F= -.22546506E+03 E0= -.22546506E+03  EK= 0.11754E+02 SP= -.15E+02 SK= 0.49E-04
   3160 T=   714. E= -.22858885E+03 F= -.22546846E+03 E0= -.22546846E+03  EK= 0.11723E+02 SP= -.15E+02 SK= 0.57E-02
   3161 T=   705. E= -.22858789E+03 F= -.22540412E+03 E0= -.22540412E+03  EK= 0.11570E+02 SP= -.15E+02 SK= 0.20E-01
   3162 T=   689. E= -.22858636E+03 F= -.22528172E+03 E0= -.22528172E+03  EK= 0.11311E+02 SP= -.15E+02 SK= 0.39E-01
   3163 T=   668. E= -.22858459E+03 F= -.22511723E+03 E0= -.22511723E+03  EK= 0.10973E+02 SP= -.15E+02 SK= 0.60E-01
   3164 T=   645. E= -.22858280E+03 F= -.22493031E+03 E0= -.22493031E+03  EK= 0.10587E+02 SP= -.14E+02 SK= 0.78E-01
   3165 T=   621. E= -.22858117E+03 F= -.22474223E+03 E0= -.22474223E+03  EK= 0.10187E+02 SP= -.14E+02 SK= 0.90E-01
   3166 T=   597. E= -.22857984E+03 F= -.22457391E+03 E0= -.22457391E+03  EK= 0.98059E+01 SP= -.14E+02 SK= 0.93E-01
   3167 T=   577. E= -.22857891E+03 F= -.22444400E+03 E0= -.22444400E+03  EK= 0.94710E+01 SP= -.14E+02 SK= 0.89E-01
   3168 T=   561. E= -.22857841E+03 F= -.22436718E+03 E0= -.22436718E+03  EK= 0.92035E+01 SP= -.13E+02 SK= 0.78E-01
   3169 T=   549. E= -.22857837E+03 F= -.22435248E+03 E0= -.22435248E+03  EK= 0.90166E+01 SP= -.13E+02 SK= 0.65E-01
   3170 T=   543. E= -.22857876E+03 F= -.22440198E+03 E0= -.22440198E+03  EK= 0.89143E+01 SP= -.13E+02 SK= 0.50E-01
   3171 T=   542. E= -.22857952E+03 F= -.22451041E+03 E0= -.22451041E+03  EK= 0.88920E+01 SP= -.13E+02 SK= 0.36E-01
   3172 T=   544. E= -.22858052E+03 F= -.22466588E+03 E0= -.22466588E+03  EK= 0.89371E+01 SP= -.13E+02 SK= 0.25E-01
   3173 T=   550. E= -.22858165E+03 F= -.22485157E+03 E0= -.22485157E+03  EK= 0.90316E+01 SP= -.13E+02 SK= 0.16E-01
   3174 T=   558. E= -.22858272E+03 F= -.22504800E+03 E0= -.22504800E+03  EK= 0.91538E+01 SP= -.13E+02 SK= 0.10E-01
   3175 T=   565. E= -.22858358E+03 F= -.22523589E+03 E0= -.22523589E+03  EK= 0.92824E+01 SP= -.13E+02 SK= 0.62E-02
   3176 T=   573. E= -.22858413E+03 F= -.22539903E+03 E0= -.22539903E+03  EK= 0.93986E+01 SP= -.13E+02 SK= 0.38E-02
   3177 T=   578. E= -.22858430E+03 F= -.22552623E+03 E0= -.22552623E+03  EK= 0.94891E+01 SP= -.13E+02 SK= 0.23E-02
   3178 T=   582. E= -.22858413E+03 F= -.22561226E+03 E0= -.22561226E+03  EK= 0.95466E+01 SP= -.13E+02 SK= 0.14E-02
   3179 T=   583. E= -.22858371E+03 F= -.22565746E+03 E0= -.22565746E+03  EK= 0.95704E+01 SP= -.12E+02 SK= 0.76E-03
   3180 T=   583. E= -.22858314E+03 F= -.22566650E+03 E0= -.22566650E+03  EK= 0.95644E+01 SP= -.12E+02 SK= 0.34E-03
   3181 T=   581. E= -.22858253E+03 F= -.22564674E+03 E0= -.22564674E+03  EK= 0.95362E+01 SP= -.12E+02 SK= 0.72E-04
   3182 T=   578. E= -.22858197E+03 F= -.22560663E+03 E0= -.22560663E+03  EK= 0.94947E+01 SP= -.12E+02 SK= 0.71E-05
   3183 T=   576. E= -.22858149E+03 F= -.22555454E+03 E0= -.22555454E+03  EK= 0.94491E+01 SP= -.12E+02 SK= 0.24E-03
   3184 T=   573. E= -.22858112E+03 F= -.22549793E+03 E0= -.22549793E+03  EK= 0.94080E+01 SP= -.12E+02 SK= 0.89E-03
   3185 T=   571. E= -.22858089E+03 F= -.22544283E+03 E0= -.22544283E+03  EK= 0.93782E+01 SP= -.13E+02 SK= 0.21E-02
   3186 T=   570. E= -.22858081E+03 F= -.22539350E+03 E0= -.22539350E+03  EK= 0.93646E+01 SP= -.13E+02 SK= 0.38E-02
   3187 T=   571. E= -.22858082E+03 F= -.22535227E+03 E0= -.22535227E+03  EK= 0.93699E+01 SP= -.13E+02 SK= 0.62E-02
   3188 T=   572. E= -.22858093E+03 F= -.22531994E+03 E0= -.22531994E+03  EK= 0.93950E+01 SP= -.13E+02 SK= 0.89E-02
   3189 T=   575. E= -.22858113E+03 F= -.22529593E+03 E0= -.22529593E+03  EK= 0.94389E+01 SP= -.13E+02 SK= 0.12E-01
   3190 T=   579. E= -.22858140E+03 F= -.22527845E+03 E0= -.22527845E+03  EK= 0.94989E+01 SP= -.13E+02 SK= 0.15E-01
   3191 T=   583. E= -.22858174E+03 F= -.22526461E+03 E0= -.22526461E+03  EK= 0.95709E+01 SP= -.13E+02 SK= 0.18E-01
   3192 T=   588. E= -.22858216E+03 F= -.22525052E+03 E0= -.22525052E+03  EK= 0.96496E+01 SP= -.13E+02 SK= 0.20E-01
   3193 T=   593. E= -.22858261E+03 F= -.22523144E+03 E0= -.22523144E+03  EK= 0.97284E+01 SP= -.13E+02 SK= 0.21E-01
   3194 T=   597. E= -.22858306E+03 F= -.22520241E+03 E0= -.22520241E+03  EK= 0.98006E+01 SP= -.13E+02 SK= 0.22E-01
   3195 T=   601. E= -.22858342E+03 F= -.22515896E+03 E0= -.22515896E+03  EK= 0.98600E+01 SP= -.13E+02 SK= 0.22E-01
   3196 T=   603. E= -.22858361E+03 F= -.22509811E+03 E0= -.22509811E+03  EK= 0.99019E+01 SP= -.13E+02 SK= 0.21E-01
   3197 T=   605. E= -.22858358E+03 F= -.22501941E+03 E0= -.22501941E+03  EK= 0.99247E+01 SP= -.14E+02 SK= 0.20E-01
   3198 T=   605. E= -.22858333E+03 F= -.22492559E+03 E0= -.22492559E+03  EK= 0.99305E+01 SP= -.14E+02 SK= 0.19E-01
   3199 T=   605. E= -.22858290E+03 F= -.22482258E+03 E0= -.22482258E+03  EK= 0.99247E+01 SP= -.14E+02 SK= 0.18E-01
   3200 T=   604. E= -.22858235E+03 F= -.22471884E+03 E0= -.22471884E+03  EK= 0.99158E+01 SP= -.14E+02 SK= 0.18E-01
   3201 T=   604. E= -.22858178E+03 F= -.22462438E+03 E0= -.22462438E+03  EK= 0.99141E+01 SP= -.14E+02 SK= 0.17E-01
   3202 T=   605. E= -.22858126E+03 F= -.22454914E+03 E0= -.22454914E+03  EK= 0.99294E+01 SP= -.14E+02 SK= 0.16E-01
   3203 T=   607. E= -.22858094E+03 F= -.22450169E+03 E0= -.22450169E+03  EK= 0.99699E+01 SP= -.14E+02 SK= 0.15E-01
   3204 T=   612. E= -.22858087E+03 F= -.22448758E+03 E0= -.22448758E+03  EK= 0.10041E+02 SP= -.14E+02 SK= 0.14E-01
   3205 T=   618. E= -.22858107E+03 F= -.22450840E+03 E0= -.22450840E+03  EK= 0.10141E+02 SP= -.14E+02 SK= 0.11E-01
   3206 T=   625. E= -.22858156E+03 F= -.22456147E+03 E0= -.22456147E+03  EK= 0.10267E+02 SP= -.14E+02 SK= 0.89E-02
   3207 T=   634. E= -.22858225E+03 F= -.22464006E+03 E0= -.22464006E+03  EK= 0.10407E+02 SP= -.14E+02 SK= 0.58E-02
   3208 T=   643. E= -.22858304E+03 F= -.22473441E+03 E0= -.22473441E+03  EK= 0.10548E+02 SP= -.14E+02 SK= 0.28E-02
   3209 T=   650. E= -.22858381E+03 F= -.22483320E+03 E0= -.22483320E+03  EK= 0.10676E+02 SP= -.14E+02 SK= 0.64E-03
   3210 T=   656. E= -.22858443E+03 F= -.22492522E+03 E0= -.22492522E+03  EK= 0.10774E+02 SP= -.14E+02 SK= 0.45E-04
   3211 T=   660. E= -.22858477E+03 F= -.22500113E+03 E0= -.22500113E+03  EK= 0.10832E+02 SP= -.14E+02 SK= 0.17E-02
   3212 T=   660. E= -.22858481E+03 F= -.22505485E+03 E0= -.22505485E+03  EK= 0.10839E+02 SP= -.14E+02 SK= 0.60E-02
   3213 T=   658. E= -.22858452E+03 F= -.22508395E+03 E0= -.22508395E+03  EK= 0.10796E+02 SP= -.14E+02 SK= 0.13E-01
   3214 T=   652. E= -.22858397E+03 F= -.22508989E+03 E0= -.22508989E+03  EK= 0.10704E+02 SP= -.14E+02 SK= 0.21E-01
   3215 T=   644. E= -.22858323E+03 F= -.22507744E+03 E0= -.22507744E+03  EK= 0.10571E+02 SP= -.14E+02 SK= 0.30E-01
   3216 T=   634. E= -.22858243E+03 F= -.22505383E+03 E0= -.22505383E+03  EK= 0.10409E+02 SP= -.14E+02 SK= 0.39E-01
   3217 T=   623. E= -.22858165E+03 F= -.22502759E+03 E0= -.22502759E+03  EK= 0.10233E+02 SP= -.14E+02 SK= 0.46E-01
   3218 T=   612. E= -.22858098E+03 F= -.22500715E+03 E0= -.22500715E+03  EK= 0.10054E+02 SP= -.14E+02 SK= 0.51E-01
   3219 T=   602. E= -.22858050E+03 F= -.22499984E+03 E0= -.22499984E+03  EK= 0.98851E+01 SP= -.14E+02 SK= 0.54E-01
   3220 T=   593. E= -.22858023E+03 F= -.22501096E+03 E0= -.22501096E+03  EK= 0.97360E+01 SP= -.13E+02 SK= 0.53E-01
   3221 T=   586. E= -.22858015E+03 F= -.22504326E+03 E0= -.22504326E+03  EK= 0.96123E+01 SP= -.13E+02 SK= 0.50E-01
   3222 T=   580. E= -.22858027E+03 F= -.22509669E+03 E0= -.22509669E+03  EK= 0.95166E+01 SP= -.13E+02 SK= 0.46E-01
   3223 T=   576. E= -.22858054E+03 F= -.22516845E+03 E0= -.22516845E+03  EK= 0.94478E+01 SP= -.13E+02 SK= 0.41E-01
   3224 T=   573. E= -.22858091E+03 F= -.22525349E+03 E0= -.22525349E+03  EK= 0.94022E+01 SP= -.13E+02 SK= 0.35E-01
   3225 T=   571. E= -.22858130E+03 F= -.22534523E+03 E0= -.22534523E+03  EK= 0.93738E+01 SP= -.13E+02 SK= 0.30E-01
   3226 T=   570. E= -.22858166E+03 F= -.22543659E+03 E0= -.22543659E+03  EK= 0.93561E+01 SP= -.13E+02 SK= 0.24E-01
   3227 T=   569. E= -.22858188E+03 F= -.22552114E+03 E0= -.22552114E+03  EK= 0.93431E+01 SP= -.12E+02 SK= 0.19E-01
   3228 T=   568. E= -.22858195E+03 F= -.22559428E+03 E0= -.22559428E+03  EK= 0.93304E+01 SP= -.12E+02 SK= 0.15E-01
   3229 T=   568. E= -.22858185E+03 F= -.22565385E+03 E0= -.22565385E+03  EK= 0.93162E+01 SP= -.12E+02 SK= 0.11E-01
   3230 T=   567. E= -.22858161E+03 F= -.22570042E+03 E0= -.22570042E+03  EK= 0.93014E+01 SP= -.12E+02 SK= 0.71E-02
   3231 T=   566. E= -.22858128E+03 F= -.22573695E+03 E0= -.22573695E+03  EK= 0.92891E+01 SP= -.12E+02 SK= 0.42E-02
   3232 T=   566. E= -.22858099E+03 F= -.22576770E+03 E0= -.22576770E+03  EK= 0.92837E+01 SP= -.12E+02 SK= 0.21E-02
   3233 T=   566. E= -.22858081E+03 F= -.22579681E+03 E0= -.22579681E+03  EK= 0.92894E+01 SP= -.12E+02 SK= 0.69E-03
   3234 T=   567. E= -.22858080E+03 F= -.22582701E+03 E0= -.22582701E+03  EK= 0.93086E+01 SP= -.12E+02 SK= 0.51E-04
   3235 T=   569. E= -.22858098E+03 F= -.22585866E+03 E0= -.22585866E+03  EK= 0.93413E+01 SP= -.12E+02 SK= 0.12E-03
   3236 T=   572. E= -.22858135E+03 F= -.22588939E+03 E0= -.22588939E+03  EK= 0.93844E+01 SP= -.12E+02 SK= 0.76E-03
   3237 T=   575. E= -.22858181E+03 F= -.22591449E+03 E0= -.22591449E+03  EK= 0.94325E+01 SP= -.12E+02 SK= 0.18E-02
   3238 T=   577. E= -.22858226E+03 F= -.22592798E+03 E0= -.22592798E+03  EK= 0.94786E+01 SP= -.12E+02 SK= 0.31E-02
   3239 T=   580. E= -.22858256E+03 F= -.22592440E+03 E0= -.22592440E+03  EK= 0.95163E+01 SP= -.12E+02 SK= 0.46E-02
   3240 T=   581. E= -.22858266E+03 F= -.22590048E+03 E0= -.22590048E+03  EK= 0.95417E+01 SP= -.12E+02 SK= 0.61E-02
   3241 T=   582. E= -.22858253E+03 F= -.22585622E+03 E0= -.22585622E+03  EK= 0.95539E+01 SP= -.12E+02 SK= 0.78E-02
   3242 T=   582. E= -.22858219E+03 F= -.22579521E+03 E0= -.22579521E+03  EK= 0.95564E+01 SP= -.12E+02 SK= 0.96E-02
   3243 T=   582. E= -.22858172E+03 F= -.22572424E+03 E0= -.22572424E+03  EK= 0.95556E+01 SP= -.12E+02 SK= 0.12E-01
   3244 T=   582. E= -.22858125E+03 F= -.22565196E+03 E0= -.22565196E+03  EK= 0.95602E+01 SP= -.13E+02 SK= 0.14E-01
   3245 T=   583. E= -.22858088E+03 F= -.22558703E+03 E0= -.22558703E+03  EK= 0.95785E+01 SP= -.13E+02 SK= 0.16E-01
   3246 T=   586. E= -.22858070E+03 F= -.22553640E+03 E0= -.22553640E+03  EK= 0.96173E+01 SP= -.13E+02 SK= 0.18E-01
   3247 T=   590. E= -.22858082E+03 F= -.22550382E+03 E0= -.22550382E+03  EK= 0.96794E+01 SP= -.13E+02 SK= 0.20E-01
   3248 T=   595. E= -.22858120E+03 F= -.22548879E+03 E0= -.22548879E+03  EK= 0.97631E+01 SP= -.13E+02 SK= 0.21E-01
   3249 T=   601. E= -.22858179E+03 F= -.22548691E+03 E0= -.22548691E+03  EK= 0.98624E+01 SP= -.13E+02 SK= 0.21E-01
   3250 T=   607. E= -.22858245E+03 F= -.22549107E+03 E0= -.22549107E+03  EK= 0.99680E+01 SP= -.13E+02 SK= 0.21E-01
   3251 T=   613. E= -.22858305E+03 F= -.22549338E+03 E0= -.22549338E+03  EK= 0.10069E+02 SP= -.13E+02 SK= 0.19E-01
   3252 T=   619. E= -.22858344E+03 F= -.22548719E+03 E0= -.22548719E+03  EK= 0.10157E+02 SP= -.13E+02 SK= 0.16E-01
   3253 T=   623. E= -.22858357E+03 F= -.22546885E+03 E0= -.22546885E+03  EK= 0.10226E+02 SP= -.13E+02 SK= 0.13E-01
   3254 T=   626. E= -.22858353E+03 F= -.22543806E+03 E0= -.22543806E+03  EK= 0.10272E+02 SP= -.13E+02 SK= 0.97E-02
 bond charge predicted
       N       E                     dE             d eps       ncg     rms          rms(c)
DAV:   1    -0.224033587620E+03   -0.54493E+00   -0.19438E+03   264   0.646E+01
DAV:   2    -0.235586416380E+03   -0.11553E+02   -0.11381E+02   360   0.160E+01
DAV:   3    -0.235855876767E+03   -0.26946E+00   -0.26869E+00   348   0.266E+00
DAV:   4    -0.235862414986E+03   -0.65382E-02   -0.65350E-02   336   0.417E-01
DAV:   5    -0.235862663261E+03   -0.24828E-03   -0.24823E-03   348   0.846E-02    0.814E+00
RMM:   6    -0.228412402899E+03    0.74503E+01   -0.12840E+01   264   0.249E+00    0.483E+00
RMM:   7    -0.225776032729E+03    0.26364E+01   -0.23642E+00   264   0.177E+00    0.264E+00
RMM:   8    -0.225328743395E+03    0.44729E+00   -0.10898E+00   264   0.108E+00    0.135E+00
RMM:   9    -0.225298608684E+03    0.30135E-01   -0.39661E-01   264   0.712E-01    0.691E-01
RMM:  10    -0.225299266849E+03   -0.65817E-03   -0.85531E-02   269   0.416E-01    0.432E-01
RMM:  11    -0.225296794578E+03    0.24723E-02   -0.25033E-02   266   0.232E-01    0.206E-01
RMM:  12    -0.225297182003E+03   -0.38742E-03   -0.74509E-03   270   0.137E-01    0.771E-02
RMM:  13    -0.225297270946E+03   -0.88943E-04   -0.19241E-03   270   0.687E-02    0.443E-02
RMM:  14    -0.225297212377E+03    0.58569E-04   -0.48884E-04   243   0.373E-02
   3255 T=   627. E= -.22848176E+03 F= -.22529721E+03 E0= -.22528175E+03  EK= 0.10299E+02 SP= -.13E+02 SK= 0.68E-02
   3256 T=   628. E= -.22857941E+03 F= -.22535151E+03 E0= -.22535151E+03  EK= 0.10310E+02 SP= -.14E+02 SK= 0.43E-02
   3257 T=   628. E= -.22857919E+03 F= -.22530393E+03 E0= -.22530393E+03  EK= 0.10304E+02 SP= -.14E+02 SK= 0.23E-02
   3258 T=   627. E= -.22857905E+03 F= -.22525841E+03 E0= -.22525841E+03  EK= 0.10288E+02 SP= -.14E+02 SK= 0.10E-02
   3259 T=   625. E= -.22857905E+03 F= -.22521752E+03 E0= -.22521752E+03  EK= 0.10264E+02 SP= -.14E+02 SK= 0.25E-03
   3260 T=   623. E= -.22857919E+03 F= -.22518156E+03 E0= -.22518156E+03  EK= 0.10234E+02 SP= -.14E+02 SK= 0.81E-06
   3261 T=   621. E= -.22857944E+03 F= -.22514868E+03 E0= -.22514868E+03  EK= 0.10197E+02 SP= -.14E+02 SK= 0.17E-03
   3262 T=   618. E= -.22857966E+03 F= -.22511550E+03 E0= -.22511550E+03  EK= 0.10150E+02 SP= -.14E+02 SK= 0.63E-03
   3263 T=   615. E= -.22857984E+03 F= -.22507850E+03 E0= -.22507850E+03  EK= 0.10091E+02 SP= -.14E+02 SK= 0.13E-02
   3264 T=   610. E= -.22857989E+03 F= -.22503493E+03 E0= -.22503493E+03  EK= 0.10019E+02 SP= -.14E+02 SK= 0.19E-02
   3265 T=   605. E= -.22857979E+03 F= -.22498384E+03 E0= -.22498384E+03  EK= 0.99349E+01 SP= -.14E+02 SK= 0.24E-02
   3266 T=   600. E= -.22857950E+03 F= -.22492660E+03 E0= -.22492660E+03  EK= 0.98429E+01 SP= -.13E+02 SK= 0.26E-02
   3267 T=   594. E= -.22857897E+03 F= -.22486761E+03 E0= -.22486761E+03  EK= 0.97493E+01 SP= -.13E+02 SK= 0.25E-02
   3268 T=   589. E= -.22857826E+03 F= -.22481476E+03 E0= -.22481476E+03  EK= 0.96643E+01 SP= -.13E+02 SK= 0.21E-02
   3269 T=   585. E= -.22857751E+03 F= -.22477862E+03 E0= -.22477862E+03  EK= 0.96002E+01 SP= -.13E+02 SK= 0.15E-02
   3270 T=   583. E= -.22857692E+03 F= -.22477019E+03 E0= -.22477019E+03  EK= 0.95693E+01 SP= -.13E+02 SK= 0.87E-03
   3271 T=   584. E= -.22857666E+03 F= -.22479795E+03 E0= -.22479795E+03  EK= 0.95804E+01 SP= -.13E+02 SK= 0.41E-03
   3272 T=   587. E= -.22857680E+03 F= -.22486540E+03 E0= -.22486540E+03  EK= 0.96367E+01 SP= -.13E+02 SK= 0.15E-03
   3273 T=   593. E= -.22857734E+03 F= -.22496991E+03 E0= -.22496991E+03  EK= 0.97343E+01 SP= -.13E+02 SK= 0.46E-04
   3274 T=   601. E= -.22857818E+03 F= -.22510276E+03 E0= -.22510276E+03  EK= 0.98620E+01 SP= -.13E+02 SK= 0.30E-04
   3275 T=   609. E= -.22857915E+03 F= -.22525051E+03 E0= -.22525051E+03  EK= 0.10004E+02 SP= -.13E+02 SK= 0.84E-04
   3276 T=   618. E= -.22858010E+03 F= -.22539769E+03 E0= -.22539769E+03  EK= 0.10140E+02 SP= -.13E+02 SK= 0.32E-03
   3277 T=   625. E= -.22858089E+03 F= -.22552913E+03 E0= -.22552913E+03  EK= 0.10253E+02 SP= -.13E+02 SK= 0.97E-03
   3278 T=   629. E= -.22858144E+03 F= -.22563178E+03 E0= -.22563178E+03  EK= 0.10326E+02 SP= -.13E+02 SK= 0.23E-02
   3279 T=   630. E= -.22858176E+03 F= -.22569584E+03 E0= -.22569584E+03  EK= 0.10348E+02 SP= -.13E+02 SK= 0.44E-02
   3280 T=   628. E= -.22858183E+03 F= -.22571493E+03 E0= -.22571493E+03  EK= 0.10312E+02 SP= -.13E+02 SK= 0.71E-02
   3281 T=   622. E= -.22858163E+03 F= -.22568619E+03 E0= -.22568619E+03  EK= 0.10217E+02 SP= -.13E+02 SK= 0.10E-01
   3282 T=   613. E= -.22858116E+03 F= -.22561071E+03 E0= -.22561071E+03  EK= 0.10065E+02 SP= -.13E+02 SK= 0.12E-01
   3283 T=   601. E= -.22858049E+03 F= -.22549374E+03 E0= -.22549374E+03  EK= 0.98685E+01 SP= -.13E+02 SK= 0.14E-01
   3284 T=   587. E= -.22857962E+03 F= -.22534443E+03 E0= -.22534443E+03  EK= 0.96403E+01 SP= -.13E+02 SK= 0.13E-01
   3285 T=   573. E= -.22857861E+03 F= -.22517556E+03 E0= -.22517556E+03  EK= 0.93991E+01 SP= -.13E+02 SK= 0.11E-01
   3286 T=   558. E= -.22857752E+03 F= -.22500310E+03 E0= -.22500310E+03  EK= 0.91663E+01 SP= -.13E+02 SK= 0.70E-02
   3287 T=   546. E= -.22857648E+03 F= -.22484503E+03 E0= -.22484503E+03  EK= 0.89644E+01 SP= -.13E+02 SK= 0.32E-02
   3288 T=   537. E= -.22857560E+03 F= -.22471900E+03 E0= -.22471900E+03  EK= 0.88145E+01 SP= -.13E+02 SK= 0.50E-03
   3289 T=   532. E= -.22857497E+03 F= -.22464013E+03 E0= -.22464013E+03  EK= 0.87341E+01 SP= -.13E+02 SK= 0.24E-03
   3290 T=   532. E= -.22857466E+03 F= -.22461905E+03 E0= -.22461905E+03  EK= 0.87351E+01 SP= -.13E+02 SK= 0.30E-02
   3291 T=   537. E= -.22857472E+03 F= -.22466039E+03 E0= -.22466039E+03  EK= 0.88222E+01 SP= -.13E+02 SK= 0.86E-02
   3292 T=   548. E= -.22857516E+03 F= -.22476209E+03 E0= -.22476209E+03  EK= 0.89924E+01 SP= -.13E+02 SK= 0.16E-01
   3293 T=   563. E= -.22857593E+03 F= -.22491567E+03 E0= -.22491567E+03  EK= 0.92348E+01 SP= -.13E+02 SK= 0.23E-01
   3294 T=   581. E= -.22857697E+03 F= -.22510743E+03 E0= -.22510743E+03  EK= 0.95317E+01 SP= -.13E+02 SK= 0.28E-01
   3295 T=   601. E= -.22857812E+03 F= -.22532041E+03 E0= -.22532041E+03  EK= 0.98606E+01 SP= -.13E+02 SK= 0.30E-01
   3296 T=   621. E= -.22857930E+03 F= -.22553698E+03 E0= -.22553698E+03  EK= 0.10196E+02 SP= -.13E+02 SK= 0.27E-01
   3297 T=   640. E= -.22858042E+03 F= -.22574050E+03 E0= -.22574050E+03  EK= 0.10513E+02 SP= -.13E+02 SK= 0.22E-01
   3298 T=   657. E= -.22858140E+03 F= -.22591657E+03 E0= -.22591657E+03  EK= 0.10788E+02 SP= -.13E+02 SK= 0.14E-01
   3299 T=   670. E= -.22858217E+03 F= -.22605361E+03 E0= -.22605361E+03  EK= 0.11001E+02 SP= -.14E+02 SK= 0.62E-02
   3300 T=   678. E= -.22858266E+03 F= -.22614317E+03 E0= -.22614317E+03  EK= 0.11134E+02 SP= -.14E+02 SK= 0.12E-02
   3301 T=   681. E= -.22858281E+03 F= -.22618012E+03 E0= -.22618012E+03  EK= 0.11180E+02 SP= -.14E+02 SK= 0.17E-03
   3302 T=   678. E= -.22858253E+03 F= -.22616299E+03 E0= -.22616299E+03  EK= 0.11133E+02 SP= -.14E+02 SK= 0.37E-02
   3303 T=   670. E= -.22858189E+03 F= -.22609443E+03 E0= -.22609443E+03  EK= 0.11000E+02 SP= -.13E+02 SK= 0.11E-01
   3304 T=   657. E= -.22858093E+03 F= -.22598121E+03 E0= -.22598121E+03  EK= 0.10792E+02 SP= -.13E+02 SK= 0.21E-01
   3305 T=   641. E= -.22857978E+03 F= -.22583383E+03 E0= -.22583383E+03  EK= 0.10526E+02 SP= -.13E+02 SK= 0.30E-01
   3306 T=   623. E= -.22857852E+03 F= -.22566575E+03 E0= -.22566575E+03  EK= 0.10224E+02 SP= -.13E+02 SK= 0.37E-01
   3307 T=   604. E= -.22857731E+03 F= -.22549262E+03 E0= -.22549262E+03  EK= 0.99120E+01 SP= -.13E+02 SK= 0.40E-01
   3308 T=   586. E= -.22857624E+03 F= -.22533073E+03 E0= -.22533073E+03  EK= 0.96130E+01 SP= -.13E+02 SK= 0.39E-01
   3309 T=   570. E= -.22857545E+03 F= -.22519550E+03 E0= -.22519550E+03  EK= 0.93494E+01 SP= -.13E+02 SK= 0.35E-01
   3310 T=   557. E= -.22857497E+03 F= -.22509943E+03 E0= -.22509943E+03  EK= 0.91391E+01 SP= -.13E+02 SK= 0.27E-01
   3311 T=   548. E= -.22857485E+03 F= -.22505084E+03 E0= -.22505084E+03  EK= 0.89937E+01 SP= -.13E+02 SK= 0.19E-01
   3312 T=   543. E= -.22857509E+03 F= -.22505266E+03 E0= -.22505266E+03  EK= 0.89184E+01 SP= -.12E+02 SK= 0.11E-01
   3313 T=   543. E= -.22857559E+03 F= -.22510209E+03 E0= -.22510209E+03  EK= 0.89110E+01 SP= -.12E+02 SK= 0.53E-02
   3314 T=   546. E= -.22857630E+03 F= -.22519140E+03 E0= -.22519140E+03  EK= 0.89637E+01 SP= -.12E+02 SK= 0.17E-02
   3315 T=   552. E= -.22857710E+03 F= -.22530918E+03 E0= -.22530918E+03  EK= 0.90640E+01 SP= -.12E+02 SK= 0.13E-03
   3316 T=   560. E= -.22857792E+03 F= -.22544198E+03 E0= -.22544198E+03  EK= 0.91966E+01 SP= -.12E+02 SK= 0.18E-03
   3317 T=   569. E= -.22857865E+03 F= -.22557588E+03 E0= -.22557588E+03  EK= 0.93452E+01 SP= -.12E+02 SK= 0.11E-02
   3318 T=   578. E= -.22857921E+03 F= -.22569838E+03 E0= -.22569838E+03  EK= 0.94943E+01 SP= -.12E+02 SK= 0.23E-02
   3319 T=   587. E= -.22857958E+03 F= -.22579973E+03 E0= -.22579973E+03  EK= 0.96309E+01 SP= -.12E+02 SK= 0.33E-02
   3320 T=   594. E= -.22857973E+03 F= -.22587363E+03 E0= -.22587363E+03  EK= 0.97457E+01 SP= -.12E+02 SK= 0.39E-02
   3321 T=   599. E= -.22857969E+03 F= -.22591731E+03 E0= -.22591731E+03  EK= 0.98331E+01 SP= -.12E+02 SK= 0.40E-02
   3322 T=   603. E= -.22857951E+03 F= -.22593121E+03 E0= -.22593121E+03  EK= 0.98911E+01 SP= -.13E+02 SK= 0.39E-02
   3323 T=   604. E= -.22857921E+03 F= -.22591818E+03 E0= -.22591818E+03  EK= 0.99211E+01 SP= -.13E+02 SK= 0.35E-02
   3324 T=   605. E= -.22857888E+03 F= -.22588298E+03 E0= -.22588298E+03  EK= 0.99268E+01 SP= -.13E+02 SK= 0.31E-02
   3325 T=   604. E= -.22857856E+03 F= -.22583114E+03 E0= -.22583114E+03  EK= 0.99135E+01 SP= -.13E+02 SK= 0.28E-02
   3326 T=   602. E= -.22857825E+03 F= -.22576828E+03 E0= -.22576828E+03  EK= 0.98870E+01 SP= -.13E+02 SK= 0.25E-02
   3327 T=   600. E= -.22857797E+03 F= -.22569990E+03 E0= -.22569990E+03  EK= 0.98535E+01 SP= -.13E+02 SK= 0.24E-02
   3328 T=   598. E= -.22857781E+03 F= -.22563087E+03 E0= -.22563087E+03  EK= 0.98186E+01 SP= -.13E+02 SK= 0.24E-02
   3329 T=   596. E= -.22857774E+03 F= -.22556474E+03 E0= -.22556474E+03  EK= 0.97867E+01 SP= -.13E+02 SK= 0.25E-02
   3330 T=   595. E= -.22857773E+03 F= -.22550375E+03 E0= -.22550375E+03  EK= 0.97608E+01 SP= -.13E+02 SK= 0.27E-02
   3331 T=   593. E= -.22857778E+03 F= -.22544914E+03 E0= -.22544914E+03  EK= 0.97429E+01 SP= -.13E+02 SK= 0.30E-02
   3332 T=   593. E= -.22857787E+03 F= -.22540141E+03 E0= -.22540141E+03  EK= 0.97339E+01 SP= -.13E+02 SK= 0.34E-02
   3333 T=   593. E= -.22857795E+03 F= -.22536063E+03 E0= -.22536063E+03  EK= 0.97342E+01 SP= -.13E+02 SK= 0.38E-02
   3334 T=   594. E= -.22857802E+03 F= -.22532686E+03 E0= -.22532686E+03  EK= 0.97439E+01 SP= -.13E+02 SK= 0.42E-02
   3335 T=   595. E= -.22857808E+03 F= -.22530027E+03 E0= -.22530027E+03  EK= 0.97629E+01 SP= -.13E+02 SK= 0.45E-02
   3336 T=   596. E= -.22857809E+03 F= -.22528129E+03 E0= -.22528129E+03  EK= 0.97914E+01 SP= -.13E+02 SK= 0.48E-02
   3337 T=   599. E= -.22857810E+03 F= -.22527067E+03 E0= -.22527067E+03  EK= 0.98293E+01 SP= -.13E+02 SK= 0.49E-02
   3338 T=   602. E= -.22857810E+03 F= -.22526932E+03 E0= -.22526932E+03  EK= 0.98767E+01 SP= -.13E+02 SK= 0.48E-02
   3339 T=   605. E= -.22857810E+03 F= -.22527815E+03 E0= -.22527815E+03  EK= 0.99333E+01 SP= -.13E+02 SK= 0.45E-02
   3340 T=   609. E= -.22857808E+03 F= -.22529811E+03 E0= -.22529811E+03  EK= 0.99988E+01 SP= -.13E+02 SK= 0.38E-02
   3341 T=   614. E= -.22857810E+03 F= -.22532999E+03 E0= -.22532999E+03  EK= 0.10072E+02 SP= -.13E+02 SK= 0.30E-02
   3342 T=   618. E= -.22857817E+03 F= -.22537406E+03 E0= -.22537406E+03  EK= 0.10152E+02 SP= -.13E+02 SK= 0.20E-02
   3343 T=   623. E= -.22857832E+03 F= -.22542978E+03 E0= -.22542978E+03  EK= 0.10235E+02 SP= -.13E+02 SK= 0.10E-02
   3344 T=   629. E= -.22857855E+03 F= -.22549535E+03 E0= -.22549535E+03  EK= 0.10318E+02 SP= -.13E+02 SK= 0.26E-03
   3345 T=   633. E= -.22857885E+03 F= -.22556754E+03 E0= -.22556754E+03  EK= 0.10395E+02 SP= -.13E+02 SK= 0.74E-05
   3346 T=   637. E= -.22857921E+03 F= -.22564196E+03 E0= -.22564196E+03  EK= 0.10459E+02 SP= -.13E+02 SK= 0.58E-03
   3347 T=   640. E= -.22857958E+03 F= -.22571318E+03 E0= -.22571318E+03  EK= 0.10503E+02 SP= -.13E+02 SK= 0.22E-02
   3348 T=   641. E= -.22857989E+03 F= -.22577524E+03 E0= -.22577524E+03  EK= 0.10521E+02 SP= -.13E+02 SK= 0.51E-02
   3349 T=   640. E= -.22858011E+03 F= -.22582250E+03 E0= -.22582250E+03  EK= 0.10505E+02 SP= -.13E+02 SK= 0.92E-02
   3350 T=   637. E= -.22858017E+03 F= -.22585043E+03 E0= -.22585043E+03  EK= 0.10453E+02 SP= -.13E+02 SK= 0.14E-01
   3351 T=   631. E= -.22858002E+03 F= -.22585642E+03 E0= -.22585642E+03  EK= 0.10363E+02 SP= -.13E+02 SK= 0.20E-01
   3352 T=   624. E= -.22857965E+03 F= -.22584064E+03 E0= -.22584064E+03  EK= 0.10239E+02 SP= -.13E+02 SK= 0.25E-01
   3353 T=   614. E= -.22857911E+03 F= -.22580626E+03 E0= -.22580626E+03  EK= 0.10088E+02 SP= -.13E+02 SK= 0.29E-01
   3354 T=   604. E= -.22857847E+03 F= -.22575906E+03 E0= -.22575906E+03  EK= 0.99190E+01 SP= -.13E+02 SK= 0.31E-01
   3355 T=   594. E= -.22857780E+03 F= -.22570671E+03 E0= -.22570671E+03  EK= 0.97450E+01 SP= -.13E+02 SK= 0.31E-01
   3356 T=   583. E= -.22857720E+03 F= -.22565775E+03 E0= -.22565775E+03  EK= 0.95786E+01 SP= -.13E+02 SK= 0.29E-01
   3357 T=   575. E= -.22857676E+03 F= -.22562013E+03 E0= -.22562013E+03  EK= 0.94313E+01 SP= -.12E+02 SK= 0.25E-01
   3358 T=   567. E= -.22857658E+03 F= -.22559961E+03 E0= -.22559961E+03  EK= 0.93118E+01 SP= -.12E+02 SK= 0.20E-01
   3359 T=   562. E= -.22857663E+03 F= -.22559847E+03 E0= -.22559847E+03  EK= 0.92245E+01 SP= -.12E+02 SK= 0.15E-01
   3360 T=   559. E= -.22857691E+03 F= -.22561529E+03 E0= -.22561529E+03  EK= 0.91696E+01 SP= -.12E+02 SK= 0.97E-02
   3361 T=   557. E= -.22857735E+03 F= -.22564509E+03 E0= -.22564509E+03  EK= 0.91429E+01 SP= -.12E+02 SK= 0.55E-02
   3362 T=   557. E= -.22857786E+03 F= -.22568034E+03 E0= -.22568034E+03  EK= 0.91376E+01 SP= -.12E+02 SK= 0.25E-02
   3363 T=   557. E= -.22857830E+03 F= -.22571248E+03 E0= -.22571248E+03  EK= 0.91450E+01 SP= -.12E+02 SK= 0.63E-03
   3364 T=   558. E= -.22857856E+03 F= -.22573397E+03 E0= -.22573397E+03  EK= 0.91577E+01 SP= -.12E+02 SK= 0.11E-05
   3365 T=   559. E= -.22857861E+03 F= -.22573996E+03 E0= -.22573996E+03  EK= 0.91707E+01 SP= -.12E+02 SK= 0.51E-03
   3366 T=   559. E= -.22857851E+03 F= -.22572876E+03 E0= -.22572876E+03  EK= 0.91818E+01 SP= -.12E+02 SK= 0.21E-02
   3367 T=   560. E= -.22857832E+03 F= -.22570141E+03 E0= -.22570141E+03  EK= 0.91919E+01 SP= -.12E+02 SK= 0.47E-02
   3368 T=   561. E= -.22857809E+03 F= -.22566076E+03 E0= -.22566076E+03  EK= 0.92036E+01 SP= -.12E+02 SK= 0.83E-02
   3369 T=   562. E= -.22857785E+03 F= -.22561058E+03 E0= -.22561058E+03  EK= 0.92203E+01 SP= -.12E+02 SK= 0.13E-01
   3370 T=   563. E= -.22857761E+03 F= -.22555503E+03 E0= -.22555503E+03  EK= 0.92460E+01 SP= -.12E+02 SK= 0.18E-01
   3371 T=   566. E= -.22857740E+03 F= -.22549828E+03 E0= -.22549828E+03  EK= 0.92844E+01 SP= -.12E+02 SK= 0.24E-01
   3372 T=   569. E= -.22857722E+03 F= -.22544425E+03 E0= -.22544425E+03  EK= 0.93387E+01 SP= -.13E+02 SK= 0.30E-01
   3373 T=   573. E= -.22857706E+03 F= -.22539649E+03 E0= -.22539649E+03  EK= 0.94116E+01 SP= -.13E+02 SK= 0.36E-01
   3374 T=   579. E= -.22857696E+03 F= -.22535803E+03 E0= -.22535803E+03  EK= 0.95047E+01 SP= -.13E+02 SK= 0.41E-01
   3375 T=   586. E= -.22857693E+03 F= -.22533104E+03 E0= -.22533104E+03  EK= 0.96184E+01 SP= -.13E+02 SK= 0.45E-01
   3376 T=   594. E= -.22857703E+03 F= -.22531662E+03 E0= -.22531662E+03  EK= 0.97516E+01 SP= -.13E+02 SK= 0.47E-01
   3377 T=   603. E= -.22857728E+03 F= -.22531425E+03 E0= -.22531425E+03  EK= 0.99008E+01 SP= -.13E+02 SK= 0.48E-01
   3378 T=   613. E= -.22857768E+03 F= -.22532157E+03 E0= -.22532157E+03  EK= 0.10060E+02 SP= -.13E+02 SK= 0.45E-01
   3379 T=   623. E= -.22857822E+03 F= -.22533435E+03 E0= -.22533435E+03  EK= 0.10222E+02 SP= -.14E+02 SK= 0.41E-01
   3380 T=   632. E= -.22857887E+03 F= -.22534670E+03 E0= -.22534670E+03  EK= 0.10375E+02 SP= -.14E+02 SK= 0.34E-01
   3381 T=   640. E= -.22857956E+03 F= -.22535168E+03 E0= -.22535168E+03  EK= 0.10508E+02 SP= -.14E+02 SK= 0.27E-01
   3382 T=   646. E= -.22858019E+03 F= -.22534215E+03 E0= -.22534215E+03  EK= 0.10610E+02 SP= -.14E+02 SK= 0.19E-01
   3383 T=   650. E= -.22858066E+03 F= -.22531185E+03 E0= -.22531185E+03  EK= 0.10672E+02 SP= -.14E+02 SK= 0.12E-01
   3384 T=   651. E= -.22858090E+03 F= -.22525659E+03 E0= -.22525659E+03  EK= 0.10687E+02 SP= -.14E+02 SK= 0.60E-02
   3385 T=   649. E= -.22858087E+03 F= -.22517506E+03 E0= -.22517506E+03  EK= 0.10653E+02 SP= -.14E+02 SK= 0.23E-02
   3386 T=   644. E= -.22858054E+03 F= -.22506925E+03 E0= -.22506925E+03  EK= 0.10573E+02 SP= -.14E+02 SK= 0.38E-03
   3387 T=   637. E= -.22858001E+03 F= -.22494461E+03 E0= -.22494461E+03  EK= 0.10455E+02 SP= -.14E+02 SK= 0.24E-04
   3388 T=   628. E= -.22857932E+03 F= -.22480931E+03 E0= -.22480931E+03  EK= 0.10309E+02 SP= -.14E+02 SK= 0.60E-03
   3389 T=   618. E= -.22857863E+03 F= -.22467316E+03 E0= -.22467316E+03  EK= 0.10151E+02 SP= -.14E+02 SK= 0.15E-02
   3390 T=   609. E= -.22857804E+03 F= -.22454605E+03 E0= -.22454605E+03  EK= 0.99934E+01 SP= -.14E+02 SK= 0.22E-02
   3391 T=   600. E= -.22857761E+03 F= -.22443659E+03 E0= -.22443659E+03  EK= 0.98500E+01 SP= -.14E+02 SK= 0.25E-02
   3392 T=   593. E= -.22857738E+03 F= -.22435119E+03 E0= -.22435119E+03  EK= 0.97303E+01 SP= -.14E+02 SK= 0.24E-02
   3393 T=   587. E= -.22857734E+03 F= -.22429342E+03 E0= -.22429342E+03  EK= 0.96409E+01 SP= -.14E+02 SK= 0.19E-02
   3394 T=   584. E= -.22857744E+03 F= -.22426403E+03 E0= -.22426403E+03  EK= 0.95844E+01 SP= -.14E+02 SK= 0.13E-02
   3395 T=   582. E= -.22857764E+03 F= -.22426144E+03 E0= -.22426144E+03  EK= 0.95606E+01 SP= -.14E+02 SK= 0.69E-03
   3396 T=   583. E= -.22857789E+03 F= -.22428259E+03 E0= -.22428259E+03  EK= 0.95670E+01 SP= -.14E+02 SK= 0.28E-03
   3397 T=   585. E= -.22857812E+03 F= -.22432362E+03 E0= -.22432362E+03  EK= 0.95995E+01 SP= -.14E+02 SK= 0.60E-04
   3398 T=   588. E= -.22857834E+03 F= -.22438063E+03 E0= -.22438063E+03  EK= 0.96535E+01 SP= -.14E+02 SK= 0.20E-06
   3399 T=   592. E= -.22857852E+03 F= -.22444995E+03 E0= -.22444995E+03  EK= 0.97240E+01 SP= -.14E+02 SK= 0.22E-04
   3400 T=   597. E= -.22857874E+03 F= -.22452817E+03 E0= -.22452817E+03  EK= 0.98061E+01 SP= -.14E+02 SK= 0.49E-04
   3401 T=   603. E= -.22857900E+03 F= -.22461171E+03 E0= -.22461171E+03  EK= 0.98940E+01 SP= -.14E+02 SK= 0.40E-04
   3402 T=   608. E= -.22857926E+03 F= -.22469667E+03 E0= -.22469667E+03  EK= 0.99818E+01 SP= -.14E+02 SK= 0.60E-05
   3403 T=   613. E= -.22857953E+03 F= -.22477902E+03 E0= -.22477902E+03  EK= 0.10063E+02 SP= -.14E+02 SK= 0.20E-04
   3404 T=   617. E= -.22857977E+03 F= -.22485484E+03 E0= -.22485484E+03  EK= 0.10132E+02 SP= -.14E+02 SK= 0.20E-03
   3405 T=   620. E= -.22857996E+03 F= -.22492061E+03 E0= -.22492061E+03  EK= 0.10183E+02 SP= -.14E+02 SK= 0.67E-03
   3406 T=   622. E= -.22858005E+03 F= -.22497357E+03 E0= -.22497357E+03  EK= 0.10213E+02 SP= -.14E+02 SK= 0.15E-02
   3407 T=   622. E= -.22858006E+03 F= -.22501214E+03 E0= -.22501214E+03  EK= 0.10218E+02 SP= -.14E+02 SK= 0.28E-02
   3408 T=   621. E= -.22857994E+03 F= -.22503604E+03 E0= -.22503604E+03  EK= 0.10199E+02 SP= -.14E+02 SK= 0.44E-02
   3409 T=   619. E= -.22857972E+03 F= -.22504647E+03 E0= -.22504647E+03  EK= 0.10157E+02 SP= -.14E+02 SK= 0.62E-02
   3410 T=   615. E= -.22857942E+03 F= -.22504608E+03 E0= -.22504608E+03  EK= 0.10096E+02 SP= -.14E+02 SK= 0.80E-02
   3411 T=   611. E= -.22857906E+03 F= -.22503864E+03 E0= -.22503864E+03  EK= 0.10022E+02 SP= -.14E+02 SK= 0.96E-02
   3412 T=   606. E= -.22857869E+03 F= -.22502880E+03 E0= -.22502880E+03  EK= 0.99418E+01 SP= -.14E+02 SK= 0.11E-01
   3413 T=   601. E= -.22857831E+03 F= -.22502159E+03 E0= -.22502159E+03  EK= 0.98616E+01 SP= -.13E+02 SK= 0.11E-01
   3414 T=   596. E= -.22857796E+03 F= -.22502217E+03 E0= -.22502217E+03  EK= 0.97890E+01 SP= -.13E+02 SK= 0.11E-01
   3415 T=   593. E= -.22857764E+03 F= -.22503536E+03 E0= -.22503536E+03  EK= 0.97303E+01 SP= -.13E+02 SK= 0.11E-01
   3416 T=   590. E= -.22857741E+03 F= -.22506546E+03 E0= -.22506546E+03  EK= 0.96913E+01 SP= -.13E+02 SK= 0.97E-02
   3417 T=   589. E= -.22857726E+03 F= -.22511563E+03 E0= -.22511563E+03  EK= 0.96758E+01 SP= -.13E+02 SK= 0.87E-02
   3418 T=   590. E= -.22857720E+03 F= -.22518755E+03 E0= -.22518755E+03  EK= 0.96857E+01 SP= -.13E+02 SK= 0.77E-02
   3419 T=   592. E= -.22857724E+03 F= -.22528146E+03 E0= -.22528146E+03  EK= 0.97208E+01 SP= -.13E+02 SK= 0.69E-02
   3420 T=   596. E= -.22857737E+03 F= -.22539597E+03 E0= -.22539597E+03  EK= 0.97787E+01 SP= -.13E+02 SK= 0.64E-02
   3421 T=   600. E= -.22857758E+03 F= -.22552825E+03 E0= -.22552825E+03  EK= 0.98552E+01 SP= -.13E+02 SK= 0.63E-02
   3422 T=   606. E= -.22857782E+03 F= -.22567431E+03 E0= -.22567431E+03  EK= 0.99443E+01 SP= -.13E+02 SK= 0.67E-02
   3423 T=   612. E= -.22857807E+03 F= -.22582946E+03 E0= -.22582946E+03  EK= 0.10039E+02 SP= -.13E+02 SK= 0.77E-02
   3424 T=   617. E= -.22857831E+03 F= -.22598871E+03 E0= -.22598871E+03  EK= 0.10132E+02 SP= -.13E+02 SK= 0.94E-02
   3425 T=   622. E= -.22857854E+03 F= -.22614709E+03 E0= -.22614709E+03  EK= 0.10216E+02 SP= -.13E+02 SK= 0.12E-01
   3426 T=   626. E= -.22857876E+03 F= -.22629951E+03 E0= -.22629951E+03  EK= 0.10283E+02 SP= -.13E+02 SK= 0.15E-01
   3427 T=   629. E= -.22857894E+03 F= -.22644081E+03 E0= -.22644081E+03  EK= 0.10328E+02 SP= -.12E+02 SK= 0.20E-01
   3428 T=   630. E= -.22857907E+03 F= -.22656602E+03 E0= -.22656602E+03  EK= 0.10343E+02 SP= -.12E+02 SK= 0.25E-01
   3429 T=   629. E= -.22857912E+03 F= -.22667048E+03 E0= -.22667048E+03  EK= 0.10324E+02 SP= -.12E+02 SK= 0.31E-01
   3430 T=   625. E= -.22857904E+03 F= -.22675033E+03 E0= -.22675033E+03  EK= 0.10268E+02 SP= -.12E+02 SK= 0.38E-01
   3431 T=   620. E= -.22857884E+03 F= -.22680308E+03 E0= -.22680308E+03  EK= 0.10175E+02 SP= -.12E+02 SK= 0.43E-01
   3432 T=   612. E= -.22857853E+03 F= -.22682789E+03 E0= -.22682789E+03  EK= 0.10048E+02 SP= -.12E+02 SK= 0.48E-01
   3433 T=   602. E= -.22857807E+03 F= -.22682586E+03 E0= -.22682586E+03  EK= 0.98899E+01 SP= -.12E+02 SK= 0.50E-01
   3434 T=   592. E= -.22857753E+03 F= -.22680036E+03 E0= -.22680036E+03  EK= 0.97102E+01 SP= -.12E+02 SK= 0.49E-01
   3435 T=   580. E= -.22857696E+03 F= -.22675670E+03 E0= -.22675670E+03  EK= 0.95183E+01 SP= -.11E+02 SK= 0.46E-01
   3436 T=   568. E= -.22857639E+03 F= -.22670160E+03 E0= -.22670160E+03  EK= 0.93254E+01 SP= -.11E+02 SK= 0.40E-01
   3437 T=   557. E= -.22857588E+03 F= -.22664275E+03 E0= -.22664275E+03  EK= 0.91432E+01 SP= -.11E+02 SK= 0.32E-01
   3438 T=   547. E= -.22857544E+03 F= -.22658779E+03 E0= -.22658779E+03  EK= 0.89828E+01 SP= -.11E+02 SK= 0.23E-01
   3439 T=   539. E= -.22857514E+03 F= -.22654361E+03 E0= -.22654361E+03  EK= 0.88538E+01 SP= -.11E+02 SK= 0.14E-01
   3440 T=   534. E= -.22857497E+03 F= -.22651558E+03 E0= -.22651558E+03  EK= 0.87634E+01 SP= -.11E+02 SK= 0.67E-02
   3441 T=   531. E= -.22857497E+03 F= -.22650676E+03 E0= -.22650676E+03  EK= 0.87160E+01 SP= -.11E+02 SK= 0.18E-02
   3442 T=   531. E= -.22857511E+03 F= -.22651749E+03 E0= -.22651749E+03  EK= 0.87125E+01 SP= -.11E+02 SK= 0.82E-05
   3443 T=   533. E= -.22857538E+03 F= -.22654556E+03 E0= -.22654556E+03  EK= 0.87507E+01 SP= -.11E+02 SK= 0.13E-02
   3444 T=   538. E= -.22857575E+03 F= -.22658656E+03 E0= -.22658656E+03  EK= 0.88256E+01 SP= -.11E+02 SK= 0.54E-02
   3445 T=   544. E= -.22857615E+03 F= -.22663442E+03 E0= -.22663442E+03  EK= 0.89301E+01 SP= -.11E+02 SK= 0.12E-01
   3446 T=   552. E= -.22857657E+03 F= -.22668240E+03 E0= -.22668240E+03  EK= 0.90559E+01 SP= -.11E+02 SK= 0.19E-01
   3447 T=   560. E= -.22857696E+03 F= -.22672388E+03 E0= -.22672388E+03  EK= 0.91941E+01 SP= -.11E+02 SK= 0.26E-01
   3448 T=   569. E= -.22857723E+03 F= -.22675324E+03 E0= -.22675324E+03  EK= 0.93367E+01 SP= -.11E+02 SK= 0.33E-01
   3449 T=   577. E= -.22857744E+03 F= -.22676675E+03 E0= -.22676675E+03  EK= 0.94770E+01 SP= -.11E+02 SK= 0.39E-01
   3450 T=   585. E= -.22857754E+03 F= -.22676257E+03 E0= -.22676257E+03  EK= 0.96100E+01 SP= -.11E+02 SK= 0.43E-01
   3451 T=   593. E= -.22857759E+03 F= -.22674069E+03 E0= -.22674069E+03  EK= 0.97328E+01 SP= -.12E+02 SK= 0.46E-01
   3452 T=   600. E= -.22857758E+03 F= -.22670242E+03 E0= -.22670242E+03  EK= 0.98433E+01 SP= -.12E+02 SK= 0.46E-01
   3453 T=   606. E= -.22857756E+03 F= -.22665001E+03 E0= -.22665001E+03  EK= 0.99411E+01 SP= -.12E+02 SK= 0.45E-01
   3454 T=   611. E= -.22857758E+03 F= -.22658614E+03 E0= -.22658614E+03  EK= 0.10026E+02 SP= -.12E+02 SK= 0.43E-01
   3455 T=   615. E= -.22857764E+03 F= -.22651323E+03 E0= -.22651323E+03  EK= 0.10098E+02 SP= -.12E+02 SK= 0.40E-01
   3456 T=   619. E= -.22857781E+03 F= -.22643291E+03 E0= -.22643291E+03  EK= 0.10157E+02 SP= -.12E+02 SK= 0.36E-01
   3457 T=   621. E= -.22857806E+03 F= -.22634549E+03 E0= -.22634549E+03  EK= 0.10201E+02 SP= -.12E+02 SK= 0.31E-01
   3458 T=   623. E= -.22857841E+03 F= -.22625005E+03 E0= -.22625005E+03  EK= 0.10228E+02 SP= -.13E+02 SK= 0.26E-01
   3459 T=   623. E= -.22857884E+03 F= -.22614434E+03 E0= -.22614434E+03  EK= 0.10235E+02 SP= -.13E+02 SK= 0.22E-01
   3460 T=   622. E= -.22857930E+03 F= -.22602508E+03 E0= -.22602508E+03  EK= 0.10217E+02 SP= -.13E+02 SK= 0.18E-01
   3461 T=   620. E= -.22857971E+03 F= -.22588871E+03 E0= -.22588871E+03  EK= 0.10173E+02 SP= -.13E+02 SK= 0.15E-01
   3462 T=   615. E= -.22857997E+03 F= -.22573254E+03 E0= -.22573254E+03  EK= 0.10099E+02 SP= -.13E+02 SK= 0.12E-01
   3463 T=   609. E= -.22858001E+03 F= -.22555600E+03 E0= -.22555600E+03  EK= 0.99980E+01 SP= -.13E+02 SK= 0.10E-01
   3464 T=   601. E= -.22857983E+03 F= -.22536164E+03 E0= -.22536164E+03  EK= 0.98742E+01 SP= -.13E+02 SK= 0.96E-02
   3465 T=   593. E= -.22857936E+03 F= -.22515574E+03 E0= -.22515574E+03  EK= 0.97371E+01 SP= -.13E+02 SK= 0.97E-02
   3466 T=   585. E= -.22857865E+03 F= -.22494863E+03 E0= -.22494863E+03  EK= 0.96003E+01 SP= -.13E+02 SK= 0.11E-01
   3467 T=   578. E= -.22857770E+03 F= -.22475421E+03 E0= -.22475421E+03  EK= 0.94809E+01 SP= -.13E+02 SK= 0.13E-01
   3468 T=   572. E= -.22857675E+03 F= -.22458896E+03 E0= -.22458896E+03  EK= 0.93981E+01 SP= -.13E+02 SK= 0.17E-01
   3469 T=   571. E= -.22857591E+03 F= -.22446925E+03 E0= -.22446925E+03  EK= 0.93701E+01 SP= -.13E+02 SK= 0.21E-01
   3470 T=   573. E= -.22857535E+03 F= -.22440883E+03 E0= -.22440883E+03  EK= 0.94120E+01 SP= -.14E+02 SK= 0.26E-01
   3471 T=   581. E= -.22857527E+03 F= -.22441618E+03 E0= -.22441618E+03  EK= 0.95317E+01 SP= -.14E+02 SK= 0.30E-01
   3472 T=   593. E= -.22857571E+03 F= -.22449239E+03 E0= -.22449239E+03  EK= 0.97287E+01 SP= -.14E+02 SK= 0.33E-01
   3473 T=   609. E= -.22857672E+03 F= -.22463027E+03 E0= -.22463027E+03  EK= 0.99921E+01 SP= -.14E+02 SK= 0.33E-01
   3474 T=   627. E= -.22857822E+03 F= -.22481458E+03 E0= -.22481458E+03  EK= 0.10301E+02 SP= -.14E+02 SK= 0.29E-01
   3475 T=   647. E= -.22858002E+03 F= -.22502385E+03 E0= -.22502385E+03  EK= 0.10626E+02 SP= -.14E+02 SK= 0.22E-01
   3476 T=   666. E= -.22858185E+03 F= -.22523335E+03 E0= -.22523335E+03  EK= 0.10933E+02 SP= -.14E+02 SK= 0.13E-01
   3477 T=   682. E= -.22858342E+03 F= -.22541868E+03 E0= -.22541868E+03  EK= 0.11188E+02 SP= -.14E+02 SK= 0.47E-02
   3478 T=   692. E= -.22858451E+03 F= -.22555920E+03 E0= -.22555920E+03  EK= 0.11362E+02 SP= -.14E+02 SK= 0.28E-03
   3479 T=   696. E= -.22858496E+03 F= -.22564034E+03 E0= -.22564034E+03  EK= 0.11433E+02 SP= -.14E+02 SK= 0.16E-02
   3480 T=   694. E= -.22858471E+03 F= -.22565481E+03 E0= -.22565481E+03  EK= 0.11393E+02 SP= -.14E+02 SK= 0.93E-02
   3481 T=   685. E= -.22858381E+03 F= -.22560318E+03 E0= -.22560318E+03  EK= 0.11243E+02 SP= -.14E+02 SK= 0.23E-01
   3482 T=   670. E= -.22858245E+03 F= -.22549344E+03 E0= -.22549344E+03  EK= 0.10997E+02 SP= -.14E+02 SK= 0.39E-01
   3483 T=   651. E= -.22858082E+03 F= -.22533943E+03 E0= -.22533943E+03  EK= 0.10680E+02 SP= -.14E+02 SK= 0.54E-01
   3484 T=   629. E= -.22857915E+03 F= -.22515907E+03 E0= -.22515907E+03  EK= 0.10319E+02 SP= -.14E+02 SK= 0.66E-01
   3485 T=   606. E= -.22857763E+03 F= -.22497228E+03 E0= -.22497228E+03  EK= 0.99449E+01 SP= -.14E+02 SK= 0.72E-01
   3486 T=   584. E= -.22857642E+03 F= -.22479881E+03 E0= -.22479881E+03  EK= 0.95883E+01 SP= -.13E+02 SK= 0.70E-01
   3487 T=   565. E= -.22857553E+03 F= -.22465614E+03 E0= -.22465614E+03  EK= 0.92742E+01 SP= -.13E+02 SK= 0.63E-01
   3488 T=   550. E= -.22857501E+03 F= -.22455826E+03 E0= -.22455826E+03  EK= 0.90224E+01 SP= -.13E+02 SK= 0.51E-01
   3489 T=   539. E= -.22857480E+03 F= -.22451459E+03 E0= -.22451459E+03  EK= 0.88461E+01 SP= -.13E+02 SK= 0.38E-01
   3490 T=   533. E= -.22857489E+03 F= -.22452967E+03 E0= -.22452967E+03  EK= 0.87519E+01 SP= -.13E+02 SK= 0.25E-01
   3491 T=   532. E= -.22857516E+03 F= -.22460326E+03 E0= -.22460326E+03  EK= 0.87402E+01 SP= -.13E+02 SK= 0.14E-01
   3492 T=   536. E= -.22857561E+03 F= -.22473094E+03 E0= -.22473094E+03  EK= 0.88060E+01 SP= -.13E+02 SK= 0.64E-02
   3493 T=   545. E= -.22857616E+03 F= -.22490468E+03 E0= -.22490468E+03  EK= 0.89398E+01 SP= -.13E+02 SK= 0.21E-02
   3494 T=   556. E= -.22857680E+03 F= -.22511397E+03 E0= -.22511397E+03  EK= 0.91284E+01 SP= -.13E+02 SK= 0.29E-03
   3495 T=   570. E= -.22857750E+03 F= -.22534655E+03 E0= -.22534655E+03  EK= 0.93560E+01 SP= -.13E+02 SK= 0.16E-04
   3496 T=   585. E= -.22857819E+03 F= -.22558950E+03 E0= -.22558950E+03  EK= 0.96052E+01 SP= -.13E+02 SK= 0.27E-03
   3497 T=   600. E= -.22857888E+03 F= -.22583013E+03 E0= -.22583013E+03  EK= 0.98577E+01 SP= -.13E+02 SK= 0.40E-03
   3498 T=   615. E= -.22857952E+03 F= -.22605658E+03 E0= -.22605658E+03  EK= 0.10096E+02 SP= -.13E+02 SK= 0.21E-03
   3499 T=   628. E= -.22858006E+03 F= -.22625833E+03 E0= -.22625833E+03  EK= 0.10303E+02 SP= -.13E+02 SK= 0.16E-05
   3500 T=   637. E= -.22858043E+03 F= -.22642680E+03 E0= -.22642680E+03  EK= 0.10464E+02 SP= -.13E+02 SK= 0.35E-03
   3501 T=   644. E= -.22858063E+03 F= -.22655576E+03 E0= -.22655576E+03  EK= 0.10570E+02 SP= -.13E+02 SK= 0.19E-02
   3502 T=   646. E= -.22858061E+03 F= -.22664139E+03 E0= -.22664139E+03  EK= 0.10613E+02 SP= -.13E+02 SK= 0.50E-02
   3503 T=   645. E= -.22858032E+03 F= -.22668274E+03 E0= -.22668274E+03  EK= 0.10590E+02 SP= -.12E+02 SK= 0.97E-02
   3504 T=   640. E= -.22857976E+03 F= -.22668208E+03 E0= -.22668208E+03  EK= 0.10507E+02 SP= -.12E+02 SK= 0.15E-01
   3505 T=   632. E= -.22857899E+03 F= -.22664519E+03 E0= -.22664519E+03  EK= 0.10371E+02 SP= -.12E+02 SK= 0.21E-01
   3506 T=   621. E= -.22857812E+03 F= -.22658076E+03 E0= -.22658076E+03  EK= 0.10194E+02 SP= -.12E+02 SK= 0.26E-01
   3507 T=   609. E= -.22857724E+03 F= -.22649936E+03 E0= -.22649936E+03  EK= 0.99943E+01 SP= -.12E+02 SK= 0.30E-01
   3508 T=   596. E= -.22857647E+03 F= -.22641211E+03 E0= -.22641211E+03  EK= 0.97866E+01 SP= -.12E+02 SK= 0.30E-01
   3509 T=   584. E= -.22857590E+03 F= -.22632924E+03 E0= -.22632924E+03  EK= 0.95867E+01 SP= -.12E+02 SK= 0.28E-01
   3510 T=   573. E= -.22857560E+03 F= -.22625859E+03 E0= -.22625859E+03  EK= 0.94068E+01 SP= -.12E+02 SK= 0.25E-01
   3511 T=   564. E= -.22857559E+03 F= -.22620452E+03 E0= -.22620452E+03  EK= 0.92552E+01 SP= -.12E+02 SK= 0.19E-01
   3512 T=   556. E= -.22857581E+03 F= -.22616748E+03 E0= -.22616748E+03  EK= 0.91350E+01 SP= -.12E+02 SK= 0.13E-01
   3513 T=   551. E= -.22857618E+03 F= -.22614445E+03 E0= -.22614445E+03  EK= 0.90455E+01 SP= -.11E+02 SK= 0.80E-02
   3514 T=   547. E= -.22857662E+03 F= -.22612997E+03 E0= -.22612997E+03  EK= 0.89829E+01 SP= -.11E+02 SK= 0.36E-02
   3515 T=   545. E= -.22857701E+03 F= -.22611767E+03 E0= -.22611767E+03  EK= 0.89418E+01 SP= -.11E+02 SK= 0.85E-03
   3516 T=   543. E= -.22857727E+03 F= -.22610171E+03 E0= -.22610171E+03  EK= 0.89172E+01 SP= -.11E+02 SK= 0.81E-05
   3517 T=   542. E= -.22857736E+03 F= -.22607814E+03 E0= -.22607814E+03  EK= 0.89057E+01 SP= -.11E+02 SK= 0.13E-02
   3518 T=   543. E= -.22857727E+03 F= -.22604551E+03 E0= -.22604551E+03  EK= 0.89060E+01 SP= -.11E+02 SK= 0.47E-02
   3519 T=   543. E= -.22857704E+03 F= -.22600512E+03 E0= -.22600512E+03  EK= 0.89194E+01 SP= -.12E+02 SK= 0.10E-01
   3520 T=   545. E= -.22857669E+03 F= -.22596045E+03 E0= -.22596045E+03  EK= 0.89492E+01 SP= -.12E+02 SK= 0.18E-01
   3521 T=   548. E= -.22857631E+03 F= -.22591658E+03 E0= -.22591658E+03  EK= 0.90001E+01 SP= -.12E+02 SK= 0.27E-01
   3522 T=   553. E= -.22857597E+03 F= -.22587910E+03 E0= -.22587910E+03  EK= 0.90769E+01 SP= -.12E+02 SK= 0.37E-01
   3523 T=   559. E= -.22857572E+03 F= -.22585280E+03 E0= -.22585280E+03  EK= 0.91832E+01 SP= -.12E+02 SK= 0.47E-01
   3524 T=   568. E= -.22857567E+03 F= -.22584083E+03 E0= -.22584083E+03  EK= 0.93204E+01 SP= -.12E+02 SK= 0.57E-01
   3525 T=   578. E= -.22857581E+03 F= -.22584382E+03 E0= -.22584382E+03  EK= 0.94869E+01 SP= -.12E+02 SK= 0.64E-01
   3526 T=   590. E= -.22857614E+03 F= -.22585960E+03 E0= -.22585960E+03  EK= 0.96774E+01 SP= -.12E+02 SK= 0.69E-01
   3527 T=   602. E= -.22857668E+03 F= -.22588363E+03 E0= -.22588363E+03  EK= 0.98834E+01 SP= -.13E+02 SK= 0.70E-01
   3528 T=   615. E= -.22857734E+03 F= -.22590924E+03 E0= -.22590924E+03  EK= 0.10094E+02 SP= -.13E+02 SK= 0.67E-01
   3529 T=   627. E= -.22857807E+03 F= -.22592872E+03 E0= -.22592872E+03  EK= 0.10295E+02 SP= -.13E+02 SK= 0.60E-01
   3530 T=   638. E= -.22857881E+03 F= -.22593414E+03 E0= -.22593414E+03  EK= 0.10473E+02 SP= -.13E+02 SK= 0.51E-01
   3531 T=   647. E= -.22857948E+03 F= -.22591795E+03 E0= -.22591795E+03  EK= 0.10616E+02 SP= -.13E+02 SK= 0.40E-01
   3532 T=   652. E= -.22858002E+03 F= -.22587392E+03 E0= -.22587392E+03  EK= 0.10711E+02 SP= -.13E+02 SK= 0.29E-01
   3533 T=   655. E= -.22858035E+03 F= -.22579770E+03 E0= -.22579770E+03  EK= 0.10753E+02 SP= -.14E+02 SK= 0.19E-01
   3534 T=   654. E= -.22858039E+03 F= -.22568770E+03 E0= -.22568770E+03  EK= 0.10735E+02 SP= -.14E+02 SK= 0.11E-01
   3535 T=   649. E= -.22858014E+03 F= -.22554564E+03 E0= -.22554564E+03  EK= 0.10662E+02 SP= -.14E+02 SK= 0.55E-02
   3536 T=   642. E= -.22857958E+03 F= -.22537696E+03 E0= -.22537696E+03  EK= 0.10539E+02 SP= -.14E+02 SK= 0.22E-02
   3537 T=   632. E= -.22857878E+03 F= -.22519085E+03 E0= -.22519085E+03  EK= 0.10381E+02 SP= -.14E+02 SK= 0.59E-03
   3538 T=   621. E= -.22857789E+03 F= -.22499942E+03 E0= -.22499942E+03  EK= 0.10202E+02 SP= -.14E+02 SK= 0.64E-04
   3539 T=   610. E= -.22857702E+03 F= -.22481611E+03 E0= -.22481611E+03  EK= 0.10022E+02 SP= -.14E+02 SK= 0.36E-05
   3540 T=   600. E= -.22857637E+03 F= -.22465387E+03 E0= -.22465387E+03  EK= 0.98574E+01 SP= -.14E+02 SK= 0.31E-04
   3541 T=   592. E= -.22857597E+03 F= -.22452289E+03 E0= -.22452289E+03  EK= 0.97235E+01 SP= -.14E+02 SK= 0.15E-04
   3542 T=   587. E= -.22857590E+03 F= -.22442955E+03 E0= -.22442955E+03  EK= 0.96295E+01 SP= -.14E+02 SK= 0.35E-05
   3543 T=   584. E= -.22857613E+03 F= -.22437541E+03 E0= -.22437541E+03  EK= 0.95793E+01 SP= -.14E+02 SK= 0.10E-03
   3544 T=   583. E= -.22857658E+03 F= -.22435740E+03 E0= -.22435740E+03  EK= 0.95709E+01 SP= -.14E+02 SK= 0.38E-03
   3545 T=   585. E= -.22857720E+03 F= -.22436886E+03 E0= -.22436886E+03  EK= 0.95981E+01 SP= -.14E+02 SK= 0.81E-03
   3546 T=   588. E= -.22857791E+03 F= -.22440060E+03 E0= -.22440060E+03  EK= 0.96511E+01 SP= -.14E+02 SK= 0.13E-02
   3547 T=   592. E= -.22857863E+03 F= -.22444201E+03 E0= -.22444201E+03  EK= 0.97182E+01 SP= -.14E+02 SK= 0.17E-02
   3548 T=   596. E= -.22857930E+03 F= -.22448234E+03 E0= -.22448234E+03  EK= 0.97873E+01 SP= -.14E+02 SK= 0.19E-02
   3549 T=   600. E= -.22857985E+03 F= -.22451173E+03 E0= -.22451173E+03  EK= 0.98468E+01 SP= -.14E+02 SK= 0.20E-02
   3550 T=   602. E= -.22858022E+03 F= -.22452223E+03 E0= -.22452223E+03  EK= 0.98875E+01 SP= -.14E+02 SK= 0.18E-02
   3551 T=   603. E= -.22858036E+03 F= -.22450883E+03 E0= -.22450883E+03  EK= 0.99031E+01 SP= -.14E+02 SK= 0.16E-02
   3552 T=   603. E= -.22858024E+03 F= -.22447001E+03 E0= -.22447001E+03  EK= 0.98918E+01 SP= -.14E+02 SK= 0.14E-02
   3553 T=   600. E= -.22857985E+03 F= -.22440804E+03 E0= -.22440804E+03  EK= 0.98561E+01 SP= -.14E+02 SK= 0.13E-02
   3554 T=   597. E= -.22857932E+03 F= -.22432879E+03 E0= -.22432879E+03  EK= 0.98026E+01 SP= -.14E+02 SK= 0.13E-02
   3555 T=   593. E= -.22857871E+03 F= -.22424058E+03 E0= -.22424058E+03  EK= 0.97407E+01 SP= -.14E+02 SK= 0.15E-02
   3556 T=   590. E= -.22857811E+03 F= -.22415292E+03 E0= -.22415292E+03  EK= 0.96813E+01 SP= -.14E+02 SK= 0.18E-02
   3557 T=   587. E= -.22857760E+03 F= -.22407512E+03 E0= -.22407512E+03  EK= 0.96352E+01 SP= -.14E+02 SK= 0.24E-02
   3558 T=   585. E= -.22857723E+03 F= -.22401513E+03 E0= -.22401513E+03  EK= 0.96114E+01 SP= -.14E+02 SK= 0.32E-02
   3559 T=   586. E= -.22857704E+03 F= -.22397867E+03 E0= -.22397867E+03  EK= 0.96161E+01 SP= -.14E+02 SK= 0.41E-02
   3560 T=   588. E= -.22857702E+03 F= -.22396871E+03 E0= -.22396871E+03  EK= 0.96524E+01 SP= -.14E+02 SK= 0.51E-02
   3561 T=   592. E= -.22857717E+03 F= -.22398538E+03 E0= -.22398538E+03  EK= 0.97197E+01 SP= -.14E+02 SK= 0.59E-02
   3562 T=   598. E= -.22857750E+03 F= -.22402619E+03 E0= -.22402619E+03  EK= 0.98140E+01 SP= -.14E+02 SK= 0.63E-02
   3563 T=   605. E= -.22857795E+03 F= -.22408617E+03 E0= -.22408617E+03  EK= 0.99284E+01 SP= -.14E+02 SK= 0.60E-02
   3564 T=   612. E= -.22857852E+03 F= -.22415854E+03 E0= -.22415854E+03  EK= 0.10053E+02 SP= -.14E+02 SK= 0.52E-02
   3565 T=   620. E= -.22857916E+03 F= -.22423509E+03 E0= -.22423509E+03  EK= 0.10177E+02 SP= -.15E+02 SK= 0.38E-02
   3566 T=   627. E= -.22857980E+03 F= -.22430698E+03 E0= -.22430698E+03  EK= 0.10288E+02 SP= -.15E+02 SK= 0.23E-02
   3567 T=   632. E= -.22858038E+03 F= -.22436543E+03 E0= -.22436543E+03  EK= 0.10375E+02 SP= -.15E+02 SK= 0.88E-03
   3568 T=   635. E= -.22858084E+03 F= -.22440263E+03 E0= -.22440263E+03  EK= 0.10426E+02 SP= -.15E+02 SK= 0.85E-04
   3569 T=   636. E= -.22858107E+03 F= -.22441240E+03 E0= -.22441240E+03  EK= 0.10434E+02 SP= -.15E+02 SK= 0.15E-03
   3570 T=   633. E= -.22858108E+03 F= -.22439128E+03 E0= -.22439128E+03  EK= 0.10396E+02 SP= -.15E+02 SK= 0.11E-02
   3571 T=   628. E= -.22858083E+03 F= -.22433894E+03 E0= -.22433894E+03  EK= 0.10313E+02 SP= -.15E+02 SK= 0.27E-02
   3572 T=   621. E= -.22858033E+03 F= -.22425856E+03 E0= -.22425856E+03  EK= 0.10189E+02 SP= -.15E+02 SK= 0.45E-02
   3573 T=   611. E= -.22857960E+03 F= -.22415693E+03 E0= -.22415693E+03  EK= 0.10036E+02 SP= -.14E+02 SK= 0.60E-02
   3574 T=   601. E= -.22857874E+03 F= -.22404421E+03 E0= -.22404421E+03  EK= 0.98682E+01 SP= -.14E+02 SK= 0.67E-02
   3575 T=   591. E= -.22857782E+03 F= -.22393293E+03 E0= -.22393293E+03  EK= 0.97016E+01 SP= -.14E+02 SK= 0.64E-02
   3576 T=   582. E= -.22857697E+03 F= -.22383666E+03 E0= -.22383666E+03  EK= 0.95540E+01 SP= -.14E+02 SK= 0.53E-02
   3577 T=   575. E= -.22857624E+03 F= -.22376837E+03 E0= -.22376837E+03  EK= 0.94415E+01 SP= -.14E+02 SK= 0.37E-02
   3578 T=   571. E= -.22857578E+03 F= -.22373902E+03 E0= -.22373902E+03  EK= 0.93772E+01 SP= -.14E+02 SK= 0.21E-02
   3579 T=   571. E= -.22857555E+03 F= -.22375582E+03 E0= -.22375582E+03  EK= 0.93697E+01 SP= -.14E+02 SK= 0.83E-03
   3580 T=   574. E= -.22857563E+03 F= -.22382174E+03 E0= -.22382174E+03  EK= 0.94216E+01 SP= -.14E+02 SK= 0.17E-03
   3581 T=   581. E= -.22857602E+03 F= -.22393473E+03 E0= -.22393473E+03  EK= 0.95299E+01 SP= -.14E+02 SK= 0.52E-09
   3582 T=   590. E= -.22857673E+03 F= -.22408768E+03 E0= -.22408768E+03  EK= 0.96849E+01 SP= -.14E+02 SK= 0.68E-04
   3583 T=   601. E= -.22857768E+03 F= -.22426881E+03 E0= -.22426881E+03  EK= 0.98715E+01 SP= -.14E+02 SK= 0.11E-03
   3584 T=   613. E= -.22857881E+03 F= -.22446275E+03 E0= -.22446275E+03  EK= 0.10070E+02 SP= -.14E+02 SK= 0.29E-04
   3585 T=   625. E= -.22857997E+03 F= -.22465208E+03 E0= -.22465208E+03  EK= 0.10258E+02 SP= -.14E+02 SK= 0.43E-04
   3586 T=   634. E= -.22858103E+03 F= -.22481897E+03 E0= -.22481897E+03  EK= 0.10412E+02 SP= -.14E+02 SK= 0.61E-03
   3587 T=   640. E= -.22858185E+03 F= -.22494714E+03 E0= -.22494714E+03  EK= 0.10512E+02 SP= -.14E+02 SK= 0.23E-02
   3588 T=   642. E= -.22858230E+03 F= -.22502357E+03 E0= -.22502357E+03  EK= 0.10544E+02 SP= -.14E+02 SK= 0.53E-02
   3589 T=   639. E= -.22858232E+03 F= -.22504019E+03 E0= -.22504019E+03  EK= 0.10497E+02 SP= -.14E+02 SK= 0.95E-02
   3590 T=   632. E= -.22858194E+03 F= -.22499460E+03 E0= -.22499460E+03  EK= 0.10371E+02 SP= -.14E+02 SK= 0.14E-01
   3591 T=   620. E= -.22858116E+03 F= -.22489028E+03 E0= -.22489028E+03  EK= 0.10174E+02 SP= -.14E+02 SK= 0.18E-01
   3592 T=   604. E= -.22858006E+03 F= -.22473667E+03 E0= -.22473667E+03  EK= 0.99224E+01 SP= -.14E+02 SK= 0.21E-01
   3593 T=   587. E= -.22857878E+03 F= -.22454874E+03 E0= -.22454874E+03  EK= 0.96368E+01 SP= -.14E+02 SK= 0.20E-01
   3594 T=   569. E= -.22857746E+03 F= -.22434532E+03 E0= -.22434532E+03  EK= 0.93433E+01 SP= -.14E+02 SK= 0.17E-01
   3595 T=   552. E= -.22857627E+03 F= -.22414695E+03 E0= -.22414695E+03  EK= 0.90688E+01 SP= -.14E+02 SK= 0.12E-01
   3596 T=   538. E= -.22857529E+03 F= -.22397339E+03 E0= -.22397339E+03  EK= 0.88382E+01 SP= -.13E+02 SK= 0.57E-02
   3597 T=   528. E= -.22857462E+03 F= -.22384151E+03 E0= -.22384151E+03  EK= 0.86720E+01 SP= -.13E+02 SK= 0.14E-02
   3598 T=   523. E= -.22857427E+03 F= -.22376338E+03 E0= -.22376338E+03  EK= 0.85848E+01 SP= -.13E+02 SK= 0.37E-04
   3599 T=   523. E= -.22857426E+03 F= -.22374511E+03 E0= -.22374511E+03  EK= 0.85838E+01 SP= -.13E+02 SK= 0.26E-02
   3600 T=   528. E= -.22857457E+03 F= -.22378641E+03 E0= -.22378641E+03  EK= 0.86691E+01 SP= -.13E+02 SK= 0.89E-02
   3601 T=   538. E= -.22857515E+03 F= -.22388089E+03 E0= -.22388089E+03  EK= 0.88334E+01 SP= -.14E+02 SK= 0.18E-01
   3602 T=   552. E= -.22857594E+03 F= -.22401720E+03 E0= -.22401720E+03  EK= 0.90633E+01 SP= -.14E+02 SK= 0.27E-01
   3603 T=   569. E= -.22857690E+03 F= -.22418064E+03 E0= -.22418064E+03  EK= 0.93405E+01 SP= -.14E+02 SK= 0.35E-01
   3604 T=   587. E= -.22857797E+03 F= -.22435457E+03 E0= -.22435457E+03  EK= 0.96435E+01 SP= -.14E+02 SK= 0.40E-01
   3605 T=   606. E= -.22857905E+03 F= -.22452207E+03 E0= -.22452207E+03  EK= 0.99489E+01 SP= -.14E+02 SK= 0.40E-01
   3606 T=   623. E= -.22858002E+03 F= -.22466770E+03 E0= -.22466770E+03  EK= 0.10234E+02 SP= -.14E+02 SK= 0.37E-01
   3607 T=   638. E= -.22858077E+03 F= -.22477916E+03 E0= -.22477916E+03  EK= 0.10478E+02 SP= -.14E+02 SK= 0.30E-01
   3608 T=   650. E= -.22858124E+03 F= -.22484847E+03 E0= -.22484847E+03  EK= 0.10666E+02 SP= -.14E+02 SK= 0.21E-01
   3609 T=   657. E= -.22858137E+03 F= -.22487223E+03 E0= -.22487223E+03  EK= 0.10789E+02 SP= -.15E+02 SK= 0.13E-01
   3610 T=   660. E= -.22858121E+03 F= -.22485167E+03 E0= -.22485167E+03  EK= 0.10842E+02 SP= -.15E+02 SK= 0.61E-02
   3611 T=   660. E= -.22858084E+03 F= -.22479166E+03 E0= -.22479166E+03  EK= 0.10829E+02 SP= -.15E+02 SK= 0.18E-02
   3612 T=   655. E= -.22858036E+03 F= -.22469939E+03 E0= -.22469939E+03  EK= 0.10756E+02 SP= -.15E+02 SK= 0.61E-04
   3613 T=   648. E= -.22857981E+03 F= -.22458314E+03 E0= -.22458314E+03  EK= 0.10635E+02 SP= -.15E+02 SK= 0.53E-03
   3614 T=   638. E= -.22857927E+03 F= -.22445154E+03 E0= -.22445154E+03  EK= 0.10476E+02 SP= -.15E+02 SK= 0.24E-02
   3615 T=   627. E= -.22857876E+03 F= -.22431281E+03 E0= -.22431281E+03  EK= 0.10295E+02 SP= -.15E+02 SK= 0.47E-02
   3616 T=   615. E= -.22857827E+03 F= -.22417477E+03 E0= -.22417477E+03  EK= 0.10103E+02 SP= -.15E+02 SK= 0.67E-02
   3617 T=   604. E= -.22857781E+03 F= -.22404491E+03 E0= -.22404491E+03  EK= 0.99132E+01 SP= -.14E+02 SK= 0.78E-02
   3618 T=   593. E= -.22857737E+03 F= -.22393068E+03 E0= -.22393068E+03  EK= 0.97382E+01 SP= -.14E+02 SK= 0.77E-02
   3619 T=   584. E= -.22857695E+03 F= -.22383946E+03 E0= -.22383946E+03  EK= 0.95894E+01 SP= -.14E+02 SK= 0.67E-02
   3620 T=   577. E= -.22857664E+03 F= -.22377817E+03 E0= -.22377817E+03  EK= 0.94769E+01 SP= -.14E+02 SK= 0.50E-02
   3621 T=   573. E= -.22857653E+03 F= -.22375184E+03 E0= -.22375184E+03  EK= 0.94081E+01 SP= -.14E+02 SK= 0.32E-02
   3622 T=   572. E= -.22857662E+03 F= -.22376250E+03 E0= -.22376250E+03  EK= 0.93861E+01 SP= -.14E+02 SK= 0.17E-02
   3623 T=   573. E= -.22857685E+03 F= -.22380893E+03 E0= -.22380893E+03  EK= 0.94102E+01 SP= -.14E+02 SK= 0.65E-03
   3624 T=   577. E= -.22857725E+03 F= -.22388694E+03 E0= -.22388694E+03  EK= 0.94754E+01 SP= -.14E+02 SK= 0.13E-03
   3625 T=   583. E= -.22857776E+03 F= -.22398967E+03 E0= -.22398967E+03  EK= 0.95737E+01 SP= -.14E+02 SK= 0.15E-06
   3626 T=   591. E= -.22857826E+03 F= -.22410865E+03 E0= -.22410865E+03  EK= 0.96943E+01 SP= -.14E+02 SK= 0.45E-04
   3627 T=   599. E= -.22857867E+03 F= -.22423536E+03 E0= -.22423536E+03  EK= 0.98261E+01 SP= -.14E+02 SK= 0.85E-04
   3628 T=   607. E= -.22857898E+03 F= -.22436243E+03 E0= -.22436243E+03  EK= 0.99586E+01 SP= -.14E+02 SK= 0.49E-04
   3629 T=   614. E= -.22857919E+03 F= -.22448410E+03 E0= -.22448410E+03  EK= 0.10083E+02 SP= -.14E+02 SK= 0.56E-07
   3630 T=   621. E= -.22857932E+03 F= -.22459603E+03 E0= -.22459603E+03  EK= 0.10191E+02 SP= -.14E+02 SK= 0.11E-03
   3631 T=   626. E= -.22857942E+03 F= -.22469500E+03 E0= -.22469500E+03  EK= 0.10277E+02 SP= -.14E+02 SK= 0.63E-03
   3632 T=   630. E= -.22857948E+03 F= -.22477840E+03 E0= -.22477840E+03  EK= 0.10335E+02 SP= -.14E+02 SK= 0.18E-02
   3633 T=   631. E= -.22857949E+03 F= -.22484413E+03 E0= -.22484413E+03  EK= 0.10363E+02 SP= -.14E+02 SK= 0.37E-02
   3634 T=   631. E= -.22857941E+03 F= -.22489071E+03 E0= -.22489071E+03  EK= 0.10358E+02 SP= -.14E+02 SK= 0.63E-02
   3635 T=   629. E= -.22857927E+03 F= -.22491770E+03 E0= -.22491770E+03  EK= 0.10320E+02 SP= -.14E+02 SK= 0.96E-02
   3636 T=   624. E= -.22857901E+03 F= -.22492564E+03 E0= -.22492564E+03  EK= 0.10251E+02 SP= -.14E+02 SK= 0.13E-01
   3637 T=   619. E= -.22857869E+03 F= -.22491645E+03 E0= -.22491645E+03  EK= 0.10155E+02 SP= -.14E+02 SK= 0.16E-01
   3638 T=   611. E= -.22857829E+03 F= -.22489327E+03 E0= -.22489327E+03  EK= 0.10038E+02 SP= -.14E+02 SK= 0.19E-01
   3639 T=   603. E= -.22857789E+03 F= -.22486039E+03 E0= -.22486039E+03  EK= 0.99066E+01 SP= -.14E+02 SK= 0.20E-01
   3640 T=   595. E= -.22857747E+03 F= -.22482265E+03 E0= -.22482265E+03  EK= 0.97702E+01 SP= -.14E+02 SK= 0.20E-01
   3641 T=   587. E= -.22857708E+03 F= -.22478545E+03 E0= -.22478545E+03  EK= 0.96373E+01 SP= -.13E+02 SK= 0.19E-01
   3642 T=   580. E= -.22857675E+03 F= -.22475426E+03 E0= -.22475426E+03  EK= 0.95162E+01 SP= -.13E+02 SK= 0.16E-01
   3643 T=   573. E= -.22857648E+03 F= -.22473399E+03 E0= -.22473399E+03  EK= 0.94146E+01 SP= -.13E+02 SK= 0.13E-01
   3644 T=   569. E= -.22857631E+03 F= -.22472865E+03 E0= -.22472865E+03  EK= 0.93384E+01 SP= -.13E+02 SK= 0.97E-02
   3645 T=   566. E= -.22857624E+03 F= -.22474093E+03 E0= -.22474093E+03  EK= 0.92917E+01 SP= -.13E+02 SK= 0.64E-02
   3646 T=   565. E= -.22857626E+03 F= -.22477199E+03 E0= -.22477199E+03  EK= 0.92765E+01 SP= -.13E+02 SK= 0.37E-02
   3647 T=   566. E= -.22857638E+03 F= -.22482157E+03 E0= -.22482157E+03  EK= 0.92927E+01 SP= -.13E+02 SK= 0.17E-02
   3648 T=   569. E= -.22857658E+03 F= -.22488787E+03 E0= -.22488787E+03  EK= 0.93379E+01 SP= -.13E+02 SK= 0.50E-03
   3649 T=   573. E= -.22857685E+03 F= -.22496790E+03 E0= -.22496790E+03  EK= 0.94083E+01 SP= -.13E+02 SK= 0.34E-04
   3650 T=   579. E= -.22857712E+03 F= -.22505784E+03 E0= -.22505784E+03  EK= 0.94986E+01 SP= -.13E+02 SK= 0.59E-04
   3651 T=   585. E= -.22857742E+03 F= -.22515352E+03 E0= -.22515352E+03  EK= 0.96026E+01 SP= -.13E+02 SK= 0.31E-03
   3652 T=   592. E= -.22857768E+03 F= -.22525082E+03 E0= -.22525082E+03  EK= 0.97139E+01 SP= -.13E+02 SK= 0.57E-03
   3653 T=   599. E= -.22857792E+03 F= -.22534625E+03 E0= -.22534625E+03  EK= 0.98264E+01 SP= -.13E+02 SK= 0.68E-03
   3654 T=   605. E= -.22857813E+03 F= -.22543692E+03 E0= -.22543692E+03  EK= 0.99346E+01 SP= -.13E+02 SK= 0.59E-03
   3655 T=   611. E= -.22857831E+03 F= -.22552060E+03 E0= -.22552060E+03  EK= 0.10033E+02 SP= -.13E+02 SK= 0.36E-03
   3656 T=   616. E= -.22857847E+03 F= -.22559557E+03 E0= -.22559557E+03  EK= 0.10119E+02 SP= -.13E+02 SK= 0.10E-03
   3657 T=   621. E= -.22857859E+03 F= -.22566049E+03 E0= -.22566049E+03  EK= 0.10187E+02 SP= -.13E+02 SK= 0.18E-05
   3658 T=   623. E= -.22857869E+03 F= -.22571437E+03 E0= -.22571437E+03  EK= 0.10234E+02 SP= -.13E+02 SK= 0.22E-03
   3659 T=   625. E= -.22857877E+03 F= -.22575634E+03 E0= -.22575634E+03  EK= 0.10260E+02 SP= -.13E+02 SK= 0.89E-03
   3660 T=   625. E= -.22857878E+03 F= -.22578574E+03 E0= -.22578574E+03  EK= 0.10262E+02 SP= -.13E+02 SK= 0.20E-02
   3661 T=   624. E= -.22857876E+03 F= -.22580235E+03 E0= -.22580235E+03  EK= 0.10240E+02 SP= -.13E+02 SK= 0.36E-02
   3662 T=   621. E= -.22857870E+03 F= -.22580623E+03 E0= -.22580623E+03  EK= 0.10196E+02 SP= -.13E+02 SK= 0.55E-02
   3663 T=   617. E= -.22857860E+03 F= -.22579765E+03 E0= -.22579765E+03  EK= 0.10129E+02 SP= -.13E+02 SK= 0.74E-02
   3664 T=   612. E= -.22857845E+03 F= -.22577727E+03 E0= -.22577727E+03  EK= 0.10044E+02 SP= -.13E+02 SK= 0.91E-02
   3665 T=   606. E= -.22857827E+03 F= -.22574625E+03 E0= -.22574625E+03  EK= 0.99440E+01 SP= -.13E+02 SK= 0.10E-01
   3666 T=   599. E= -.22857806E+03 F= -.22570629E+03 E0= -.22570629E+03  EK= 0.98326E+01 SP= -.13E+02 SK= 0.11E-01
   3667 T=   592. E= -.22857783E+03 F= -.22565963E+03 E0= -.22565963E+03  EK= 0.97154E+01 SP= -.13E+02 SK= 0.10E-01
   3668 T=   585. E= -.22857762E+03 F= -.22560882E+03 E0= -.22560882E+03  EK= 0.95977E+01 SP= -.13E+02 SK= 0.90E-02
   3669 T=   578. E= -.22857745E+03 F= -.22555637E+03 E0= -.22555637E+03  EK= 0.94847E+01 SP= -.13E+02 SK= 0.72E-02
   3670 T=   571. E= -.22857734E+03 F= -.22550441E+03 E0= -.22550441E+03  EK= 0.93810E+01 SP= -.12E+02 SK= 0.50E-02
   3671 T=   566. E= -.22857727E+03 F= -.22545454E+03 E0= -.22545454E+03  EK= 0.92905E+01 SP= -.12E+02 SK= 0.28E-02
   3672 T=   561. E= -.22857721E+03 F= -.22540808E+03 E0= -.22540808E+03  EK= 0.92163E+01 SP= -.12E+02 SK= 0.10E-02
   3673 T=   558. E= -.22857715E+03 F= -.22536636E+03 E0= -.22536636E+03  EK= 0.91612E+01 SP= -.12E+02 SK= 0.84E-04
   3674 T=   556. E= -.22857704E+03 F= -.22533086E+03 E0= -.22533086E+03  EK= 0.91278E+01 SP= -.12E+02 SK= 0.23E-03
   3675 T=   555. E= -.22857690E+03 F= -.22530359E+03 E0= -.22530359E+03  EK= 0.91187E+01 SP= -.12E+02 SK= 0.16E-02
   3676 T=   557. E= -.22857676E+03 F= -.22528698E+03 E0= -.22528698E+03  EK= 0.91367E+01 SP= -.12E+02 SK= 0.43E-02
   3677 T=   559. E= -.22857666E+03 F= -.22528340E+03 E0= -.22528340E+03  EK= 0.91836E+01 SP= -.12E+02 SK= 0.80E-02
   3678 T=   564. E= -.22857661E+03 F= -.22529453E+03 E0= -.22529453E+03  EK= 0.92605E+01 SP= -.13E+02 SK= 0.12E-01
   3679 T=   571. E= -.22857666E+03 F= -.22532098E+03 E0= -.22532098E+03  EK= 0.93667E+01 SP= -.13E+02 SK= 0.17E-01
   3680 T=   579. E= -.22857684E+03 F= -.22536191E+03 E0= -.22536191E+03  EK= 0.94991E+01 SP= -.13E+02 SK= 0.21E-01
   3681 T=   588. E= -.22857706E+03 F= -.22541504E+03 E0= -.22541504E+03  EK= 0.96531E+01 SP= -.13E+02 SK= 0.24E-01
   3682 T=   598. E= -.22857737E+03 F= -.22547723E+03 E0= -.22547723E+03  EK= 0.98221E+01 SP= -.13E+02 SK= 0.25E-01
   3683 T=   609. E= -.22857772E+03 F= -.22554453E+03 E0= -.22554453E+03  EK= 0.99983E+01 SP= -.13E+02 SK= 0.24E-01
   3684 T=   620. E= -.22857811E+03 F= -.22561258E+03 E0= -.22561258E+03  EK= 0.10173E+02 SP= -.13E+02 SK= 0.21E-01
   3685 T=   630. E= -.22857851E+03 F= -.22567696E+03 E0= -.22567696E+03  EK= 0.10337E+02 SP= -.13E+02 SK= 0.17E-01
   3686 T=   638. E= -.22857887E+03 F= -.22573352E+03 E0= -.22573352E+03  EK= 0.10481E+02 SP= -.13E+02 SK= 0.12E-01
   3687 T=   646. E= -.22857917E+03 F= -.22577882E+03 E0= -.22577882E+03  EK= 0.10599E+02 SP= -.13E+02 SK= 0.70E-02
   3688 T=   651. E= -.22857938E+03 F= -.22581020E+03 E0= -.22581020E+03  EK= 0.10682E+02 SP= -.13E+02 SK= 0.30E-02
   3689 T=   653. E= -.22857952E+03 F= -.22582588E+03 E0= -.22582588E+03  EK= 0.10728E+02 SP= -.13E+02 SK= 0.56E-03
   3690 T=   654. E= -.22857960E+03 F= -.22582452E+03 E0= -.22582452E+03  EK= 0.10732E+02 SP= -.13E+02 SK= 0.72E-04
   3691 T=   651. E= -.22857959E+03 F= -.22580500E+03 E0= -.22580500E+03  EK= 0.10694E+02 SP= -.13E+02 SK= 0.16E-02
   3692 T=   647. E= -.22857951E+03 F= -.22576658E+03 E0= -.22576658E+03  EK= 0.10614E+02 SP= -.13E+02 SK= 0.48E-02
   3693 T=   639. E= -.22857934E+03 F= -.22570916E+03 E0= -.22570916E+03  EK= 0.10495E+02 SP= -.13E+02 SK= 0.91E-02
   3694 T=   630. E= -.22857901E+03 F= -.22563372E+03 E0= -.22563372E+03  EK= 0.10342E+02 SP= -.13E+02 SK= 0.14E-01
   3695 T=   619. E= -.22857856E+03 F= -.22554308E+03 E0= -.22554308E+03  EK= 0.10162E+02 SP= -.13E+02 SK= 0.17E-01
   3696 T=   607. E= -.22857800E+03 F= -.22544204E+03 E0= -.22544204E+03  EK= 0.99643E+01 SP= -.13E+02 SK= 0.20E-01
   3697 T=   595. E= -.22857738E+03 F= -.22533738E+03 E0= -.22533738E+03  EK= 0.97621E+01 SP= -.13E+02 SK= 0.20E-01
   3698 T=   583. E= -.22857676E+03 F= -.22523724E+03 E0= -.22523724E+03  EK= 0.95681E+01 SP= -.13E+02 SK= 0.18E-01
   3699 T=   572. E= -.22857622E+03 F= -.22515025E+03 E0= -.22515025E+03  EK= 0.93952E+01 SP= -.13E+02 SK= 0.15E-01
   3700 T=   564. E= -.22857584E+03 F= -.22508432E+03 E0= -.22508432E+03  EK= 0.92548E+01 SP= -.13E+02 SK= 0.11E-01
   3701 T=   558. E= -.22857563E+03 F= -.22504552E+03 E0= -.22504552E+03  EK= 0.91557E+01 SP= -.13E+02 SK= 0.67E-02
   3702 T=   555. E= -.22857560E+03 F= -.22503729E+03 E0= -.22503729E+03  EK= 0.91029E+01 SP= -.13E+02 SK= 0.32E-02
   3703 T=   554. E= -.22857575E+03 F= -.22506008E+03 E0= -.22506008E+03  EK= 0.90976E+01 SP= -.13E+02 SK= 0.91E-03
   3704 T=   557. E= -.22857604E+03 F= -.22511141E+03 E0= -.22511141E+03  EK= 0.91374E+01 SP= -.13E+02 SK= 0.21E-04
   3705 T=   561. E= -.22857645E+03 F= -.22518627E+03 E0= -.22518627E+03  EK= 0.92166E+01 SP= -.13E+02 SK= 0.36E-03
   3706 T=   568. E= -.22857693E+03 F= -.22527774E+03 E0= -.22527774E+03  EK= 0.93265E+01 SP= -.13E+02 SK= 0.15E-02
   3707 T=   576. E= -.22857748E+03 F= -.22537772E+03 E0= -.22537772E+03  EK= 0.94571E+01 SP= -.13E+02 SK= 0.30E-02
   3708 T=   585. E= -.22857804E+03 F= -.22547752E+03 E0= -.22547752E+03  EK= 0.95969E+01 SP= -.13E+02 SK= 0.43E-02
   3709 T=   593. E= -.22857858E+03 F= -.22556852E+03 E0= -.22556852E+03  EK= 0.97343E+01 SP= -.13E+02 SK= 0.51E-02
   3710 T=   601. E= -.22857905E+03 F= -.22564288E+03 E0= -.22564288E+03  EK= 0.98581E+01 SP= -.13E+02 SK= 0.52E-02
   3711 T=   607. E= -.22857943E+03 F= -.22569424E+03 E0= -.22569424E+03  EK= 0.99590E+01 SP= -.13E+02 SK= 0.48E-02
   3712 T=   611. E= -.22857959E+03 F= -.22571835E+03 E0= -.22571835E+03  EK= 0.10030E+02 SP= -.13E+02 SK= 0.40E-02
   3713 T=   613. E= -.22857954E+03 F= -.22571400E+03 E0= -.22571400E+03  EK= 0.10068E+02 SP= -.13E+02 SK= 0.31E-02
   3714 T=   614. E= -.22857930E+03 F= -.22568333E+03 E0= -.22568333E+03  EK= 0.10074E+02 SP= -.13E+02 SK= 0.22E-02
   3715 T=   612. E= -.22857889E+03 F= -.22563133E+03 E0= -.22563133E+03  EK= 0.10053E+02 SP= -.13E+02 SK= 0.15E-02
   3716 T=   610. E= -.22857840E+03 F= -.22556529E+03 E0= -.22556529E+03  EK= 0.10013E+02 SP= -.13E+02 SK= 0.97E-03
   3717 T=   607. E= -.22857796E+03 F= -.22549365E+03 E0= -.22549365E+03  EK= 0.99614E+01 SP= -.13E+02 SK= 0.66E-03
   3718 T=   604. E= -.22857760E+03 F= -.22542436E+03 E0= -.22542436E+03  EK= 0.99093E+01 SP= -.13E+02 SK= 0.48E-03
   3719 T=   601. E= -.22857737E+03 F= -.22536397E+03 E0= -.22536397E+03  EK= 0.98638E+01 SP= -.13E+02 SK= 0.40E-03
   3720 T=   599. E= -.22857729E+03 F= -.22531699E+03 E0= -.22531699E+03  EK= 0.98307E+01 SP= -.13E+02 SK= 0.38E-03
   3721 T=   598. E= -.22857731E+03 F= -.22528581E+03 E0= -.22528581E+03  EK= 0.98133E+01 SP= -.13E+02 SK= 0.40E-03
   3722 T=   598. E= -.22857741E+03 F= -.22527104E+03 E0= -.22527104E+03  EK= 0.98125E+01 SP= -.13E+02 SK= 0.43E-03
   3723 T=   599. E= -.22857758E+03 F= -.22527187E+03 E0= -.22527187E+03  EK= 0.98277E+01 SP= -.13E+02 SK= 0.45E-03
   3724 T=   600. E= -.22857780E+03 F= -.22528633E+03 E0= -.22528633E+03  EK= 0.98565E+01 SP= -.13E+02 SK= 0.43E-03
   3725 T=   603. E= -.22857812E+03 F= -.22531132E+03 E0= -.22531132E+03  EK= 0.98952E+01 SP= -.13E+02 SK= 0.37E-03
   3726 T=   605. E= -.22857853E+03 F= -.22534237E+03 E0= -.22534237E+03  EK= 0.99382E+01 SP= -.13E+02 SK= 0.26E-03
   3727 T=   608. E= -.22857901E+03 F= -.22537355E+03 E0= -.22537355E+03  EK= 0.99787E+01 SP= -.13E+02 SK= 0.13E-03
   3728 T=   610. E= -.22857952E+03 F= -.22539776E+03 E0= -.22539776E+03  EK= 0.10008E+02 SP= -.13E+02 SK= 0.31E-04
   3729 T=   610. E= -.22857998E+03 F= -.22540748E+03 E0= -.22540748E+03  EK= 0.10019E+02 SP= -.13E+02 SK= 0.12E-05
   3730 T=   609. E= -.22858031E+03 F= -.22539581E+03 E0= -.22539581E+03  EK= 0.10004E+02 SP= -.13E+02 SK= 0.60E-04
   3731 T=   607. E= -.22858046E+03 F= -.22535770E+03 E0= -.22535770E+03  EK= 0.99584E+01 SP= -.13E+02 SK= 0.18E-03
   3732 T=   602. E= -.22858037E+03 F= -.22529072E+03 E0= -.22529072E+03  EK= 0.98809E+01 SP= -.13E+02 SK= 0.28E-03
   3733 T=   595. E= -.22858005E+03 F= -.22519591E+03 E0= -.22519591E+03  EK= 0.97747E+01 SP= -.13E+02 SK= 0.28E-03
   3734 T=   588. E= -.22857949E+03 F= -.22507803E+03 E0= -.22507803E+03  EK= 0.96471E+01 SP= -.13E+02 SK= 0.16E-03
   3735 T=   579. E= -.22857877E+03 F= -.22494543E+03 E0= -.22494543E+03  EK= 0.95096E+01 SP= -.13E+02 SK= 0.15E-04
   3736 T=   571. E= -.22857799E+03 F= -.22480897E+03 E0= -.22480897E+03  EK= 0.93759E+01 SP= -.13E+02 SK= 0.98E-04
   3737 T=   564. E= -.22857725E+03 F= -.22468066E+03 E0= -.22468066E+03  EK= 0.92610E+01 SP= -.13E+02 SK= 0.80E-03
   3738 T=   559. E= -.22857667E+03 F= -.22457207E+03 E0= -.22457207E+03  EK= 0.91785E+01 SP= -.13E+02 SK= 0.25E-02
   3739 T=   557. E= -.22857630E+03 F= -.22449245E+03 E0= -.22449245E+03  EK= 0.91396E+01 SP= -.13E+02 SK= 0.55E-02
   3740 T=   557. E= -.22857624E+03 F= -.22444738E+03 E0= -.22444738E+03  EK= 0.91507E+01 SP= -.13E+02 SK= 0.98E-02
   3741 T=   561. E= -.22857647E+03 F= -.22443771E+03 E0= -.22443771E+03  EK= 0.92127E+01 SP= -.13E+02 SK= 0.15E-01
   3742 T=   568. E= -.22857698E+03 F= -.22445955E+03 E0= -.22445955E+03  EK= 0.93208E+01 SP= -.13E+02 SK= 0.20E-01
   3743 T=   577. E= -.22857768E+03 F= -.22450477E+03 E0= -.22450477E+03  EK= 0.94654E+01 SP= -.14E+02 SK= 0.25E-01
   3744 T=   587. E= -.22857851E+03 F= -.22456254E+03 E0= -.22456254E+03  EK= 0.96328E+01 SP= -.14E+02 SK= 0.28E-01
   3745 T=   597. E= -.22857935E+03 F= -.22462078E+03 E0= -.22462078E+03  EK= 0.98075E+01 SP= -.14E+02 SK= 0.30E-01
   3746 T=   608. E= -.22858008E+03 F= -.22466799E+03 E0= -.22466799E+03  EK= 0.99739E+01 SP= -.14E+02 SK= 0.29E-01
   3747 T=   616. E= -.22858062E+03 F= -.22469487E+03 E0= -.22469487E+03  EK= 0.10118E+02 SP= -.14E+02 SK= 0.26E-01
   3748 T=   623. E= -.22858089E+03 F= -.22469564E+03 E0= -.22469564E+03  EK= 0.10231E+02 SP= -.14E+02 SK= 0.22E-01
   3749 T=   628. E= -.22858085E+03 F= -.22466874E+03 E0= -.22466874E+03  EK= 0.10308E+02 SP= -.14E+02 SK= 0.18E-01
   3750 T=   630. E= -.22858053E+03 F= -.22461718E+03 E0= -.22461718E+03  EK= 0.10348E+02 SP= -.14E+02 SK= 0.13E-01
   3751 T=   631. E= -.22858003E+03 F= -.22454781E+03 E0= -.22454781E+03  EK= 0.10357E+02 SP= -.14E+02 SK= 0.94E-02
   3752 T=   630. E= -.22857942E+03 F= -.22446996E+03 E0= -.22446996E+03  EK= 0.10344E+02 SP= -.14E+02 SK= 0.61E-02
   3753 T=   629. E= -.22857886E+03 F= -.22439398E+03 E0= -.22439398E+03  EK= 0.10320E+02 SP= -.15E+02 SK= 0.37E-02
   3754 T=   627. E= -.22857843E+03 F= -.22432931E+03 E0= -.22432931E+03  EK= 0.10294E+02 SP= -.15E+02 SK= 0.19E-02
   3755 T=   626. E= -.22857820E+03 F= -.22428316E+03 E0= -.22428316E+03  EK= 0.10274E+02 SP= -.15E+02 SK= 0.76E-03
   3756 T=   625. E= -.22857816E+03 F= -.22425977E+03 E0= -.22425977E+03  EK= 0.10265E+02 SP= -.15E+02 SK= 0.15E-03
   3757 T=   626. E= -.22857830E+03 F= -.22426018E+03 E0= -.22426018E+03  EK= 0.10268E+02 SP= -.15E+02 SK= 0.11E-04
   3758 T=   626. E= -.22857860E+03 F= -.22428241E+03 E0= -.22428241E+03  EK= 0.10282E+02 SP= -.15E+02 SK= 0.36E-03
   3759 T=   628. E= -.22857902E+03 F= -.22432180E+03 E0= -.22432180E+03  EK= 0.10301E+02 SP= -.15E+02 SK= 0.13E-02
   3760 T=   629. E= -.22857949E+03 F= -.22437149E+03 E0= -.22437149E+03  EK= 0.10318E+02 SP= -.15E+02 SK= 0.28E-02
   3761 T=   629. E= -.22857995E+03 F= -.22442340E+03 E0= -.22442340E+03  EK= 0.10325E+02 SP= -.14E+02 SK= 0.49E-02
   3762 T=   628. E= -.22858035E+03 F= -.22446909E+03 E0= -.22446909E+03  EK= 0.10312E+02 SP= -.14E+02 SK= 0.77E-02
   3763 T=   626. E= -.22858056E+03 F= -.22450100E+03 E0= -.22450100E+03  EK= 0.10274E+02 SP= -.14E+02 SK= 0.11E-01
   3764 T=   622. E= -.22858058E+03 F= -.22451377E+03 E0= -.22451377E+03  EK= 0.10206E+02 SP= -.14E+02 SK= 0.14E-01
   3765 T=   616. E= -.22858038E+03 F= -.22450478E+03 E0= -.22450478E+03  EK= 0.10107E+02 SP= -.14E+02 SK= 0.17E-01
   3766 T=   608. E= -.22858001E+03 F= -.22447474E+03 E0= -.22447474E+03  EK= 0.99816E+01 SP= -.14E+02 SK= 0.19E-01
   3767 T=   599. E= -.22857950E+03 F= -.22442730E+03 E0= -.22442730E+03  EK= 0.98364E+01 SP= -.14E+02 SK= 0.20E-01
   3768 T=   590. E= -.22857897E+03 F= -.22436846E+03 E0= -.22436846E+03  EK= 0.96811E+01 SP= -.14E+02 SK= 0.19E-01
   3769 T=   580. E= -.22857845E+03 F= -.22430542E+03 E0= -.22430542E+03  EK= 0.95268E+01 SP= -.14E+02 SK= 0.17E-01
   3770 T=   572. E= -.22857791E+03 F= -.22424612E+03 E0= -.22424612E+03  EK= 0.93849E+01 SP= -.14E+02 SK= 0.14E-01
   3771 T=   565. E= -.22857737E+03 F= -.22419926E+03 E0= -.22419926E+03  EK= 0.92670E+01 SP= -.14E+02 SK= 0.99E-02
   3772 T=   559. E= -.22857678E+03 F= -.22417413E+03 E0= -.22417413E+03  EK= 0.91846E+01 SP= -.14E+02 SK= 0.60E-02
   3773 T=   557. E= -.22857624E+03 F= -.22418048E+03 E0= -.22418048E+03  EK= 0.91489E+01 SP= -.14E+02 SK= 0.29E-02
   3774 T=   559. E= -.22857581E+03 F= -.22422723E+03 E0= -.22422723E+03  EK= 0.91691E+01 SP= -.14E+02 SK= 0.87E-03
   3775 T=   564. E= -.22857565E+03 F= -.22432082E+03 E0= -.22432082E+03  EK= 0.92509E+01 SP= -.14E+02 SK= 0.51E-04
   3776 T=   572. E= -.22857582E+03 F= -.22446331E+03 E0= -.22446331E+03  EK= 0.93946E+01 SP= -.14E+02 SK= 0.13E-03
   3777 T=   584. E= -.22857638E+03 F= -.22465136E+03 E0= -.22465136E+03  EK= 0.95938E+01 SP= -.14E+02 SK= 0.55E-03
   3778 T=   599. E= -.22857736E+03 F= -.22487554E+03 E0= -.22487554E+03  EK= 0.98346E+01 SP= -.14E+02 SK= 0.78E-03
   3779 T=   615. E= -.22857866E+03 F= -.22512058E+03 E0= -.22512058E+03  EK= 0.10096E+02 SP= -.14E+02 SK= 0.53E-03
   3780 T=   631. E= -.22858009E+03 F= -.22536693E+03 E0= -.22536693E+03  EK= 0.10353E+02 SP= -.14E+02 SK= 0.81E-04
   3781 T=   644. E= -.22858144E+03 F= -.22559346E+03 E0= -.22559346E+03  EK= 0.10576E+02 SP= -.14E+02 SK= 0.19E-03
   3782 T=   654. E= -.22858249E+03 F= -.22578034E+03 E0= -.22578034E+03  EK= 0.10740E+02 SP= -.14E+02 SK= 0.19E-02
   3783 T=   659. E= -.22858310E+03 F= -.22591161E+03 E0= -.22591161E+03  EK= 0.10824E+02 SP= -.14E+02 SK= 0.61E-02
   3784 T=   659. E= -.22858320E+03 F= -.22597698E+03 E0= -.22597698E+03  EK= 0.10816E+02 SP= -.13E+02 SK= 0.13E-01
   3785 T=   653. E= -.22858271E+03 F= -.22597273E+03 E0= -.22597273E+03  EK= 0.10712E+02 SP= -.13E+02 SK= 0.22E-01
   3786 T=   641. E= -.22858172E+03 F= -.22590253E+03 E0= -.22590253E+03  EK= 0.10521E+02 SP= -.13E+02 SK= 0.31E-01
   3787 T=   625. E= -.22858037E+03 F= -.22577702E+03 E0= -.22577702E+03  EK= 0.10260E+02 SP= -.13E+02 SK= 0.38E-01
   3788 T=   606. E= -.22857885E+03 F= -.22561247E+03 E0= -.22561247E+03  EK= 0.99525E+01 SP= -.13E+02 SK= 0.43E-01
   3789 T=   586. E= -.22857734E+03 F= -.22542875E+03 E0= -.22542875E+03  EK= 0.96276E+01 SP= -.13E+02 SK= 0.42E-01
   3790 T=   567. E= -.22857607E+03 F= -.22524703E+03 E0= -.22524703E+03  EK= 0.93140E+01 SP= -.13E+02 SK= 0.37E-01
   3791 T=   551. E= -.22857515E+03 F= -.22508678E+03 E0= -.22508678E+03  EK= 0.90376E+01 SP= -.13E+02 SK= 0.28E-01
   3792 T=   537. E= -.22857461E+03 F= -.22496350E+03 E0= -.22496350E+03  EK= 0.88188E+01 SP= -.12E+02 SK= 0.18E-01
   3793 T=   528. E= -.22857448E+03 F= -.22488739E+03 E0= -.22488739E+03  EK= 0.86707E+01 SP= -.12E+02 SK= 0.94E-02
   3794 T=   524. E= -.22857467E+03 F= -.22486239E+03 E0= -.22486239E+03  EK= 0.85995E+01 SP= -.12E+02 SK= 0.29E-02
   3795 T=   524. E= -.22857512E+03 F= -.22488671E+03 E0= -.22488671E+03  EK= 0.86039E+01 SP= -.12E+02 SK= 0.97E-04
   3796 T=   529. E= -.22857578E+03 F= -.22495349E+03 E0= -.22495349E+03  EK= 0.86771E+01 SP= -.12E+02 SK= 0.11E-02
   3797 T=   536. E= -.22857657E+03 F= -.22505200E+03 E0= -.22505200E+03  EK= 0.88071E+01 SP= -.12E+02 SK= 0.51E-02
   3798 T=   547. E= -.22857742E+03 F= -.22516908E+03 E0= -.22516908E+03  EK= 0.89791E+01 SP= -.12E+02 SK= 0.11E-01
   3799 T=   559. E= -.22857828E+03 F= -.22529069E+03 E0= -.22529069E+03  EK= 0.91761E+01 SP= -.12E+02 SK= 0.17E-01
   3800 T=   571. E= -.22857908E+03 F= -.22540328E+03 E0= -.22540328E+03  EK= 0.93812E+01 SP= -.13E+02 SK= 0.23E-01
   3801 T=   583. E= -.22857973E+03 F= -.22549508E+03 E0= -.22549508E+03  EK= 0.95784E+01 SP= -.13E+02 SK= 0.27E-01
   3802 T=   594. E= -.22858021E+03 F= -.22555742E+03 E0= -.22555742E+03  EK= 0.97546E+01 SP= -.13E+02 SK= 0.29E-01
   3803 T=   603. E= -.22858041E+03 F= -.22558529E+03 E0= -.22558529E+03  EK= 0.99004E+01 SP= -.13E+02 SK= 0.29E-01
   3804 T=   610. E= -.22858031E+03 F= -.22557839E+03 E0= -.22557839E+03  EK= 0.10012E+02 SP= -.13E+02 SK= 0.27E-01
   3805 T=   615. E= -.22857994E+03 F= -.22554109E+03 E0= -.22554109E+03  EK= 0.10089E+02 SP= -.13E+02 SK= 0.25E-01
   3806 T=   618. E= -.22857937E+03 F= -.22548178E+03 E0= -.22548178E+03  EK= 0.10139E+02 SP= -.13E+02 SK= 0.21E-01
   3807 T=   620. E= -.22857867E+03 F= -.22541176E+03 E0= -.22541176E+03  EK= 0.10171E+02 SP= -.13E+02 SK= 0.18E-01
   3808 T=   621. E= -.22857800E+03 F= -.22534368E+03 E0= -.22534368E+03  EK= 0.10197E+02 SP= -.13E+02 SK= 0.15E-01
   3809 T=   623. E= -.22857752E+03 F= -.22528946E+03 E0= -.22528946E+03  EK= 0.10226E+02 SP= -.14E+02 SK= 0.12E-01
   3810 T=   626. E= -.22857736E+03 F= -.22525783E+03 E0= -.22525783E+03  EK= 0.10269E+02 SP= -.14E+02 SK= 0.88E-02
   3811 T=   629. E= -.22857760E+03 F= -.22525242E+03 E0= -.22525242E+03  EK= 0.10326E+02 SP= -.14E+02 SK= 0.60E-02
   3812 T=   633. E= -.22857822E+03 F= -.22527078E+03 E0= -.22527078E+03  EK= 0.10393E+02 SP= -.14E+02 SK= 0.35E-02
   3813 T=   637. E= -.22857910E+03 F= -.22530476E+03 E0= -.22530476E+03  EK= 0.10462E+02 SP= -.14E+02 SK= 0.14E-02
   3814 T=   641. E= -.22858008E+03 F= -.22534209E+03 E0= -.22534209E+03  EK= 0.10518E+02 SP= -.14E+02 SK= 0.19E-03
   3815 T=   642. E= -.22858092E+03 F= -.22536883E+03 E0= -.22536883E+03  EK= 0.10544E+02 SP= -.14E+02 SK= 0.13E-03
   3816 T=   641. E= -.22858150E+03 F= -.22537240E+03 E0= -.22537240E+03  EK= 0.10530E+02 SP= -.14E+02 SK= 0.13E-02
   3817 T=   637. E= -.22858170E+03 F= -.22534358E+03 E0= -.22534358E+03  EK= 0.10464E+02 SP= -.14E+02 SK= 0.37E-02
   3818 T=   630. E= -.22858153E+03 F= -.22527801E+03 E0= -.22527801E+03  EK= 0.10346E+02 SP= -.14E+02 SK= 0.66E-02
   3819 T=   620. E= -.22858101E+03 F= -.22517670E+03 E0= -.22517670E+03  EK= 0.10181E+02 SP= -.14E+02 SK= 0.94E-02
   3820 T=   608. E= -.22858024E+03 F= -.22504564E+03 E0= -.22504564E+03  EK= 0.99775E+01 SP= -.14E+02 SK= 0.11E-01
   3821 T=   594. E= -.22857935E+03 F= -.22489481E+03 E0= -.22489481E+03  EK= 0.97527E+01 SP= -.13E+02 SK= 0.12E-01
   3822 T=   580. E= -.22857846E+03 F= -.22473656E+03 E0= -.22473656E+03  EK= 0.95241E+01 SP= -.13E+02 SK= 0.10E-01
   3823 T=   567. E= -.22857768E+03 F= -.22458403E+03 E0= -.22458403E+03  EK= 0.93100E+01 SP= -.13E+02 SK= 0.74E-02
   3824 T=   556. E= -.22857705E+03 F= -.22444961E+03 E0= -.22444961E+03  EK= 0.91271E+01 SP= -.13E+02 SK= 0.41E-02
   3825 T=   548. E= -.22857658E+03 F= -.22434394E+03 E0= -.22434394E+03  EK= 0.89896E+01 SP= -.13E+02 SK= 0.13E-02
   3826 T=   543. E= -.22857629E+03 F= -.22427524E+03 E0= -.22427524E+03  EK= 0.89081E+01 SP= -.13E+02 SK= 0.24E-04
   3827 T=   542. E= -.22857615E+03 F= -.22424891E+03 E0= -.22424891E+03  EK= 0.88893E+01 SP= -.13E+02 SK= 0.81E-03
   3828 T=   544. E= -.22857614E+03 F= -.22426744E+03 E0= -.22426744E+03  EK= 0.89363E+01 SP= -.13E+02 SK= 0.38E-02
   3829 T=   551. E= -.22857631E+03 F= -.22433043E+03 E0= -.22433043E+03  EK= 0.90478E+01 SP= -.13E+02 SK= 0.84E-02
   3830 T=   562. E= -.22857666E+03 F= -.22443437E+03 E0= -.22443437E+03  EK= 0.92187E+01 SP= -.13E+02 SK= 0.14E-01
   3831 T=   575. E= -.22857721E+03 F= -.22457271E+03 E0= -.22457271E+03  EK= 0.94395E+01 SP= -.13E+02 SK= 0.18E-01
   3832 T=   591. E= -.22857795E+03 F= -.22473606E+03 E0= -.22473606E+03  EK= 0.96966E+01 SP= -.14E+02 SK= 0.21E-01
   3833 T=   608. E= -.22857878E+03 F= -.22491306E+03 E0= -.22491306E+03  EK= 0.99732E+01 SP= -.14E+02 SK= 0.21E-01
   3834 T=   624. E= -.22857963E+03 F= -.22509180E+03 E0= -.22509180E+03  EK= 0.10251E+02 SP= -.14E+02 SK= 0.18E-01
   3835 T=   640. E= -.22858040E+03 F= -.22526107E+03 E0= -.22526107E+03  EK= 0.10510E+02 SP= -.14E+02 SK= 0.13E-01
   3836 T=   654. E= -.22858107E+03 F= -.22541140E+03 E0= -.22541140E+03  EK= 0.10735E+02 SP= -.14E+02 SK= 0.73E-02
   3837 T=   665. E= -.22858160E+03 F= -.22553527E+03 E0= -.22553527E+03  EK= 0.10911E+02 SP= -.14E+02 SK= 0.25E-02
   3838 T=   672. E= -.22858197E+03 F= -.22562696E+03 E0= -.22562696E+03  EK= 0.11025E+02 SP= -.14E+02 SK= 0.84E-04
   3839 T=   674. E= -.22858214E+03 F= -.22568231E+03 E0= -.22568231E+03  EK= 0.11070E+02 SP= -.14E+02 SK= 0.12E-02
   3840 T=   673. E= -.22858205E+03 F= -.22569890E+03 E0= -.22569890E+03  EK= 0.11043E+02 SP= -.14E+02 SK= 0.62E-02
   3841 T=   667. E= -.22858169E+03 F= -.22567678E+03 E0= -.22567678E+03  EK= 0.10943E+02 SP= -.14E+02 SK= 0.14E-01
   3842 T=   657. E= -.22858103E+03 F= -.22561875E+03 E0= -.22561875E+03  EK= 0.10779E+02 SP= -.14E+02 SK= 0.25E-01
   3843 T=   643. E= -.22858011E+03 F= -.22553098E+03 E0= -.22553098E+03  EK= 0.10562E+02 SP= -.14E+02 SK= 0.35E-01
   3844 T=   628. E= -.22857910E+03 F= -.22542296E+03 E0= -.22542296E+03  EK= 0.10308E+02 SP= -.14E+02 SK= 0.44E-01
   3845 T=   611. E= -.22857805E+03 F= -.22530645E+03 E0= -.22530645E+03  EK= 0.10037E+02 SP= -.13E+02 SK= 0.49E-01
   3846 T=   595. E= -.22857716E+03 F= -.22519423E+03 E0= -.22519423E+03  EK= 0.97695E+01 SP= -.13E+02 SK= 0.50E-01
   3847 T=   580. E= -.22857653E+03 F= -.22509810E+03 E0= -.22509810E+03  EK= 0.95233E+01 SP= -.13E+02 SK= 0.47E-01
   3848 T=   567. E= -.22857621E+03 F= -.22502711E+03 E0= -.22502711E+03  EK= 0.93127E+01 SP= -.13E+02 SK= 0.41E-01
   3849 T=   557. E= -.22857619E+03 F= -.22498635E+03 E0= -.22498635E+03  EK= 0.91468E+01 SP= -.13E+02 SK= 0.33E-01
   3850 T=   550. E= -.22857644E+03 F= -.22497665E+03 E0= -.22497665E+03  EK= 0.90291E+01 SP= -.13E+02 SK= 0.24E-01
   3851 T=   546. E= -.22857691E+03 F= -.22499468E+03 E0= -.22499468E+03  EK= 0.89581E+01 SP= -.13E+02 SK= 0.15E-01
   3852 T=   544. E= -.22857750E+03 F= -.22503363E+03 E0= -.22503363E+03  EK= 0.89278E+01 SP= -.12E+02 SK= 0.85E-02
   3853 T=   544. E= -.22857815E+03 F= -.22508443E+03 E0= -.22508443E+03  EK= 0.89297E+01 SP= -.12E+02 SK= 0.36E-02
   3854 T=   545. E= -.22857876E+03 F= -.22513709E+03 E0= -.22513709E+03  EK= 0.89535E+01 SP= -.12E+02 SK= 0.82E-03
   3855 T=   548. E= -.22857925E+03 F= -.22518212E+03 E0= -.22518212E+03  EK= 0.89895E+01 SP= -.12E+02 SK= 0.32E-05
   3856 T=   550. E= -.22857959E+03 F= -.22521180E+03 E0= -.22521180E+03  EK= 0.90293E+01 SP= -.12E+02 SK= 0.95E-03
   3857 T=   552. E= -.22857976E+03 F= -.22522097E+03 E0= -.22522097E+03  EK= 0.90670E+01 SP= -.12E+02 SK= 0.34E-02
   3858 T=   554. E= -.22857972E+03 F= -.22520764E+03 E0= -.22520764E+03  EK= 0.90999E+01 SP= -.12E+02 SK= 0.72E-02
   3859 T=   556. E= -.22857948E+03 F= -.22517332E+03 E0= -.22517332E+03  EK= 0.91289E+01 SP= -.13E+02 SK= 0.12E-01
   3860 T=   558. E= -.22857913E+03 F= -.22512261E+03 E0= -.22512261E+03  EK= 0.91579E+01 SP= -.13E+02 SK= 0.18E-01
   3861 T=   560. E= -.22857871E+03 F= -.22506221E+03 E0= -.22506221E+03  EK= 0.91930E+01 SP= -.13E+02 SK= 0.25E-01
   3862 T=   563. E= -.22857828E+03 F= -.22500003E+03 E0= -.22500003E+03  EK= 0.92415E+01 SP= -.13E+02 SK= 0.32E-01
   3863 T=   567. E= -.22857793E+03 F= -.22494398E+03 E0= -.22494398E+03  EK= 0.93105E+01 SP= -.13E+02 SK= 0.40E-01
   3864 T=   573. E= -.22857775E+03 F= -.22490057E+03 E0= -.22490057E+03  EK= 0.94051E+01 SP= -.13E+02 SK= 0.47E-01
   3865 T=   580. E= -.22857778E+03 F= -.22487372E+03 E0= -.22487372E+03  EK= 0.95277E+01 SP= -.13E+02 SK= 0.53E-01
   3866 T=   589. E= -.22857809E+03 F= -.22486415E+03 E0= -.22486415E+03  EK= 0.96766E+01 SP= -.13E+02 SK= 0.56E-01
   3867 T=   600. E= -.22857863E+03 F= -.22486891E+03 E0= -.22486891E+03  EK= 0.98460E+01 SP= -.14E+02 SK= 0.58E-01
   3868 T=   611. E= -.22857942E+03 F= -.22488168E+03 E0= -.22488168E+03  EK= 0.10026E+02 SP= -.14E+02 SK= 0.56E-01
   3869 T=   621. E= -.22858031E+03 F= -.22489354E+03 E0= -.22489354E+03  EK= 0.10202E+02 SP= -.14E+02 SK= 0.51E-01
   3870 T=   631. E= -.22858117E+03 F= -.22489458E+03 E0= -.22489458E+03  EK= 0.10362E+02 SP= -.14E+02 SK= 0.44E-01
   3871 T=   639. E= -.22858187E+03 F= -.22487587E+03 E0= -.22487587E+03  EK= 0.10489E+02 SP= -.14E+02 SK= 0.35E-01
   3872 T=   644. E= -.22858225E+03 F= -.22483134E+03 E0= -.22483134E+03  EK= 0.10576E+02 SP= -.14E+02 SK= 0.27E-01
   3873 T=   647. E= -.22858220E+03 F= -.22475948E+03 E0= -.22475948E+03  EK= 0.10616E+02 SP= -.14E+02 SK= 0.18E-01
   3874 T=   647. E= -.22858168E+03 F= -.22466476E+03 E0= -.22466476E+03  EK= 0.10613E+02 SP= -.15E+02 SK= 0.11E-01
   3875 T=   644. E= -.22858079E+03 F= -.22455781E+03 E0= -.22455781E+03  EK= 0.10577E+02 SP= -.15E+02 SK= 0.63E-02
   3876 T=   641. E= -.22857967E+03 F= -.22445406E+03 E0= -.22445406E+03  EK= 0.10525E+02 SP= -.15E+02 SK= 0.29E-02
   3877 T=   638. E= -.22857860E+03 F= -.22437141E+03 E0= -.22437141E+03  EK= 0.10474E+02 SP= -.15E+02 SK= 0.91E-03
   3878 T=   636. E= -.22857788E+03 F= -.22432621E+03 E0= -.22432621E+03  EK= 0.10444E+02 SP= -.15E+02 SK= 0.62E-04
   3879 T=   636. E= -.22857766E+03 F= -.22432953E+03 E0= -.22432953E+03  EK= 0.10445E+02 SP= -.15E+02 SK= 0.19E-03
   3880 T=   638. E= -.22857800E+03 F= -.22438486E+03 E0= -.22438486E+03  EK= 0.10482E+02 SP= -.15E+02 SK= 0.13E-02
   3881 T=   642. E= -.22857881E+03 F= -.22448718E+03 E0= -.22448718E+03  EK= 0.10547E+02 SP= -.15E+02 SK= 0.36E-02
   3882 T=   647. E= -.22857994E+03 F= -.22462408E+03 E0= -.22462408E+03  EK= 0.10627E+02 SP= -.15E+02 SK= 0.76E-02
   3883 T=   652. E= -.22858115E+03 F= -.22477799E+03 E0= -.22477799E+03  EK= 0.10703E+02 SP= -.15E+02 SK= 0.14E-01
   3884 T=   655. E= -.22858218E+03 F= -.22492946E+03 E0= -.22492946E+03  EK= 0.10752E+02 SP= -.14E+02 SK= 0.22E-01
   3885 T=   655. E= -.22858283E+03 F= -.22506061E+03 E0= -.22506061E+03  EK= 0.10756E+02 SP= -.14E+02 SK= 0.33E-01
   3886 T=   652. E= -.22858299E+03 F= -.22515806E+03 E0= -.22515806E+03  EK= 0.10701E+02 SP= -.14E+02 SK= 0.46E-01
   3887 T=   645. E= -.22858259E+03 F= -.22521465E+03 E0= -.22521465E+03  EK= 0.10585E+02 SP= -.14E+02 SK= 0.60E-01
   3888 T=   634. E= -.22858170E+03 F= -.22523046E+03 E0= -.22523046E+03  EK= 0.10410E+02 SP= -.14E+02 SK= 0.72E-01
   3889 T=   621. E= -.22858052E+03 F= -.22521257E+03 E0= -.22521257E+03  EK= 0.10191E+02 SP= -.14E+02 SK= 0.81E-01
   3890 T=   606. E= -.22857921E+03 F= -.22517330E+03 E0= -.22517330E+03  EK= 0.99462E+01 SP= -.13E+02 SK= 0.87E-01
   3891 T=   591. E= -.22857796E+03 F= -.22512805E+03 E0= -.22512805E+03  EK= 0.96974E+01 SP= -.13E+02 SK= 0.86E-01
   3892 T=   577. E= -.22857694E+03 F= -.22509275E+03 E0= -.22509275E+03  EK= 0.94665E+01 SP= -.13E+02 SK= 0.81E-01
   3893 T=   565. E= -.22857624E+03 F= -.22508142E+03 E0= -.22508142E+03  EK= 0.92721E+01 SP= -.13E+02 SK= 0.72E-01
   3894 T=   556. E= -.22857592E+03 F= -.22510420E+03 E0= -.22510420E+03  EK= 0.91277E+01 SP= -.13E+02 SK= 0.60E-01
   3895 T=   551. E= -.22857601E+03 F= -.22516598E+03 E0= -.22516598E+03  EK= 0.90399E+01 SP= -.12E+02 SK= 0.48E-01
   3896 T=   549. E= -.22857643E+03 F= -.22526557E+03 E0= -.22526557E+03  EK= 0.90083E+01 SP= -.12E+02 SK= 0.36E-01
   3897 T=   550. E= -.22857711E+03 F= -.22539622E+03 E0= -.22539622E+03  EK= 0.90261E+01 SP= -.12E+02 SK= 0.26E-01
   3898 T=   553. E= -.22857793E+03 F= -.22554684E+03 E0= -.22554684E+03  EK= 0.90814E+01 SP= -.12E+02 SK= 0.18E-01
   3899 T=   558. E= -.22857878E+03 F= -.22570363E+03 E0= -.22570363E+03  EK= 0.91593E+01 SP= -.12E+02 SK= 0.12E-01
   3900 T=   563. E= -.22857953E+03 F= -.22585219E+03 E0= -.22585219E+03  EK= 0.92438E+01 SP= -.12E+02 SK= 0.74E-02
   3901 T=   568. E= -.22858007E+03 F= -.22597961E+03 E0= -.22597961E+03  EK= 0.93205E+01 SP= -.12E+02 SK= 0.44E-02
   3902 T=   571. E= -.22858035E+03 F= -.22607634E+03 E0= -.22607634E+03  EK= 0.93784E+01 SP= -.12E+02 SK= 0.25E-02
   3903 T=   573. E= -.22858032E+03 F= -.22613733E+03 E0= -.22613733E+03  EK= 0.94113E+01 SP= -.12E+02 SK= 0.12E-02
   3904 T=   574. E= -.22858002E+03 F= -.22616246E+03 E0= -.22616246E+03  EK= 0.94185E+01 SP= -.12E+02 SK= 0.40E-03
   3905 T=   573. E= -.22857946E+03 F= -.22615621E+03 E0= -.22615621E+03  EK= 0.94043E+01 SP= -.12E+02 SK= 0.29E-04
   3906 T=   571. E= -.22857881E+03 F= -.22612692E+03 E0= -.22612692E+03  EK= 0.93772E+01 SP= -.12E+02 SK= 0.10E-03
   3907 T=   569. E= -.22857813E+03 F= -.22608495E+03 E0= -.22608495E+03  EK= 0.93481E+01 SP= -.12E+02 SK= 0.71E-03
   3908 T=   568. E= -.22857753E+03 F= -.22604124E+03 E0= -.22604124E+03  EK= 0.93285E+01 SP= -.12E+02 SK= 0.19E-02
   3909 T=   568. E= -.22857712E+03 F= -.22600561E+03 E0= -.22600561E+03  EK= 0.93284E+01 SP= -.12E+02 SK= 0.38E-02
   3910 T=   570. E= -.22857691E+03 F= -.22598523E+03 E0= -.22598523E+03  EK= 0.93551E+01 SP= -.12E+02 SK= 0.63E-02
   3911 T=   573. E= -.22857698E+03 F= -.22598387E+03 E0= -.22598387E+03  EK= 0.94119E+01 SP= -.12E+02 SK= 0.91E-02
   3912 T=   579. E= -.22857724E+03 F= -.22600139E+03 E0= -.22600139E+03  EK= 0.94976E+01 SP= -.12E+02 SK= 0.12E-01
   3913 T=   585. E= -.22857763E+03 F= -.22603443E+03 E0= -.22603443E+03  EK= 0.96074E+01 SP= -.12E+02 SK= 0.14E-01
   3914 T=   593. E= -.22857802E+03 F= -.22607790E+03 E0= -.22607790E+03  EK= 0.97339E+01 SP= -.12E+02 SK= 0.15E-01
   3915 T=   601. E= -.22857838E+03 F= -.22612663E+03 E0= -.22612663E+03  EK= 0.98692E+01 SP= -.12E+02 SK= 0.16E-01
   3916 T=   610. E= -.22857860E+03 F= -.22617633E+03 E0= -.22617633E+03  EK= 0.10006E+02 SP= -.12E+02 SK= 0.15E-01
   3917 T=   618. E= -.22857874E+03 F= -.22622441E+03 E0= -.22622441E+03  EK= 0.10137E+02 SP= -.13E+02 SK= 0.13E-01
   3918 T=   625. E= -.22857884E+03 F= -.22626957E+03 E0= -.22626957E+03  EK= 0.10259E+02 SP= -.13E+02 SK= 0.99E-02
 bond charge predicted
       N       E                     dE             d eps       ncg     rms          rms(c)
DAV:   1    -0.225805577118E+03   -0.50831E+00   -0.18911E+03   264   0.633E+01
DAV:   2    -0.237103921971E+03   -0.11298E+02   -0.11144E+02   360   0.159E+01
DAV:   3    -0.237355676245E+03   -0.25175E+00   -0.25138E+00   324   0.259E+00
DAV:   4    -0.237361791273E+03   -0.61150E-02   -0.61127E-02   348   0.404E-01
DAV:   5    -0.237362021033E+03   -0.22976E-03   -0.22974E-03   300   0.825E-02    0.834E+00
RMM:   6    -0.227974261731E+03    0.93878E+01   -0.12079E+01   264   0.246E+00    0.417E+00
RMM:   7    -0.226609033244E+03    0.13652E+01   -0.26056E+00   264   0.179E+00    0.260E+00
RMM:   8    -0.226069256395E+03    0.53978E+00   -0.10261E+00   264   0.108E+00    0.132E+00
RMM:   9    -0.226035394418E+03    0.33862E-01   -0.38355E-01   264   0.707E-01    0.706E-01
RMM:  10    -0.226029265708E+03    0.61287E-02   -0.98591E-02   269   0.424E-01    0.429E-01
RMM:  11    -0.226028133522E+03    0.11322E-02   -0.28742E-02   268   0.240E-01    0.209E-01
RMM:  12    -0.226028792913E+03   -0.65939E-03   -0.82293E-03   269   0.141E-01    0.881E-02
RMM:  13    -0.226028782217E+03    0.10696E-04   -0.20599E-03   270   0.700E-02    0.499E-02
RMM:  14    -0.226028741902E+03    0.40315E-04   -0.53049E-04   251   0.379E-02
   3919 T=   632. E= -.22829544E+03 F= -.22602874E+03 E0= -.22599650E+03  EK= 0.10369E+02 SP= -.13E+02 SK= 0.68E-02
   3920 T=   637. E= -.22857590E+03 F= -.22634779E+03 E0= -.22634779E+03  EK= 0.10460E+02 SP= -.13E+02 SK= 0.38E-02
   3921 T=   641. E= -.22857622E+03 F= -.22637602E+03 E0= -.22637602E+03  EK= 0.10525E+02 SP= -.13E+02 SK= 0.14E-02
   3922 T=   643. E= -.22857652E+03 F= -.22639122E+03 E0= -.22639122E+03  EK= 0.10559E+02 SP= -.13E+02 SK= 0.15E-03
   3923 T=   643. E= -.22857673E+03 F= -.22638880E+03 E0= -.22638880E+03  EK= 0.10556E+02 SP= -.13E+02 SK= 0.19E-03
   3924 T=   640. E= -.22857675E+03 F= -.22636520E+03 E0= -.22636520E+03  EK= 0.10512E+02 SP= -.13E+02 SK= 0.15E-02
   3925 T=   635. E= -.22857654E+03 F= -.22631909E+03 E0= -.22631909E+03  EK= 0.10429E+02 SP= -.13E+02 SK= 0.39E-02
   3926 T=   628. E= -.22857609E+03 F= -.22625210E+03 E0= -.22625210E+03  EK= 0.10309E+02 SP= -.13E+02 SK= 0.66E-02
   3927 T=   619. E= -.22857548E+03 F= -.22616890E+03 E0= -.22616890E+03  EK= 0.10162E+02 SP= -.13E+02 SK= 0.92E-02
   3928 T=   609. E= -.22857481E+03 F= -.22607637E+03 E0= -.22607637E+03  EK= 0.99984E+01 SP= -.13E+02 SK= 0.11E-01
   3929 T=   599. E= -.22857420E+03 F= -.22598229E+03 E0= -.22598229E+03  EK= 0.98300E+01 SP= -.12E+02 SK= 0.12E-01
   3930 T=   589. E= -.22857375E+03 F= -.22589387E+03 E0= -.22589387E+03  EK= 0.96684E+01 SP= -.12E+02 SK= 0.11E-01
   3931 T=   580. E= -.22857350E+03 F= -.22581647E+03 E0= -.22581647E+03  EK= 0.95227E+01 SP= -.12E+02 SK= 0.93E-02
   3932 T=   573. E= -.22857344E+03 F= -.22575275E+03 E0= -.22575275E+03  EK= 0.93987E+01 SP= -.12E+02 SK= 0.69E-02
   3933 T=   566. E= -.22857355E+03 F= -.22570270E+03 E0= -.22570270E+03  EK= 0.92991E+01 SP= -.12E+02 SK= 0.44E-02
   3934 T=   562. E= -.22857374E+03 F= -.22566409E+03 E0= -.22566409E+03  EK= 0.92235E+01 SP= -.12E+02 SK= 0.21E-02
   3935 T=   559. E= -.22857398E+03 F= -.22563331E+03 E0= -.22563331E+03  EK= 0.91701E+01 SP= -.12E+02 SK= 0.53E-03
   3936 T=   557. E= -.22857420E+03 F= -.22560632E+03 E0= -.22560632E+03  EK= 0.91357E+01 SP= -.12E+02 SK= 0.11E-05
   3937 T=   555. E= -.22857432E+03 F= -.22557960E+03 E0= -.22557960E+03  EK= 0.91176E+01 SP= -.12E+02 SK= 0.68E-03
   3938 T=   555. E= -.22857439E+03 F= -.22555090E+03 E0= -.22555090E+03  EK= 0.91140E+01 SP= -.12E+02 SK= 0.27E-02
   3939 T=   556. E= -.22857440E+03 F= -.22551920E+03 E0= -.22551920E+03  EK= 0.91237E+01 SP= -.12E+02 SK= 0.59E-02
   3940 T=   557. E= -.22857435E+03 F= -.22548453E+03 E0= -.22548453E+03  EK= 0.91469E+01 SP= -.12E+02 SK= 0.10E-01
   3941 T=   559. E= -.22857435E+03 F= -.22544786E+03 E0= -.22544786E+03  EK= 0.91840E+01 SP= -.12E+02 SK= 0.16E-01
   3942 T=   563. E= -.22857443E+03 F= -.22540986E+03 E0= -.22540986E+03  EK= 0.92350E+01 SP= -.12E+02 SK= 0.22E-01
   3943 T=   566. E= -.22857459E+03 F= -.22537035E+03 E0= -.22537035E+03  EK= 0.92988E+01 SP= -.13E+02 SK= 0.28E-01
   3944 T=   571. E= -.22857485E+03 F= -.22532809E+03 E0= -.22532809E+03  EK= 0.93730E+01 SP= -.13E+02 SK= 0.34E-01
   3945 T=   576. E= -.22857518E+03 F= -.22528092E+03 E0= -.22528092E+03  EK= 0.94540E+01 SP= -.13E+02 SK= 0.40E-01
   3946 T=   581. E= -.22857556E+03 F= -.22522590E+03 E0= -.22522590E+03  EK= 0.95372E+01 SP= -.13E+02 SK= 0.45E-01
   3947 T=   586. E= -.22857589E+03 F= -.22516002E+03 E0= -.22516002E+03  EK= 0.96179E+01 SP= -.13E+02 SK= 0.49E-01
   3948 T=   590. E= -.22857612E+03 F= -.22508124E+03 E0= -.22508124E+03  EK= 0.96921E+01 SP= -.13E+02 SK= 0.51E-01
   3949 T=   594. E= -.22857619E+03 F= -.22498942E+03 E0= -.22498942E+03  EK= 0.97580E+01 SP= -.13E+02 SK= 0.53E-01
   3950 T=   598. E= -.22857607E+03 F= -.22488714E+03 E0= -.22488714E+03  EK= 0.98163E+01 SP= -.14E+02 SK= 0.54E-01
   3951 T=   601. E= -.22857571E+03 F= -.22478009E+03 E0= -.22478009E+03  EK= 0.98714E+01 SP= -.14E+02 SK= 0.54E-01
   3952 T=   605. E= -.22857524E+03 F= -.22467694E+03 E0= -.22467694E+03  EK= 0.99303E+01 SP= -.14E+02 SK= 0.52E-01
   3953 T=   609. E= -.22857475E+03 F= -.22458781E+03 E0= -.22458781E+03  EK= 0.10002E+02 SP= -.14E+02 SK= 0.50E-01
   3954 T=   615. E= -.22857439E+03 F= -.22452272E+03 E0= -.22452272E+03  EK= 0.10094E+02 SP= -.14E+02 SK= 0.47E-01
   3955 T=   622. E= -.22857430E+03 F= -.22448947E+03 E0= -.22448947E+03  EK= 0.10212E+02 SP= -.14E+02 SK= 0.42E-01
   3956 T=   631. E= -.22857450E+03 F= -.22449190E+03 E0= -.22449190E+03  EK= 0.10358E+02 SP= -.14E+02 SK= 0.36E-01
   3957 T=   641. E= -.22857508E+03 F= -.22452914E+03 E0= -.22452914E+03  EK= 0.10527E+02 SP= -.15E+02 SK= 0.28E-01
   3958 T=   652. E= -.22857595E+03 F= -.22459510E+03 E0= -.22459510E+03  EK= 0.10708E+02 SP= -.15E+02 SK= 0.19E-01
   3959 T=   663. E= -.22857706E+03 F= -.22467920E+03 E0= -.22467920E+03  EK= 0.10884E+02 SP= -.15E+02 SK= 0.11E-01
   3960 T=   672. E= -.22857824E+03 F= -.22476744E+03 E0= -.22476744E+03  EK= 0.11037E+02 SP= -.15E+02 SK= 0.42E-02
   3961 T=   679. E= -.22857932E+03 F= -.22484430E+03 E0= -.22484430E+03  EK= 0.11146E+02 SP= -.15E+02 SK= 0.37E-03
   3962 T=   682. E= -.22858012E+03 F= -.22489494E+03 E0= -.22489494E+03  EK= 0.11192E+02 SP= -.15E+02 SK= 0.82E-03
   3963 T=   680. E= -.22858045E+03 F= -.22490744E+03 E0= -.22490744E+03  EK= 0.11162E+02 SP= -.15E+02 SK= 0.59E-02
   3964 T=   673. E= -.22858021E+03 F= -.22487513E+03 E0= -.22487513E+03  EK= 0.11051E+02 SP= -.15E+02 SK= 0.15E-01
   3965 T=   662. E= -.22857940E+03 F= -.22479809E+03 E0= -.22479809E+03  EK= 0.10864E+02 SP= -.15E+02 SK= 0.27E-01
   3966 T=   647. E= -.22857812E+03 F= -.22468353E+03 E0= -.22468353E+03  EK= 0.10613E+02 SP= -.15E+02 SK= 0.39E-01
   3967 T=   629. E= -.22857660E+03 F= -.22454521E+03 E0= -.22454521E+03  EK= 0.10322E+02 SP= -.14E+02 SK= 0.48E-01
   3968 T=   610. E= -.22857502E+03 F= -.22440149E+03 E0= -.22440149E+03  EK= 0.10017E+02 SP= -.14E+02 SK= 0.53E-01
   3969 T=   593. E= -.22857362E+03 F= -.22427281E+03 E0= -.22427281E+03  EK= 0.97279E+01 SP= -.14E+02 SK= 0.54E-01
   3970 T=   577. E= -.22857259E+03 F= -.22417839E+03 E0= -.22417839E+03  EK= 0.94790E+01 SP= -.14E+02 SK= 0.50E-01
   3971 T=   566. E= -.22857204E+03 F= -.22413327E+03 E0= -.22413327E+03  EK= 0.92908E+01 SP= -.14E+02 SK= 0.43E-01
   3972 T=   559. E= -.22857197E+03 F= -.22414620E+03 E0= -.22414620E+03  EK= 0.91748E+01 SP= -.14E+02 SK= 0.35E-01
   3973 T=   556. E= -.22857237E+03 F= -.22421857E+03 E0= -.22421857E+03  EK= 0.91338E+01 SP= -.14E+02 SK= 0.26E-01
   3974 T=   558. E= -.22857313E+03 F= -.22434436E+03 E0= -.22434436E+03  EK= 0.91618E+01 SP= -.13E+02 SK= 0.19E-01
   3975 T=   563. E= -.22857413E+03 F= -.22451141E+03 E0= -.22451141E+03  EK= 0.92455E+01 SP= -.13E+02 SK= 0.13E-01
   3976 T=   571. E= -.22857520E+03 F= -.22470331E+03 E0= -.22470331E+03  EK= 0.93667E+01 SP= -.13E+02 SK= 0.93E-02
   3977 T=   579. E= -.22857622E+03 F= -.22490193E+03 E0= -.22490193E+03  EK= 0.95046E+01 SP= -.13E+02 SK= 0.68E-02
   3978 T=   587. E= -.22857710E+03 F= -.22508981E+03 E0= -.22508981E+03  EK= 0.96388E+01 SP= -.13E+02 SK= 0.54E-02
   3979 T=   594. E= -.22857771E+03 F= -.22525191E+03 E0= -.22525191E+03  EK= 0.97515E+01 SP= -.13E+02 SK= 0.47E-02
   3980 T=   599. E= -.22857801E+03 F= -.22537711E+03 E0= -.22537711E+03  EK= 0.98291E+01 SP= -.13E+02 SK= 0.46E-02
   3981 T=   601. E= -.22857797E+03 F= -.22545919E+03 E0= -.22545919E+03  EK= 0.98637E+01 SP= -.13E+02 SK= 0.47E-02
   3982 T=   600. E= -.22857764E+03 F= -.22549698E+03 E0= -.22549698E+03  EK= 0.98535E+01 SP= -.13E+02 SK= 0.49E-02
   3983 T=   597. E= -.22857708E+03 F= -.22549393E+03 E0= -.22549393E+03  EK= 0.98023E+01 SP= -.13E+02 SK= 0.49E-02
   3984 T=   592. E= -.22857642E+03 F= -.22545706E+03 E0= -.22545706E+03  EK= 0.97185E+01 SP= -.13E+02 SK= 0.46E-02
   3985 T=   586. E= -.22857569E+03 F= -.22539574E+03 E0= -.22539574E+03  EK= 0.96135E+01 SP= -.13E+02 SK= 0.38E-02
   3986 T=   579. E= -.22857497E+03 F= -.22532065E+03 E0= -.22532065E+03  EK= 0.95005E+01 SP= -.13E+02 SK= 0.27E-02
   3987 T=   572. E= -.22857442E+03 F= -.22524239E+03 E0= -.22524239E+03  EK= 0.93924E+01 SP= -.13E+02 SK= 0.15E-02
   3988 T=   567. E= -.22857402E+03 F= -.22517002E+03 E0= -.22517002E+03  EK= 0.93006E+01 SP= -.13E+02 SK= 0.45E-03
   3989 T=   563. E= -.22857377E+03 F= -.22511059E+03 E0= -.22511059E+03  EK= 0.92341E+01 SP= -.13E+02 SK= 0.12E-05
   3990 T=   560. E= -.22857362E+03 F= -.22506910E+03 E0= -.22506910E+03  EK= 0.91992E+01 SP= -.13E+02 SK= 0.44E-03
   3991 T=   560. E= -.22857358E+03 F= -.22504875E+03 E0= -.22504875E+03  EK= 0.91999E+01 SP= -.13E+02 SK= 0.19E-02
   3992 T=   563. E= -.22857361E+03 F= -.22505110E+03 E0= -.22505110E+03  EK= 0.92377E+01 SP= -.13E+02 SK= 0.43E-02
   3993 T=   567. E= -.22857371E+03 F= -.22507634E+03 E0= -.22507634E+03  EK= 0.93124E+01 SP= -.13E+02 SK= 0.73E-02
   3994 T=   574. E= -.22857395E+03 F= -.22512315E+03 E0= -.22512315E+03  EK= 0.94211E+01 SP= -.13E+02 SK= 0.10E-01
   3995 T=   582. E= -.22857432E+03 F= -.22518825E+03 E0= -.22518825E+03  EK= 0.95584E+01 SP= -.13E+02 SK= 0.13E-01
   3996 T=   592. E= -.22857488E+03 F= -.22526625E+03 E0= -.22526625E+03  EK= 0.97162E+01 SP= -.13E+02 SK= 0.15E-01
   3997 T=   602. E= -.22857553E+03 F= -.22534965E+03 E0= -.22534965E+03  EK= 0.98834E+01 SP= -.13E+02 SK= 0.15E-01
   3998 T=   612. E= -.22857626E+03 F= -.22542967E+03 E0= -.22542967E+03  EK= 0.10047E+02 SP= -.13E+02 SK= 0.14E-01
   3999 T=   621. E= -.22857694E+03 F= -.22549703E+03 E0= -.22549703E+03  EK= 0.10194E+02 SP= -.13E+02 SK= 0.11E-01
   4000 T=   628. E= -.22857746E+03 F= -.22554346E+03 E0= -.22554346E+03  EK= 0.10312E+02 SP= -.13E+02 SK= 0.83E-02
   4001 T=   633. E= -.22857774E+03 F= -.22556330E+03 E0= -.22556330E+03  EK= 0.10392E+02 SP= -.13E+02 SK= 0.53E-02
   4002 T=   635. E= -.22857763E+03 F= -.22555470E+03 E0= -.22555470E+03  EK= 0.10429E+02 SP= -.13E+02 SK= 0.27E-02
   4003 T=   635. E= -.22857715E+03 F= -.22552082E+03 E0= -.22552082E+03  EK= 0.10426E+02 SP= -.13E+02 SK= 0.90E-03
   4004 T=   633. E= -.22857637E+03 F= -.22546996E+03 E0= -.22546996E+03  EK= 0.10391E+02 SP= -.13E+02 SK= 0.87E-04
   4005 T=   630. E= -.22857552E+03 F= -.22541414E+03 E0= -.22541414E+03  EK= 0.10336E+02 SP= -.13E+02 SK= 0.94E-04
 bond charge predicted
       N       E                     dE             d eps       ncg     rms          rms(c)
DAV:   1    -0.226387586276E+03   -0.35880E+00   -0.14789E+03   264   0.577E+01
DAV:   2    -0.235009459962E+03   -0.86219E+01   -0.85523E+01   336   0.140E+01
DAV:   3    -0.235185883104E+03   -0.17642E+00   -0.17617E+00   336   0.223E+00
DAV:   4    -0.235190612497E+03   -0.47294E-02   -0.47284E-02   324   0.356E-01
DAV:   5    -0.235190793832E+03   -0.18133E-03   -0.18132E-03   348   0.729E-02    0.784E+00
RMM:   6    -0.226306835208E+03    0.88840E+01   -0.10410E+01   264   0.233E+00    0.356E+00
RMM:   7    -0.225615157255E+03    0.69168E+00   -0.27635E+00   264   0.172E+00    0.230E+00
RMM:   8    -0.225160825900E+03    0.45433E+00   -0.93208E-01   264   0.106E+00    0.116E+00
RMM:   9    -0.225123946601E+03    0.36879E-01   -0.30163E-01   265   0.665E-01    0.587E-01
RMM:  10    -0.225124863854E+03   -0.91725E-03   -0.88598E-02   271   0.399E-01    0.330E-01
RMM:  11    -0.225123888171E+03    0.97568E-03   -0.23844E-02   272   0.215E-01    0.175E-01
RMM:  12    -0.225124174783E+03   -0.28661E-03   -0.66867E-03   266   0.126E-01    0.770E-02
RMM:  13    -0.225124299353E+03   -0.12457E-03   -0.17175E-03   269   0.640E-02    0.348E-02
RMM:  14    -0.225124312698E+03   -0.13344E-04   -0.45281E-04   235   0.343E-02
   4006 T=   626. E= -.22832930E+03 F= -.22512431E+03 E0= -.22509619E+03  EK= 0.10279E+02 SP= -.13E+02 SK= 0.71E-03
   4007 T=   623. E= -.22856646E+03 F= -.22533801E+03 E0= -.22533801E+03  EK= 0.10230E+02 SP= -.13E+02 SK= 0.17E-02
   4008 T=   621. E= -.22856626E+03 F= -.22533427E+03 E0= -.22533427E+03  EK= 0.10192E+02 SP= -.13E+02 SK= 0.30E-02
   4009 T=   620. E= -.22856630E+03 F= -.22535733E+03 E0= -.22535733E+03  EK= 0.10171E+02 SP= -.13E+02 SK= 0.46E-02
   4010 T=   619. E= -.22856652E+03 F= -.22540588E+03 E0= -.22540588E+03  EK= 0.10166E+02 SP= -.13E+02 SK= 0.63E-02
   4011 T=   620. E= -.22856687E+03 F= -.22547545E+03 E0= -.22547545E+03  EK= 0.10173E+02 SP= -.13E+02 SK= 0.84E-02
   4012 T=   621. E= -.22856720E+03 F= -.22555954E+03 E0= -.22555954E+03  EK= 0.10187E+02 SP= -.13E+02 SK= 0.11E-01
   4013 T=   621. E= -.22856741E+03 F= -.22565137E+03 E0= -.22565137E+03  EK= 0.10198E+02 SP= -.13E+02 SK= 0.14E-01
   4014 T=   622. E= -.22856742E+03 F= -.22574569E+03 E0= -.22574569E+03  EK= 0.10203E+02 SP= -.13E+02 SK= 0.17E-01
   4015 T=   621. E= -.22856730E+03 F= -.22583973E+03 E0= -.22583973E+03  EK= 0.10199E+02 SP= -.13E+02 SK= 0.21E-01
   4016 T=   620. E= -.22856709E+03 F= -.22593271E+03 E0= -.22593271E+03  EK= 0.10184E+02 SP= -.13E+02 SK= 0.24E-01
   4017 T=   619. E= -.22856689E+03 F= -.22602497E+03 E0= -.22602497E+03  EK= 0.10159E+02 SP= -.13E+02 SK= 0.28E-01
   4018 T=   617. E= -.22856674E+03 F= -.22611690E+03 E0= -.22611690E+03  EK= 0.10126E+02 SP= -.13E+02 SK= 0.32E-01
   4019 T=   614. E= -.22856667E+03 F= -.22620825E+03 E0= -.22620825E+03  EK= 0.10085E+02 SP= -.12E+02 SK= 0.36E-01
   4020 T=   611. E= -.22856665E+03 F= -.22629781E+03 E0= -.22629781E+03  EK= 0.10037E+02 SP= -.12E+02 SK= 0.39E-01
   4021 T=   608. E= -.22856666E+03 F= -.22638353E+03 E0= -.22638353E+03  EK= 0.99801E+01 SP= -.12E+02 SK= 0.42E-01
   4022 T=   604. E= -.22856666E+03 F= -.22646291E+03 E0= -.22646291E+03  EK= 0.99142E+01 SP= -.12E+02 SK= 0.43E-01
   4023 T=   599. E= -.22856664E+03 F= -.22653358E+03 E0= -.22653358E+03  EK= 0.98385E+01 SP= -.12E+02 SK= 0.44E-01
   4024 T=   594. E= -.22856660E+03 F= -.22659351E+03 E0= -.22659351E+03  EK= 0.97532E+01 SP= -.12E+02 SK= 0.43E-01
   4025 T=   588. E= -.22856655E+03 F= -.22664099E+03 E0= -.22664099E+03  EK= 0.96587E+01 SP= -.12E+02 SK= 0.42E-01
   4026 T=   582. E= -.22856650E+03 F= -.22667477E+03 E0= -.22667477E+03  EK= 0.95561E+01 SP= -.11E+02 SK= 0.39E-01
   4027 T=   575. E= -.22856645E+03 F= -.22669397E+03 E0= -.22669397E+03  EK= 0.94470E+01 SP= -.11E+02 SK= 0.34E-01
   4028 T=   569. E= -.22856643E+03 F= -.22669780E+03 E0= -.22669780E+03  EK= 0.93332E+01 SP= -.11E+02 SK= 0.29E-01
   4029 T=   561. E= -.22856640E+03 F= -.22668557E+03 E0= -.22668557E+03  EK= 0.92163E+01 SP= -.11E+02 SK= 0.22E-01
   4030 T=   554. E= -.22856638E+03 F= -.22665691E+03 E0= -.22665691E+03  EK= 0.90985E+01 SP= -.11E+02 SK= 0.16E-01
   4031 T=   547. E= -.22856637E+03 F= -.22661170E+03 E0= -.22661170E+03  EK= 0.89819E+01 SP= -.11E+02 SK= 0.95E-02
   4032 T=   540. E= -.22856635E+03 F= -.22655021E+03 E0= -.22655021E+03  EK= 0.88690E+01 SP= -.11E+02 SK= 0.42E-02
   4033 T=   534. E= -.22856637E+03 F= -.22647304E+03 E0= -.22647304E+03  EK= 0.87623E+01 SP= -.11E+02 SK= 0.85E-03
   4034 T=   528. E= -.22856639E+03 F= -.22638096E+03 E0= -.22638096E+03  EK= 0.86645E+01 SP= -.11E+02 SK= 0.11E-03
   4035 T=   523. E= -.22856641E+03 F= -.22627494E+03 E0= -.22627494E+03  EK= 0.85780E+01 SP= -.11E+02 SK= 0.29E-02
   4036 T=   518. E= -.22856640E+03 F= -.22615622E+03 E0= -.22615622E+03  EK= 0.85056E+01 SP= -.11E+02 SK= 0.99E-02
   4037 T=   515. E= -.22856635E+03 F= -.22602661E+03 E0= -.22602661E+03  EK= 0.84502E+01 SP= -.11E+02 SK= 0.22E-01
   4038 T=   513. E= -.22856625E+03 F= -.22588862E+03 E0= -.22588862E+03  EK= 0.84153E+01 SP= -.11E+02 SK= 0.39E-01
   4039 T=   512. E= -.22856610E+03 F= -.22574550E+03 E0= -.22574550E+03  EK= 0.84049E+01 SP= -.11E+02 SK= 0.61E-01
   4040 T=   513. E= -.22856587E+03 F= -.22560122E+03 E0= -.22560122E+03  EK= 0.84236E+01 SP= -.11E+02 SK= 0.89E-01
   4041 T=   516. E= -.22856556E+03 F= -.22546068E+03 E0= -.22546068E+03  EK= 0.84766E+01 SP= -.12E+02 SK= 0.12E+00
   4042 T=   522. E= -.22856517E+03 F= -.22532959E+03 E0= -.22532959E+03  EK= 0.85697E+01 SP= -.12E+02 SK= 0.16E+00
   4043 T=   530. E= -.22856476E+03 F= -.22521403E+03 E0= -.22521403E+03  EK= 0.87086E+01 SP= -.12E+02 SK= 0.19E+00
   4044 T=   542. E= -.22856436E+03 F= -.22511997E+03 E0= -.22511997E+03  EK= 0.88986E+01 SP= -.13E+02 SK= 0.22E+00
   4045 T=   557. E= -.22856403E+03 F= -.22505279E+03 E0= -.22505279E+03  EK= 0.91434E+01 SP= -.13E+02 SK= 0.25E+00
   4046 T=   575. E= -.22856388E+03 F= -.22501658E+03 E0= -.22501658E+03  EK= 0.94444E+01 SP= -.13E+02 SK= 0.27E+00
   4047 T=   597. E= -.22856401E+03 F= -.22501330E+03 E0= -.22501330E+03  EK= 0.97992E+01 SP= -.14E+02 SK= 0.28E+00
   4048 T=   621. E= -.22856453E+03 F= -.22504170E+03 E0= -.22504170E+03  EK= 0.10200E+02 SP= -.14E+02 SK= 0.27E+00
   4049 T=   648. E= -.22856547E+03 F= -.22509693E+03 E0= -.22509693E+03  EK= 0.10633E+02 SP= -.14E+02 SK= 0.25E+00
   4050 T=   675. E= -.22856678E+03 F= -.22517078E+03 E0= -.22517078E+03  EK= 0.11079E+02 SP= -.15E+02 SK= 0.22E+00
   4051 T=   701. E= -.22856842E+03 F= -.22525247E+03 E0= -.22525247E+03  EK= 0.11512E+02 SP= -.15E+02 SK= 0.17E+00
   4052 T=   725. E= -.22857017E+03 F= -.22532955E+03 E0= -.22532955E+03  EK= 0.11904E+02 SP= -.15E+02 SK= 0.12E+00
   4053 T=   745. E= -.22857180E+03 F= -.22538947E+03 E0= -.22538947E+03  EK= 0.12225E+02 SP= -.15E+02 SK= 0.71E-01
   4054 T=   758. E= -.22857304E+03 F= -.22542144E+03 E0= -.22542144E+03  EK= 0.12451E+02 SP= -.16E+02 SK= 0.31E-01
   4055 T=   765. E= -.22857372E+03 F= -.22541808E+03 E0= -.22541808E+03  EK= 0.12562E+02 SP= -.16E+02 SK= 0.67E-02
   4056 T=   764. E= -.22857378E+03 F= -.22537582E+03 E0= -.22537582E+03  EK= 0.12549E+02 SP= -.16E+02 SK= 0.26E-03
   4057 T=   756. E= -.22857321E+03 F= -.22529498E+03 E0= -.22529498E+03  EK= 0.12412E+02 SP= -.16E+02 SK= 0.12E-01
   4058 T=   741. E= -.22857218E+03 F= -.22517953E+03 E0= -.22517953E+03  EK= 0.12163E+02 SP= -.16E+02 SK= 0.40E-01
   4059 T=   720. E= -.22857083E+03 F= -.22503626E+03 E0= -.22503626E+03  EK= 0.11818E+02 SP= -.15E+02 SK= 0.76E-01
   4060 T=   695. E= -.22856935E+03 F= -.22487414E+03 E0= -.22487414E+03  EK= 0.11404E+02 SP= -.15E+02 SK= 0.12E+00
   4061 T=   667. E= -.22856793E+03 F= -.22470340E+03 E0= -.22470340E+03  EK= 0.10946E+02 SP= -.15E+02 SK= 0.15E+00
   4062 T=   638. E= -.22856668E+03 F= -.22453482E+03 E0= -.22453482E+03  EK= 0.10472E+02 SP= -.15E+02 SK= 0.18E+00
   4063 T=   610. E= -.22856563E+03 F= -.22437936E+03 E0= -.22437936E+03  EK= 0.10008E+02 SP= -.14E+02 SK= 0.19E+00
   4064 T=   583. E= -.22856484E+03 F= -.22424776E+03 E0= -.22424776E+03  EK= 0.95770E+01 SP= -.14E+02 SK= 0.19E+00
   4065 T=   560. E= -.22856432E+03 F= -.22414997E+03 E0= -.22414997E+03  EK= 0.91977E+01 SP= -.14E+02 SK= 0.17E+00
   4066 T=   541. E= -.22856408E+03 F= -.22409408E+03 E0= -.22409408E+03  EK= 0.88847E+01 SP= -.14E+02 SK= 0.15E+00
   4067 T=   527. E= -.22856409E+03 F= -.22408517E+03 E0= -.22408517E+03  EK= 0.86470E+01 SP= -.13E+02 SK= 0.12E+00
   4068 T=   517. E= -.22856435E+03 F= -.22412472E+03 E0= -.22412472E+03  EK= 0.84881E+01 SP= -.13E+02 SK= 0.93E-01
   4069 T=   512. E= -.22856477E+03 F= -.22421017E+03 E0= -.22421017E+03  EK= 0.84060E+01 SP= -.13E+02 SK= 0.65E-01
   4070 T=   511. E= -.22856530E+03 F= -.22433536E+03 E0= -.22433536E+03  EK= 0.83943E+01 SP= -.13E+02 SK= 0.41E-01
   4071 T=   514. E= -.22856587E+03 F= -.22449133E+03 E0= -.22449133E+03  EK= 0.84433E+01 SP= -.13E+02 SK= 0.23E-01
   4072 T=   520. E= -.22856643E+03 F= -.22466738E+03 E0= -.22466738E+03  EK= 0.85410E+01 SP= -.12E+02 SK= 0.11E-01
   4073 T=   528. E= -.22856697E+03 F= -.22485215E+03 E0= -.22485215E+03  EK= 0.86741E+01 SP= -.12E+02 SK= 0.38E-02
   4074 T=   538. E= -.22856746E+03 F= -.22503455E+03 E0= -.22503455E+03  EK= 0.88295E+01 SP= -.12E+02 SK= 0.56E-03
   4075 T=   548. E= -.22856789E+03 F= -.22520438E+03 E0= -.22520438E+03  EK= 0.89943E+01 SP= -.12E+02 SK= 0.81E-04
   4076 T=   558. E= -.22856827E+03 F= -.22535276E+03 E0= -.22535276E+03  EK= 0.91567E+01 SP= -.12E+02 SK= 0.13E-02
   4077 T=   567. E= -.22856857E+03 F= -.22547234E+03 E0= -.22547234E+03  EK= 0.93063E+01 SP= -.12E+02 SK= 0.32E-02
   4078 T=   575. E= -.22856878E+03 F= -.22555767E+03 E0= -.22555767E+03  EK= 0.94345E+01 SP= -.12E+02 SK= 0.53E-02
   4079 T=   581. E= -.22856882E+03 F= -.22560567E+03 E0= -.22560567E+03  EK= 0.95357E+01 SP= -.13E+02 SK= 0.72E-02
   4080 T=   585. E= -.22856872E+03 F= -.22561620E+03 E0= -.22561620E+03  EK= 0.96071E+01 SP= -.13E+02 SK= 0.88E-02
   4081 T=   588. E= -.22856844E+03 F= -.22559211E+03 E0= -.22559211E+03  EK= 0.96500E+01 SP= -.13E+02 SK= 0.10E-01
   4082 T=   589. E= -.22856801E+03 F= -.22553912E+03 E0= -.22553912E+03  EK= 0.96687E+01 SP= -.13E+02 SK= 0.11E-01
   4083 T=   589. E= -.22856750E+03 F= -.22546529E+03 E0= -.22546529E+03  EK= 0.96707E+01 SP= -.13E+02 SK= 0.13E-01
   4084 T=   589. E= -.22856702E+03 F= -.22537982E+03 E0= -.22537982E+03  EK= 0.96648E+01 SP= -.13E+02 SK= 0.14E-01
   4085 T=   588. E= -.22856663E+03 F= -.22529160E+03 E0= -.22529160E+03  EK= 0.96602E+01 SP= -.13E+02 SK= 0.15E-01
   4086 T=   589. E= -.22856638E+03 F= -.22520812E+03 E0= -.22520812E+03  EK= 0.96642E+01 SP= -.13E+02 SK= 0.17E-01
   4087 T=   590. E= -.22856634E+03 F= -.22513441E+03 E0= -.22513441E+03  EK= 0.96819E+01 SP= -.13E+02 SK= 0.19E-01
   4088 T=   592. E= -.22856651E+03 F= -.22507254E+03 E0= -.22507254E+03  EK= 0.97151E+01 SP= -.13E+02 SK= 0.20E-01
   4089 T=   595. E= -.22856685E+03 F= -.22502155E+03 E0= -.22502155E+03  EK= 0.97621E+01 SP= -.13E+02 SK= 0.21E-01
   4090 T=   598. E= -.22856725E+03 F= -.22497797E+03 E0= -.22497797E+03  EK= 0.98187E+01 SP= -.13E+02 SK= 0.21E-01
   4091 T=   602. E= -.22856767E+03 F= -.22493722E+03 E0= -.22493722E+03  EK= 0.98790E+01 SP= -.14E+02 SK= 0.21E-01
   4092 T=   605. E= -.22856803E+03 F= -.22489473E+03 E0= -.22489473E+03  EK= 0.99371E+01 SP= -.14E+02 SK= 0.20E-01
   4093 T=   608. E= -.22856830E+03 F= -.22484682E+03 E0= -.22484682E+03  EK= 0.99876E+01 SP= -.14E+02 SK= 0.19E-01
   4094 T=   611. E= -.22856847E+03 F= -.22479119E+03 E0= -.22479119E+03  EK= 0.10027E+02 SP= -.14E+02 SK= 0.17E-01
   4095 T=   612. E= -.22856855E+03 F= -.22472710E+03 E0= -.22472710E+03  EK= 0.10053E+02 SP= -.14E+02 SK= 0.15E-01
   4096 T=   613. E= -.22856851E+03 F= -.22465527E+03 E0= -.22465527E+03  EK= 0.10067E+02 SP= -.14E+02 SK= 0.13E-01
   4097 T=   613. E= -.22856840E+03 F= -.22457791E+03 E0= -.22457791E+03  EK= 0.10069E+02 SP= -.14E+02 SK= 0.11E-01
   4098 T=   613. E= -.22856823E+03 F= -.22449826E+03 E0= -.22449826E+03  EK= 0.10062E+02 SP= -.14E+02 SK= 0.96E-02
   4099 T=   612. E= -.22856799E+03 F= -.22442047E+03 E0= -.22442047E+03  EK= 0.10052E+02 SP= -.14E+02 SK= 0.81E-02
   4100 T=   612. E= -.22856775E+03 F= -.22434938E+03 E0= -.22434938E+03  EK= 0.10042E+02 SP= -.14E+02 SK= 0.68E-02
   4101 T=   612. E= -.22856748E+03 F= -.22429011E+03 E0= -.22429011E+03  EK= 0.10039E+02 SP= -.14E+02 SK= 0.56E-02
   4102 T=   612. E= -.22856723E+03 F= -.22424790E+03 E0= -.22424790E+03  EK= 0.10048E+02 SP= -.14E+02 SK= 0.45E-02
   4103 T=   614. E= -.22856703E+03 F= -.22422778E+03 E0= -.22422778E+03  EK= 0.10073E+02 SP= -.14E+02 SK= 0.35E-02
   4104 T=   616. E= -.22856689E+03 F= -.22423401E+03 E0= -.22423401E+03  EK= 0.10119E+02 SP= -.14E+02 SK= 0.25E-02
   4105 T=   620. E= -.22856684E+03 F= -.22426969E+03 E0= -.22426969E+03  EK= 0.10186E+02 SP= -.14E+02 SK= 0.15E-02
   4106 T=   626. E= -.22856691E+03 F= -.22433651E+03 E0= -.22433651E+03  EK= 0.10276E+02 SP= -.15E+02 SK= 0.59E-03
   4107 T=   633. E= -.22856710E+03 F= -.22443429E+03 E0= -.22443429E+03  EK= 0.10385E+02 SP= -.15E+02 SK= 0.45E-04
   4108 T=   640. E= -.22856742E+03 F= -.22456099E+03 E0= -.22456099E+03  EK= 0.10508E+02 SP= -.15E+02 SK= 0.23E-03
   4109 T=   648. E= -.22856785E+03 F= -.22471251E+03 E0= -.22471251E+03  EK= 0.10638E+02 SP= -.14E+02 SK= 0.17E-02
   4110 T=   656. E= -.22856837E+03 F= -.22488277E+03 E0= -.22488277E+03  EK= 0.10764E+02 SP= -.14E+02 SK= 0.53E-02
   4111 T=   662. E= -.22856893E+03 F= -.22506396E+03 E0= -.22506396E+03  EK= 0.10875E+02 SP= -.14E+02 SK= 0.12E-01
   4112 T=   668. E= -.22856942E+03 F= -.22524711E+03 E0= -.22524711E+03  EK= 0.10959E+02 SP= -.14E+02 SK= 0.22E-01
   4113 T=   670. E= -.22856977E+03 F= -.22542315E+03 E0= -.22542315E+03  EK= 0.11005E+02 SP= -.14E+02 SK= 0.35E-01
   4114 T=   670. E= -.22856988E+03 F= -.22558397E+03 E0= -.22558397E+03  EK= 0.11002E+02 SP= -.14E+02 SK= 0.53E-01
   4115 T=   667. E= -.22856972E+03 F= -.22572343E+03 E0= -.22572343E+03  EK= 0.10947E+02 SP= -.14E+02 SK= 0.73E-01
   4116 T=   660. E= -.22856932E+03 F= -.22583796E+03 E0= -.22583796E+03  EK= 0.10837E+02 SP= -.14E+02 SK= 0.95E-01
   4117 T=   650. E= -.22856873E+03 F= -.22592676E+03 E0= -.22592676E+03  EK= 0.10678E+02 SP= -.13E+02 SK= 0.12E+00
   4118 T=   638. E= -.22856800E+03 F= -.22599146E+03 E0= -.22599146E+03  EK= 0.10477E+02 SP= -.13E+02 SK= 0.14E+00
   4119 T=   624. E= -.22856718E+03 F= -.22603590E+03 E0= -.22603590E+03  EK= 0.10244E+02 SP= -.13E+02 SK= 0.15E+00
   4120 T=   609. E= -.22856640E+03 F= -.22606569E+03 E0= -.22606569E+03  EK= 0.99921E+01 SP= -.13E+02 SK= 0.16E+00
   4121 T=   593. E= -.22856574E+03 F= -.22608716E+03 E0= -.22608716E+03  EK= 0.97352E+01 SP= -.12E+02 SK= 0.16E+00
   4122 T=   578. E= -.22856521E+03 F= -.22610630E+03 E0= -.22610630E+03  EK= 0.94854E+01 SP= -.12E+02 SK= 0.15E+00
   4123 T=   564. E= -.22856488E+03 F= -.22612802E+03 E0= -.22612802E+03  EK= 0.92529E+01 SP= -.12E+02 SK= 0.14E+00
   4124 T=   551. E= -.22856474E+03 F= -.22615545E+03 E0= -.22615545E+03  EK= 0.90451E+01 SP= -.12E+02 SK= 0.12E+00
   4125 T=   540. E= -.22856477E+03 F= -.22618963E+03 E0= -.22618963E+03  EK= 0.88666E+01 SP= -.11E+02 SK= 0.10E+00
   4126 T=   531. E= -.22856489E+03 F= -.22622964E+03 E0= -.22622964E+03  EK= 0.87190E+01 SP= -.11E+02 SK= 0.80E-01
   4127 T=   524. E= -.22856505E+03 F= -.22627323E+03 E0= -.22627323E+03  EK= 0.86019E+01 SP= -.11E+02 SK= 0.58E-01
   4128 T=   519. E= -.22856519E+03 F= -.22631760E+03 E0= -.22631760E+03  EK= 0.85139E+01 SP= -.11E+02 SK= 0.38E-01
   4129 T=   515. E= -.22856524E+03 F= -.22636026E+03 E0= -.22636026E+03  EK= 0.84535E+01 SP= -.11E+02 SK= 0.22E-01
   4130 T=   513. E= -.22856520E+03 F= -.22639988E+03 E0= -.22639988E+03  EK= 0.84198E+01 SP= -.11E+02 SK= 0.96E-02
   4131 T=   513. E= -.22856505E+03 F= -.22643651E+03 E0= -.22643651E+03  EK= 0.84133E+01 SP= -.11E+02 SK= 0.22E-02
   4132 T=   514. E= -.22856481E+03 F= -.22647168E+03 E0= -.22647168E+03  EK= 0.84354E+01 SP= -.11E+02 SK= 0.74E-05
   4133 T=   517. E= -.22856455E+03 F= -.22650797E+03 E0= -.22650797E+03  EK= 0.84882E+01 SP= -.11E+02 SK= 0.27E-02
   4134 T=   522. E= -.22856425E+03 F= -.22654848E+03 E0= -.22654848E+03  EK= 0.85742E+01 SP= -.11E+02 SK= 0.96E-02
   4135 T=   530. E= -.22856399E+03 F= -.22659638E+03 E0= -.22659638E+03  EK= 0.86953E+01 SP= -.11E+02 SK= 0.20E-01
   4136 T=   539. E= -.22856380E+03 F= -.22665411E+03 E0= -.22665411E+03  EK= 0.88523E+01 SP= -.11E+02 SK= 0.32E-01
   4137 T=   551. E= -.22856374E+03 F= -.22672297E+03 E0= -.22672297E+03  EK= 0.90443E+01 SP= -.11E+02 SK= 0.44E-01
   4138 T=   565. E= -.22856386E+03 F= -.22680246E+03 E0= -.22680246E+03  EK= 0.92678E+01 SP= -.11E+02 SK= 0.55E-01
   4139 T=   580. E= -.22856414E+03 F= -.22688998E+03 E0= -.22688998E+03  EK= 0.95161E+01 SP= -.11E+02 SK= 0.62E-01
   4140 T=   596. E= -.22856460E+03 F= -.22698098E+03 E0= -.22698098E+03  EK= 0.97798E+01 SP= -.11E+02 SK= 0.66E-01
   4141 T=   612. E= -.22856524E+03 F= -.22706922E+03 E0= -.22706922E+03  EK= 0.10047E+02 SP= -.12E+02 SK= 0.64E-01
   4142 T=   628. E= -.22856598E+03 F= -.22714720E+03 E0= -.22714720E+03  EK= 0.10303E+02 SP= -.12E+02 SK= 0.58E-01
   4143 T=   642. E= -.22856673E+03 F= -.22720706E+03 E0= -.22720706E+03  EK= 0.10532E+02 SP= -.12E+02 SK= 0.49E-01
   4144 T=   653. E= -.22856744E+03 F= -.22724148E+03 E0= -.22724148E+03  EK= 0.10722E+02 SP= -.12E+02 SK= 0.37E-01
   4145 T=   661. E= -.22856800E+03 F= -.22724435E+03 E0= -.22724435E+03  EK= 0.10858E+02 SP= -.12E+02 SK= 0.25E-01
   4146 T=   666. E= -.22856839E+03 F= -.22721140E+03 E0= -.22721140E+03  EK= 0.10932E+02 SP= -.12E+02 SK= 0.14E-01
   4147 T=   666. E= -.22856850E+03 F= -.22714072E+03 E0= -.22714072E+03  EK= 0.10938E+02 SP= -.12E+02 SK= 0.64E-02
   4148 T=   663. E= -.22856838E+03 F= -.22703321E+03 E0= -.22703321E+03  EK= 0.10878E+02 SP= -.12E+02 SK= 0.17E-02
   4149 T=   655. E= -.22856798E+03 F= -.22689260E+03 E0= -.22689260E+03  EK= 0.10756E+02 SP= -.12E+02 SK= 0.37E-04
   4150 T=   645. E= -.22856734E+03 F= -.22672569E+03 E0= -.22672569E+03  EK= 0.10583E+02 SP= -.12E+02 SK= 0.57E-03
   4151 T=   632. E= -.22856654E+03 F= -.22654214E+03 E0= -.22654214E+03  EK= 0.10374E+02 SP= -.12E+02 SK= 0.22E-02
   4152 T=   618. E= -.22856567E+03 F= -.22635392E+03 E0= -.22635392E+03  EK= 0.10146E+02 SP= -.12E+02 SK= 0.39E-02
   4153 T=   604. E= -.22856480E+03 F= -.22617419E+03 E0= -.22617419E+03  EK= 0.99207E+01 SP= -.12E+02 SK= 0.48E-02
   4154 T=   592. E= -.22856407E+03 F= -.22601637E+03 E0= -.22601637E+03  EK= 0.97155E+01 SP= -.12E+02 SK= 0.47E-02
   4155 T=   582. E= -.22856356E+03 F= -.22589233E+03 E0= -.22589233E+03  EK= 0.95475E+01 SP= -.12E+02 SK= 0.38E-02
   4156 T=   574. E= -.22856331E+03 F= -.22581081E+03 E0= -.22581081E+03  EK= 0.94291E+01 SP= -.12E+02 SK= 0.24E-02
   4157 T=   571. E= -.22856336E+03 F= -.22577636E+03 E0= -.22577636E+03  EK= 0.93672E+01 SP= -.12E+02 SK= 0.11E-02
   4158 T=   570. E= -.22856370E+03 F= -.22578885E+03 E0= -.22578885E+03  EK= 0.93629E+01 SP= -.12E+02 SK= 0.27E-03
   4159 T=   573. E= -.22856426E+03 F= -.22584340E+03 E0= -.22584340E+03  EK= 0.94113E+01 SP= -.12E+02 SK= 0.13E-06
   4160 T=   579. E= -.22856497E+03 F= -.22593129E+03 E0= -.22593129E+03  EK= 0.95028E+01 SP= -.12E+02 SK= 0.17E-03
   4161 T=   586. E= -.22856576E+03 F= -.22604116E+03 E0= -.22604116E+03  EK= 0.96240E+01 SP= -.12E+02 SK= 0.52E-03
   4162 T=   595. E= -.22856654E+03 F= -.22616042E+03 E0= -.22616042E+03  EK= 0.97598E+01 SP= -.12E+02 SK= 0.77E-03
   4163 T=   603. E= -.22856722E+03 F= -.22627678E+03 E0= -.22627678E+03  EK= 0.98948E+01 SP= -.12E+02 SK= 0.77E-03
   4164 T=   610. E= -.22856773E+03 F= -.22637959E+03 E0= -.22637959E+03  EK= 0.10015E+02 SP= -.12E+02 SK= 0.54E-03
   4165 T=   616. E= -.22856805E+03 F= -.22646065E+03 E0= -.22646065E+03  EK= 0.10109E+02 SP= -.12E+02 SK= 0.22E-03
   4166 T=   620. E= -.22856814E+03 F= -.22651474E+03 E0= -.22651474E+03  EK= 0.10170E+02 SP= -.12E+02 SK= 0.13E-04
   4167 T=   621. E= -.22856804E+03 F= -.22653987E+03 E0= -.22653987E+03  EK= 0.10193E+02 SP= -.12E+02 SK= 0.84E-04
   4168 T=   620. E= -.22856778E+03 F= -.22653681E+03 E0= -.22653681E+03  EK= 0.10179E+02 SP= -.12E+02 SK= 0.48E-03
   4169 T=   617. E= -.22856744E+03 F= -.22650852E+03 E0= -.22650852E+03  EK= 0.10131E+02 SP= -.12E+02 SK= 0.11E-02
   4170 T=   612. E= -.22856709E+03 F= -.22645912E+03 E0= -.22645912E+03  EK= 0.10054E+02 SP= -.12E+02 SK= 0.19E-02
   4171 T=   606. E= -.22856676E+03 F= -.22639305E+03 E0= -.22639305E+03  EK= 0.99559E+01 SP= -.12E+02 SK= 0.24E-02
   4172 T=   600. E= -.22856648E+03 F= -.22631447E+03 E0= -.22631447E+03  EK= 0.98420E+01 SP= -.12E+02 SK= 0.27E-02
   4173 T=   592. E= -.22856630E+03 F= -.22622685E+03 E0= -.22622685E+03  EK= 0.97192E+01 SP= -.12E+02 SK= 0.25E-02
   4174 T=   584. E= -.22856615E+03 F= -.22613287E+03 E0= -.22613287E+03  EK= 0.95931E+01 SP= -.12E+02 SK= 0.19E-02
   4175 T=   577. E= -.22856601E+03 F= -.22603477E+03 E0= -.22603477E+03  EK= 0.94690E+01 SP= -.12E+02 SK= 0.11E-02
   4176 T=   570. E= -.22856587E+03 F= -.22593486E+03 E0= -.22593486E+03  EK= 0.93521E+01 SP= -.12E+02 SK= 0.34E-03
   4177 T=   563. E= -.22856574E+03 F= -.22583575E+03 E0= -.22583575E+03  EK= 0.92472E+01 SP= -.12E+02 SK= 0.38E-06
   4178 T=   558. E= -.22856559E+03 F= -.22574030E+03 E0= -.22574030E+03  EK= 0.91596E+01 SP= -.12E+02 SK= 0.53E-03
   4179 T=   554. E= -.22856544E+03 F= -.22565169E+03 E0= -.22565169E+03  EK= 0.90942E+01 SP= -.12E+02 SK= 0.23E-02
   4180 T=   552. E= -.22856529E+03 F= -.22557325E+03 E0= -.22557325E+03  EK= 0.90555E+01 SP= -.12E+02 SK= 0.56E-02
   4181 T=   551. E= -.22856518E+03 F= -.22550808E+03 E0= -.22550808E+03  EK= 0.90476E+01 SP= -.12E+02 SK= 0.11E-01
   4182 T=   553. E= -.22856513E+03 F= -.22545868E+03 E0= -.22545868E+03  EK= 0.90732E+01 SP= -.12E+02 SK= 0.17E-01
   4183 T=   556. E= -.22856512E+03 F= -.22542679E+03 E0= -.22542679E+03  EK= 0.91339E+01 SP= -.12E+02 SK= 0.24E-01
   4184 T=   562. E= -.22856515E+03 F= -.22541329E+03 E0= -.22541329E+03  EK= 0.92297E+01 SP= -.12E+02 SK= 0.32E-01
   4185 T=   570. E= -.22856525E+03 F= -.22541834E+03 E0= -.22541834E+03  EK= 0.93594E+01 SP= -.13E+02 SK= 0.40E-01
   4186 T=   580. E= -.22856542E+03 F= -.22544128E+03 E0= -.22544128E+03  EK= 0.95199E+01 SP= -.13E+02 SK= 0.45E-01
   4187 T=   591. E= -.22856565E+03 F= -.22548073E+03 E0= -.22548073E+03  EK= 0.97069E+01 SP= -.13E+02 SK= 0.49E-01
   4188 T=   604. E= -.22856598E+03 F= -.22553458E+03 E0= -.22553458E+03  EK= 0.99143E+01 SP= -.13E+02 SK= 0.49E-01
   4189 T=   617. E= -.22856647E+03 F= -.22559966E+03 E0= -.22559966E+03  EK= 0.10134E+02 SP= -.13E+02 SK= 0.46E-01
   4190 T=   631. E= -.22856715E+03 F= -.22567113E+03 E0= -.22567113E+03  EK= 0.10355E+02 SP= -.13E+02 SK= 0.40E-01
   4191 T=   644. E= -.22856797E+03 F= -.22574207E+03 E0= -.22574207E+03  EK= 0.10566E+02 SP= -.13E+02 SK= 0.31E-01
   4192 T=   655. E= -.22856895E+03 F= -.22580364E+03 E0= -.22580364E+03  EK= 0.10749E+02 SP= -.14E+02 SK= 0.22E-01
   4193 T=   663. E= -.22856991E+03 F= -.22584534E+03 E0= -.22584534E+03  EK= 0.10890E+02 SP= -.14E+02 SK= 0.13E-01
   4194 T=   668. E= -.22857071E+03 F= -.22585655E+03 E0= -.22585655E+03  EK= 0.10972E+02 SP= -.14E+02 SK= 0.53E-02
   4195 T=   669. E= -.22857117E+03 F= -.22582844E+03 E0= -.22582844E+03  EK= 0.10984E+02 SP= -.14E+02 SK= 0.99E-03
   4196 T=   665. E= -.22857123E+03 F= -.22575593E+03 E0= -.22575593E+03  EK= 0.10920E+02 SP= -.14E+02 SK= 0.78E-04
   4197 T=   657. E= -.22857078E+03 F= -.22563882E+03 E0= -.22563882E+03  EK= 0.10783E+02 SP= -.14E+02 SK= 0.21E-02
   4198 T=   645. E= -.22856990E+03 F= -.22548296E+03 E0= -.22548296E+03  EK= 0.10582E+02 SP= -.14E+02 SK= 0.58E-02
   4199 T=   630. E= -.22856869E+03 F= -.22530015E+03 E0= -.22530015E+03  EK= 0.10335E+02 SP= -.14E+02 SK= 0.98E-02
   4200 T=   613. E= -.22856732E+03 F= -.22510700E+03 E0= -.22510700E+03  EK= 0.10067E+02 SP= -.14E+02 SK= 0.13E-01
   4201 T=   597. E= -.22856597E+03 F= -.22492298E+03 E0= -.22492298E+03  EK= 0.98038E+01 SP= -.13E+02 SK= 0.13E-01
   4202 T=   583. E= -.22856477E+03 F= -.22476829E+03 E0= -.22476829E+03  EK= 0.95725E+01 SP= -.13E+02 SK= 0.12E-01
   4203 T=   572. E= -.22856391E+03 F= -.22466135E+03 E0= -.22466135E+03  EK= 0.93963E+01 SP= -.13E+02 SK= 0.96E-02
   4204 T=   566. E= -.22856351E+03 F= -.22461571E+03 E0= -.22461571E+03  EK= 0.92920E+01 SP= -.13E+02 SK= 0.65E-02
   4205 T=   565. E= -.22856366E+03 F= -.22463763E+03 E0= -.22463763E+03  EK= 0.92675E+01 SP= -.13E+02 SK= 0.36E-02
   4206 T=   568. E= -.22856437E+03 F= -.22472464E+03 E0= -.22472464E+03  EK= 0.93205E+01 SP= -.13E+02 SK= 0.17E-02
   4207 T=   575. E= -.22856548E+03 F= -.22486542E+03 E0= -.22486542E+03  EK= 0.94383E+01 SP= -.13E+02 SK= 0.61E-03
   4208 T=   585. E= -.22856686E+03 F= -.22504191E+03 E0= -.22504191E+03  EK= 0.96005E+01 SP= -.13E+02 SK= 0.18E-03
   4209 T=   596. E= -.22856826E+03 F= -.22523194E+03 E0= -.22523194E+03  EK= 0.97815E+01 SP= -.13E+02 SK= 0.75E-04
   4210 T=   606. E= -.22856946E+03 F= -.22541299E+03 E0= -.22541299E+03  EK= 0.99547E+01 SP= -.13E+02 SK= 0.10E-03
   4211 T=   615. E= -.22857030E+03 F= -.22556567E+03 E0= -.22556567E+03  EK= 0.10097E+02 SP= -.13E+02 SK= 0.31E-03
   4212 T=   621. E= -.22857069E+03 F= -.22567626E+03 E0= -.22567626E+03  EK= 0.10190E+02 SP= -.13E+02 SK= 0.84E-03
   4213 T=   623. E= -.22857061E+03 F= -.22573781E+03 E0= -.22573781E+03  EK= 0.10226E+02 SP= -.13E+02 SK= 0.18E-02
   4214 T=   621. E= -.22857014E+03 F= -.22575021E+03 E0= -.22575021E+03  EK= 0.10202E+02 SP= -.13E+02 SK= 0.32E-02
   4215 T=   617. E= -.22856941E+03 F= -.22571937E+03 E0= -.22571937E+03  EK= 0.10127E+02 SP= -.13E+02 SK= 0.48E-02
   4216 T=   610. E= -.22856859E+03 F= -.22565517E+03 E0= -.22565517E+03  EK= 0.10011E+02 SP= -.13E+02 SK= 0.61E-02
   4217 T=   601. E= -.22856780E+03 F= -.22556924E+03 E0= -.22556924E+03  EK= 0.98692E+01 SP= -.13E+02 SK= 0.67E-02
   4218 T=   592. E= -.22856717E+03 F= -.22547303E+03 E0= -.22547303E+03  EK= 0.97171E+01 SP= -.13E+02 SK= 0.65E-02
   4219 T=   583. E= -.22856672E+03 F= -.22537638E+03 E0= -.22537638E+03  EK= 0.95680E+01 SP= -.13E+02 SK= 0.55E-02
   4220 T=   575. E= -.22856642E+03 F= -.22528695E+03 E0= -.22528695E+03  EK= 0.94329E+01 SP= -.13E+02 SK= 0.39E-02
   4221 T=   568. E= -.22856623E+03 F= -.22521043E+03 E0= -.22521043E+03  EK= 0.93205E+01 SP= -.13E+02 SK= 0.21E-02
   4222 T=   563. E= -.22856613E+03 F= -.22515088E+03 E0= -.22515088E+03  EK= 0.92372E+01 SP= -.13E+02 SK= 0.70E-03
   4223 T=   560. E= -.22856601E+03 F= -.22511134E+03 E0= -.22511134E+03  EK= 0.91876E+01 SP= -.13E+02 SK= 0.20E-04
   4224 T=   559. E= -.22856594E+03 F= -.22509434E+03 E0= -.22509434E+03  EK= 0.91754E+01 SP= -.13E+02 SK= 0.35E-03
   4225 T=   561. E= -.22856590E+03 F= -.22510159E+03 E0= -.22510159E+03  EK= 0.92023E+01 SP= -.13E+02 SK= 0.17E-02
   4226 T=   565. E= -.22856589E+03 F= -.22513398E+03 E0= -.22513398E+03  EK= 0.92690E+01 SP= -.13E+02 SK= 0.40E-02
   4227 T=   571. E= -.22856593E+03 F= -.22519146E+03 E0= -.22519146E+03  EK= 0.93740E+01 SP= -.13E+02 SK= 0.66E-02
   4228 T=   580. E= -.22856605E+03 F= -.22527296E+03 E0= -.22527296E+03  EK= 0.95143E+01 SP= -.13E+02 SK= 0.90E-02
   4229 T=   590. E= -.22856627E+03 F= -.22537611E+03 E0= -.22537611E+03  EK= 0.96846E+01 SP= -.13E+02 SK= 0.11E-01
   4230 T=   602. E= -.22856661E+03 F= -.22549703E+03 E0= -.22549703E+03  EK= 0.98774E+01 SP= -.13E+02 SK= 0.11E-01
   4231 T=   614. E= -.22856707E+03 F= -.22563041E+03 E0= -.22563041E+03  EK= 0.10083E+02 SP= -.13E+02 SK= 0.99E-02
   4232 T=   627. E= -.22856760E+03 F= -.22576964E+03 E0= -.22576964E+03  EK= 0.10289E+02 SP= -.13E+02 SK= 0.76E-02
   4233 T=   639. E= -.22856817E+03 F= -.22590732E+03 E0= -.22590732E+03  EK= 0.10483E+02 SP= -.13E+02 SK= 0.45E-02
   4234 T=   649. E= -.22856873E+03 F= -.22603602E+03 E0= -.22603602E+03  EK= 0.10651E+02 SP= -.13E+02 SK= 0.16E-02
   4235 T=   657. E= -.22856920E+03 F= -.22614871E+03 E0= -.22614871E+03  EK= 0.10782E+02 SP= -.13E+02 SK= 0.78E-04
   4236 T=   662. E= -.22856951E+03 F= -.22623939E+03 E0= -.22623939E+03  EK= 0.10866E+02 SP= -.13E+02 SK= 0.72E-03
   4237 T=   664. E= -.22856962E+03 F= -.22630374E+03 E0= -.22630374E+03  EK= 0.10895E+02 SP= -.13E+02 SK= 0.42E-02
   4238 T=   662. E= -.22856949E+03 F= -.22633961E+03 E0= -.22633961E+03  EK= 0.10866E+02 SP= -.13E+02 SK= 0.10E-01
   4239 T=   657. E= -.22856912E+03 F= -.22634737E+03 E0= -.22634737E+03  EK= 0.10782E+02 SP= -.13E+02 SK= 0.19E-01
   4240 T=   649. E= -.22856856E+03 F= -.22632996E+03 E0= -.22632996E+03  EK= 0.10648E+02 SP= -.13E+02 SK= 0.29E-01
   4241 T=   638. E= -.22856783E+03 F= -.22629263E+03 E0= -.22629263E+03  EK= 0.10475E+02 SP= -.13E+02 SK= 0.38E-01
   4242 T=   626. E= -.22856704E+03 F= -.22624264E+03 E0= -.22624264E+03  EK= 0.10274E+02 SP= -.13E+02 SK= 0.46E-01
   4243 T=   613. E= -.22856630E+03 F= -.22618829E+03 E0= -.22618829E+03  EK= 0.10061E+02 SP= -.12E+02 SK= 0.52E-01
   4244 T=   600. E= -.22856568E+03 F= -.22613787E+03 E0= -.22613787E+03  EK= 0.98491E+01 SP= -.12E+02 SK= 0.54E-01
   4245 T=   588. E= -.22856522E+03 F= -.22609848E+03 E0= -.22609848E+03  EK= 0.96509E+01 SP= -.12E+02 SK= 0.52E-01
   4246 T=   577. E= -.22856498E+03 F= -.22607523E+03 E0= -.22607523E+03  EK= 0.94760E+01 SP= -.12E+02 SK= 0.48E-01
   4247 T=   568. E= -.22856495E+03 F= -.22607050E+03 E0= -.22607050E+03  EK= 0.93303E+01 SP= -.12E+02 SK= 0.42E-01
   4248 T=   561. E= -.22856511E+03 F= -.22608377E+03 E0= -.22608377E+03  EK= 0.92159E+01 SP= -.12E+02 SK= 0.34E-01
   4249 T=   556. E= -.22856546E+03 F= -.22611155E+03 E0= -.22611155E+03  EK= 0.91313E+01 SP= -.12E+02 SK= 0.26E-01
   4250 T=   553. E= -.22856588E+03 F= -.22614770E+03 E0= -.22614770E+03  EK= 0.90718E+01 SP= -.12E+02 SK= 0.18E-01
   4251 T=   550. E= -.22856632E+03 F= -.22618479E+03 E0= -.22618479E+03  EK= 0.90309E+01 SP= -.11E+02 SK= 0.11E-01
   4252 T=   548. E= -.22856672E+03 F= -.22621510E+03 E0= -.22621510E+03  EK= 0.90017E+01 SP= -.11E+02 SK= 0.61E-02
   4253 T=   547. E= -.22856703E+03 F= -.22623169E+03 E0= -.22623169E+03  EK= 0.89778E+01 SP= -.11E+02 SK= 0.23E-02
   4254 T=   545. E= -.22856713E+03 F= -.22622955E+03 E0= -.22622955E+03  EK= 0.89546E+01 SP= -.11E+02 SK= 0.31E-03
   4255 T=   544. E= -.22856703E+03 F= -.22620685E+03 E0= -.22620685E+03  EK= 0.89308E+01 SP= -.11E+02 SK= 0.19E-03
   4256 T=   543. E= -.22856673E+03 F= -.22616526E+03 E0= -.22616526E+03  EK= 0.89085E+01 SP= -.11E+02 SK= 0.21E-02
   4257 T=   542. E= -.22856621E+03 F= -.22610995E+03 E0= -.22610995E+03  EK= 0.88933E+01 SP= -.11E+02 SK= 0.63E-02
   4258 T=   542. E= -.22856552E+03 F= -.22604946E+03 E0= -.22604946E+03  EK= 0.88939E+01 SP= -.11E+02 SK= 0.13E-01
   4259 T=   543. E= -.22856478E+03 F= -.22599479E+03 E0= -.22599479E+03  EK= 0.89214E+01 SP= -.12E+02 SK= 0.21E-01
   4260 T=   547. E= -.22856413E+03 F= -.22595747E+03 E0= -.22595747E+03  EK= 0.89869E+01 SP= -.12E+02 SK= 0.31E-01
   4261 T=   554. E= -.22856374E+03 F= -.22594712E+03 E0= -.22594712E+03  EK= 0.90992E+01 SP= -.12E+02 SK= 0.42E-01
   4262 T=   564. E= -.22856371E+03 F= -.22596915E+03 E0= -.22596915E+03  EK= 0.92622E+01 SP= -.12E+02 SK= 0.52E-01
   4263 T=   577. E= -.22856412E+03 F= -.22602337E+03 E0= -.22602337E+03  EK= 0.94731E+01 SP= -.12E+02 SK= 0.60E-01
   4264 T=   592. E= -.22856494E+03 F= -.22610346E+03 E0= -.22610346E+03  EK= 0.97220E+01 SP= -.12E+02 SK= 0.64E-01
   4265 T=   609. E= -.22856608E+03 F= -.22619771E+03 E0= -.22619771E+03  EK= 0.99919E+01 SP= -.12E+02 SK= 0.64E-01
   4266 T=   625. E= -.22856738E+03 F= -.22629094E+03 E0= -.22629094E+03  EK= 0.10262E+02 SP= -.13E+02 SK= 0.59E-01
   4267 T=   640. E= -.22856857E+03 F= -.22636722E+03 E0= -.22636722E+03  EK= 0.10508E+02 SP= -.13E+02 SK= 0.49E-01
   4268 T=   652. E= -.22856946E+03 F= -.22641302E+03 E0= -.22641302E+03  EK= 0.10709E+02 SP= -.13E+02 SK= 0.38E-01
   4269 T=   661. E= -.22856991E+03 F= -.22641978E+03 E0= -.22641978E+03  EK= 0.10851E+02 SP= -.13E+02 SK= 0.26E-01
   4270 T=   666. E= -.22856985E+03 F= -.22638525E+03 E0= -.22638525E+03  EK= 0.10925E+02 SP= -.13E+02 SK= 0.15E-01
   4271 T=   666. E= -.22856937E+03 F= -.22631363E+03 E0= -.22631363E+03  EK= 0.10934E+02 SP= -.13E+02 SK= 0.68E-02
   4272 T=   663. E= -.22856863E+03 F= -.22621420E+03 E0= -.22621420E+03  EK= 0.10884E+02 SP= -.13E+02 SK= 0.19E-02
   4273 T=   657. E= -.22856777E+03 F= -.22609904E+03 E0= -.22609904E+03  EK= 0.10789E+02 SP= -.13E+02 SK= 0.62E-04
   4274 T=   650. E= -.22856700E+03 F= -.22598074E+03 E0= -.22598074E+03  EK= 0.10666E+02 SP= -.13E+02 SK= 0.58E-03
   4275 T=   641. E= -.22856640E+03 F= -.22587033E+03 E0= -.22587033E+03  EK= 0.10527E+02 SP= -.13E+02 SK= 0.26E-02
   4276 T=   633. E= -.22856599E+03 F= -.22577609E+03 E0= -.22577609E+03  EK= 0.10387E+02 SP= -.13E+02 SK= 0.54E-02
   4277 T=   625. E= -.22856580E+03 F= -.22570309E+03 E0= -.22570309E+03  EK= 0.10254E+02 SP= -.13E+02 SK= 0.83E-02
   4278 T=   617. E= -.22856578E+03 F= -.22565321E+03 E0= -.22565321E+03  EK= 0.10134E+02 SP= -.13E+02 SK= 0.11E-01
   4279 T=   611. E= -.22856584E+03 F= -.22562588E+03 E0= -.22562588E+03  EK= 0.10029E+02 SP= -.13E+02 SK= 0.13E-01
   4280 T=   606. E= -.22856593E+03 F= -.22561910E+03 E0= -.22561910E+03  EK= 0.99406E+01 SP= -.13E+02 SK= 0.14E-01
   4281 T=   601. E= -.22856601E+03 F= -.22563033E+03 E0= -.22563033E+03  EK= 0.98679E+01 SP= -.13E+02 SK= 0.15E-01
   4282 T=   598. E= -.22856611E+03 F= -.22565670E+03 E0= -.22565670E+03  EK= 0.98099E+01 SP= -.13E+02 SK= 0.15E-01
 bond charge predicted
       N       E                     dE             d eps       ncg     rms          rms(c)
DAV:   1    -0.224793791079E+03    0.33051E+00   -0.18449E+03   264   0.627E+01
DAV:   2    -0.235916263783E+03   -0.11122E+02   -0.10968E+02   360   0.157E+01
DAV:   3    -0.236164969906E+03   -0.24871E+00   -0.24832E+00   324   0.257E+00
DAV:   4    -0.236171083721E+03   -0.61138E-02   -0.61121E-02   336   0.402E-01
DAV:   5    -0.236171316949E+03   -0.23323E-03   -0.23320E-03   336   0.821E-02    0.805E+00
RMM:   6    -0.227982794973E+03    0.81885E+01   -0.11099E+01   264   0.236E+00    0.445E+00
RMM:   7    -0.226134790383E+03    0.18480E+01   -0.24672E+00   264   0.172E+00    0.261E+00
RMM:   8    -0.225613259343E+03    0.52153E+00   -0.13089E+00   264   0.114E+00    0.119E+00
RMM:   9    -0.225606913475E+03    0.63459E-02   -0.34344E-01   265   0.713E-01    0.716E-01
RMM:  10    -0.225599523536E+03    0.73899E-02   -0.94851E-02   266   0.423E-01    0.416E-01
RMM:  11    -0.225598865170E+03    0.65837E-03   -0.27653E-02   269   0.238E-01    0.173E-01
RMM:  12    -0.225599541461E+03   -0.67629E-03   -0.86088E-03   271   0.143E-01    0.745E-02
RMM:  13    -0.225599554198E+03   -0.12737E-04   -0.18048E-03   268   0.660E-02    0.414E-02
RMM:  14    -0.225599529519E+03    0.24680E-04   -0.50906E-04   243   0.385E-02
   4283 T=   595. E= -.22847197E+03 F= -.22559953E+03 E0= -.22557819E+03  EK= 0.97635E+01 SP= -.13E+02 SK= 0.14E-01
   4284 T=   593. E= -.22856887E+03 F= -.22574421E+03 E0= -.22574421E+03  EK= 0.97298E+01 SP= -.13E+02 SK= 0.14E-01
   4285 T=   591. E= -.22856894E+03 F= -.22579953E+03 E0= -.22579953E+03  EK= 0.97063E+01 SP= -.12E+02 SK= 0.13E-01
   4286 T=   590. E= -.22856901E+03 F= -.22585847E+03 E0= -.22585847E+03  EK= 0.96896E+01 SP= -.12E+02 SK= 0.12E-01
   4287 T=   589. E= -.22856908E+03 F= -.22591828E+03 E0= -.22591828E+03  EK= 0.96773E+01 SP= -.12E+02 SK= 0.10E-01
   4288 T=   589. E= -.22856913E+03 F= -.22597635E+03 E0= -.22597635E+03  EK= 0.96670E+01 SP= -.12E+02 SK= 0.94E-02
   4289 T=   588. E= -.22856915E+03 F= -.22603040E+03 E0= -.22603040E+03  EK= 0.96568E+01 SP= -.12E+02 SK= 0.82E-02
   4290 T=   588. E= -.22856911E+03 F= -.22607874E+03 E0= -.22607874E+03  EK= 0.96452E+01 SP= -.12E+02 SK= 0.71E-02
   4291 T=   587. E= -.22856902E+03 F= -.22612049E+03 E0= -.22612049E+03  EK= 0.96317E+01 SP= -.12E+02 SK= 0.60E-02
   4292 T=   586. E= -.22856891E+03 F= -.22615555E+03 E0= -.22615555E+03  EK= 0.96164E+01 SP= -.12E+02 SK= 0.49E-02
   4293 T=   585. E= -.22856877E+03 F= -.22618435E+03 E0= -.22618435E+03  EK= 0.96001E+01 SP= -.12E+02 SK= 0.39E-02
   4294 T=   584. E= -.22856866E+03 F= -.22620777E+03 E0= -.22620777E+03  EK= 0.95841E+01 SP= -.12E+02 SK= 0.29E-02
   4295 T=   583. E= -.22856857E+03 F= -.22622665E+03 E0= -.22622665E+03  EK= 0.95696E+01 SP= -.12E+02 SK= 0.20E-02
   4296 T=   582. E= -.22856849E+03 F= -.22624165E+03 E0= -.22624165E+03  EK= 0.95574E+01 SP= -.12E+02 SK= 0.12E-02
   4297 T=   582. E= -.22856849E+03 F= -.22625313E+03 E0= -.22625313E+03  EK= 0.95483E+01 SP= -.12E+02 SK= 0.65E-03
   4298 T=   581. E= -.22856856E+03 F= -.22626073E+03 E0= -.22626073E+03  EK= 0.95421E+01 SP= -.12E+02 SK= 0.23E-03
   4299 T=   581. E= -.22856874E+03 F= -.22626318E+03 E0= -.22626318E+03  EK= 0.95375E+01 SP= -.12E+02 SK= 0.24E-04
   4300 T=   581. E= -.22856898E+03 F= -.22625797E+03 E0= -.22625797E+03  EK= 0.95322E+01 SP= -.12E+02 SK= 0.31E-04
   4301 T=   580. E= -.22856925E+03 F= -.22624187E+03 E0= -.22624187E+03  EK= 0.95232E+01 SP= -.12E+02 SK= 0.26E-03
   4302 T=   579. E= -.22856950E+03 F= -.22621147E+03 E0= -.22621147E+03  EK= 0.95073E+01 SP= -.12E+02 SK= 0.75E-03
   4303 T=   578. E= -.22856963E+03 F= -.22616416E+03 E0= -.22616416E+03  EK= 0.94823E+01 SP= -.12E+02 SK= 0.15E-02
   4304 T=   576. E= -.22856958E+03 F= -.22609928E+03 E0= -.22609928E+03  EK= 0.94482E+01 SP= -.12E+02 SK= 0.27E-02
   4305 T=   573. E= -.22856935E+03 F= -.22601882E+03 E0= -.22601882E+03  EK= 0.94076E+01 SP= -.12E+02 SK= 0.44E-02
   4306 T=   571. E= -.22856895E+03 F= -.22592766E+03 E0= -.22592766E+03  EK= 0.93663E+01 SP= -.12E+02 SK= 0.67E-02
   4307 T=   569. E= -.22856843E+03 F= -.22583337E+03 E0= -.22583337E+03  EK= 0.93327E+01 SP= -.12E+02 SK= 0.99E-02
   4308 T=   568. E= -.22856787E+03 F= -.22574522E+03 E0= -.22574522E+03  EK= 0.93167E+01 SP= -.12E+02 SK= 0.14E-01
   4309 T=   568. E= -.22856741E+03 F= -.22567265E+03 E0= -.22567265E+03  EK= 0.93281E+01 SP= -.12E+02 SK= 0.18E-01
   4310 T=   571. E= -.22856714E+03 F= -.22562347E+03 E0= -.22562347E+03  EK= 0.93748E+01 SP= -.12E+02 SK= 0.23E-01
   4311 T=   576. E= -.22856714E+03 F= -.22560238E+03 E0= -.22560238E+03  EK= 0.94606E+01 SP= -.12E+02 SK= 0.28E-01
   4312 T=   584. E= -.22856740E+03 F= -.22561011E+03 E0= -.22561011E+03  EK= 0.95850E+01 SP= -.13E+02 SK= 0.32E-01
   4313 T=   593. E= -.22856797E+03 F= -.22564306E+03 E0= -.22564306E+03  EK= 0.97420E+01 SP= -.13E+02 SK= 0.34E-01
   4314 T=   604. E= -.22856873E+03 F= -.22569358E+03 E0= -.22569358E+03  EK= 0.99206E+01 SP= -.13E+02 SK= 0.34E-01
   4315 T=   616. E= -.22856961E+03 F= -.22575142E+03 E0= -.22575142E+03  EK= 0.10107E+02 SP= -.13E+02 SK= 0.32E-01
   4316 T=   626. E= -.22857046E+03 F= -.22580524E+03 E0= -.22580524E+03  EK= 0.10284E+02 SP= -.13E+02 SK= 0.27E-01
   4317 T=   636. E= -.22857120E+03 F= -.22584449E+03 E0= -.22584449E+03  EK= 0.10437E+02 SP= -.13E+02 SK= 0.21E-01
   4318 T=   643. E= -.22857168E+03 F= -.22586084E+03 E0= -.22586084E+03  EK= 0.10553E+02 SP= -.13E+02 SK= 0.15E-01
   4319 T=   647. E= -.22857181E+03 F= -.22584975E+03 E0= -.22584975E+03  EK= 0.10623E+02 SP= -.13E+02 SK= 0.91E-02
   4320 T=   649. E= -.22857162E+03 F= -.22581118E+03 E0= -.22581118E+03  EK= 0.10646E+02 SP= -.13E+02 SK= 0.44E-02
   4321 T=   647. E= -.22857117E+03 F= -.22574942E+03 E0= -.22574942E+03  EK= 0.10624E+02 SP= -.13E+02 SK= 0.14E-02
   4322 T=   644. E= -.22857053E+03 F= -.22567198E+03 E0= -.22567198E+03  EK= 0.10565E+02 SP= -.13E+02 SK= 0.10E-03
   4323 T=   638. E= -.22856987E+03 F= -.22558826E+03 E0= -.22558826E+03  EK= 0.10480E+02 SP= -.13E+02 SK= 0.21E-03
   4324 T=   632. E= -.22856925E+03 F= -.22550792E+03 E0= -.22550792E+03  EK= 0.10382E+02 SP= -.13E+02 SK= 0.13E-02
   4325 T=   626. E= -.22856882E+03 F= -.22543925E+03 E0= -.22543925E+03  EK= 0.10281E+02 SP= -.13E+02 SK= 0.29E-02
   4326 T=   620. E= -.22856864E+03 F= -.22538770E+03 E0= -.22538770E+03  EK= 0.10185E+02 SP= -.13E+02 SK= 0.46E-02
   4327 T=   615. E= -.22856869E+03 F= -.22535507E+03 E0= -.22535507E+03  EK= 0.10100E+02 SP= -.13E+02 SK= 0.62E-02
   4328 T=   611. E= -.22856891E+03 F= -.22533965E+03 E0= -.22533965E+03  EK= 0.10025E+02 SP= -.13E+02 SK= 0.76E-02
   4329 T=   607. E= -.22856925E+03 F= -.22533707E+03 E0= -.22533707E+03  EK= 0.99580E+01 SP= -.13E+02 SK= 0.86E-02
   4330 T=   603. E= -.22856960E+03 F= -.22534120E+03 E0= -.22534120E+03  EK= 0.98953E+01 SP= -.13E+02 SK= 0.93E-02
   4331 T=   599. E= -.22856986E+03 F= -.22534577E+03 E0= -.22534577E+03  EK= 0.98318E+01 SP= -.13E+02 SK= 0.95E-02
   4332 T=   595. E= -.22856999E+03 F= -.22534573E+03 E0= -.22534573E+03  EK= 0.97642E+01 SP= -.13E+02 SK= 0.93E-02
   4333 T=   590. E= -.22856999E+03 F= -.22533811E+03 E0= -.22533811E+03  EK= 0.96913E+01 SP= -.13E+02 SK= 0.86E-02
   4334 T=   586. E= -.22856985E+03 F= -.22532215E+03 E0= -.22532215E+03  EK= 0.96141E+01 SP= -.13E+02 SK= 0.75E-02
   4335 T=   581. E= -.22856968E+03 F= -.22529906E+03 E0= -.22529906E+03  EK= 0.95354E+01 SP= -.13E+02 SK= 0.60E-02
   4336 T=   576. E= -.22856952E+03 F= -.22527104E+03 E0= -.22527104E+03  EK= 0.94593E+01 SP= -.13E+02 SK= 0.43E-02
   4337 T=   572. E= -.22856941E+03 F= -.22524046E+03 E0= -.22524046E+03  EK= 0.93898E+01 SP= -.13E+02 SK= 0.26E-02
   4338 T=   568. E= -.22856935E+03 F= -.22520916E+03 E0= -.22520916E+03  EK= 0.93300E+01 SP= -.13E+02 SK= 0.12E-02
   4339 T=   565. E= -.22856933E+03 F= -.22517838E+03 E0= -.22517838E+03  EK= 0.92826E+01 SP= -.13E+02 SK= 0.25E-03
   4340 T=   563. E= -.22856927E+03 F= -.22514898E+03 E0= -.22514898E+03  EK= 0.92494E+01 SP= -.13E+02 SK= 0.17E-04
   4341 T=   562. E= -.22856918E+03 F= -.22512228E+03 E0= -.22512228E+03  EK= 0.92324E+01 SP= -.13E+02 SK= 0.63E-03
   4342 T=   563. E= -.22856899E+03 F= -.22510038E+03 E0= -.22510038E+03  EK= 0.92341E+01 SP= -.13E+02 SK= 0.22E-02
   4343 T=   564. E= -.22856875E+03 F= -.22508643E+03 E0= -.22508643E+03  EK= 0.92577E+01 SP= -.13E+02 SK= 0.45E-02
   4344 T=   567. E= -.22856849E+03 F= -.22508432E+03 E0= -.22508432E+03  EK= 0.93065E+01 SP= -.13E+02 SK= 0.75E-02
   4345 T=   572. E= -.22856828E+03 F= -.22509795E+03 E0= -.22509795E+03  EK= 0.93837E+01 SP= -.13E+02 SK= 0.11E-01
   4346 T=   578. E= -.22856815E+03 F= -.22513046E+03 E0= -.22513046E+03  EK= 0.94907E+01 SP= -.13E+02 SK= 0.14E-01
   4347 T=   586. E= -.22856819E+03 F= -.22518349E+03 E0= -.22518349E+03  EK= 0.96272E+01 SP= -.13E+02 SK= 0.16E-01
   4348 T=   596. E= -.22856841E+03 F= -.22525627E+03 E0= -.22525627E+03  EK= 0.97895E+01 SP= -.13E+02 SK= 0.18E-01
   4349 T=   607. E= -.22856883E+03 F= -.22534540E+03 E0= -.22534540E+03  EK= 0.99705E+01 SP= -.13E+02 SK= 0.17E-01
   4350 T=   619. E= -.22856944E+03 F= -.22544477E+03 E0= -.22544477E+03  EK= 0.10160E+02 SP= -.13E+02 SK= 0.15E-01
   4351 T=   630. E= -.22857021E+03 F= -.22554584E+03 E0= -.22554584E+03  EK= 0.10344E+02 SP= -.13E+02 SK= 0.12E-01
   4352 T=   640. E= -.22857108E+03 F= -.22563817E+03 E0= -.22563817E+03  EK= 0.10507E+02 SP= -.13E+02 SK= 0.74E-02
   4353 T=   648. E= -.22857194E+03 F= -.22571023E+03 E0= -.22571023E+03  EK= 0.10633E+02 SP= -.13E+02 SK= 0.36E-02
   4354 T=   652. E= -.22857267E+03 F= -.22575047E+03 E0= -.22575047E+03  EK= 0.10706E+02 SP= -.14E+02 SK= 0.87E-03
   4355 T=   653. E= -.22857321E+03 F= -.22574877E+03 E0= -.22574877E+03  EK= 0.10714E+02 SP= -.14E+02 SK= 0.46E-05
   4356 T=   649. E= -.22857343E+03 F= -.22569747E+03 E0= -.22569747E+03  EK= 0.10649E+02 SP= -.14E+02 SK= 0.11E-02
   4357 T=   640. E= -.22857332E+03 F= -.22559254E+03 E0= -.22559254E+03  EK= 0.10510E+02 SP= -.13E+02 SK= 0.36E-02
   4358 T=   627. E= -.22857287E+03 F= -.22543444E+03 E0= -.22543444E+03  EK= 0.10300E+02 SP= -.13E+02 SK= 0.65E-02
   4359 T=   611. E= -.22857210E+03 F= -.22522860E+03 E0= -.22522860E+03  EK= 0.10032E+02 SP= -.13E+02 SK= 0.87E-02
   4360 T=   592. E= -.22857107E+03 F= -.22498561E+03 E0= -.22498561E+03  EK= 0.97244E+01 SP= -.13E+02 SK= 0.90E-02
   4361 T=   573. E= -.22856985E+03 F= -.22472100E+03 E0= -.22472100E+03  EK= 0.93998E+01 SP= -.13E+02 SK= 0.73E-02
   4362 T=   553. E= -.22856851E+03 F= -.22445455E+03 E0= -.22445455E+03  EK= 0.90855E+01 SP= -.13E+02 SK= 0.42E-02
   4363 T=   537. E= -.22856717E+03 F= -.22420888E+03 E0= -.22420888E+03  EK= 0.88103E+01 SP= -.13E+02 SK= 0.11E-02
   4364 T=   524. E= -.22856591E+03 F= -.22400752E+03 E0= -.22400752E+03  EK= 0.86023E+01 SP= -.13E+02 SK= 0.54E-04
   4365 T=   517. E= -.22856484E+03 F= -.22387236E+03 E0= -.22387236E+03  EK= 0.84866E+01 SP= -.13E+02 SK= 0.29E-02
   4366 T=   517. E= -.22856415E+03 F= -.22382094E+03 E0= -.22382094E+03  EK= 0.84825E+01 SP= -.13E+02 SK= 0.10E-01
   4367 T=   524. E= -.22856395E+03 F= -.22386347E+03 E0= -.22386347E+03  EK= 0.86009E+01 SP= -.13E+02 SK= 0.22E-01
   4368 T=   539. E= -.22856433E+03 F= -.22400066E+03 E0= -.22400066E+03  EK= 0.88417E+01 SP= -.13E+02 SK= 0.36E-01
   4369 T=   560. E= -.22856536E+03 F= -.22422290E+03 E0= -.22422290E+03  EK= 0.91927E+01 SP= -.14E+02 SK= 0.48E-01
   4370 T=   587. E= -.22856702E+03 F= -.22451072E+03 E0= -.22451072E+03  EK= 0.96292E+01 SP= -.14E+02 SK= 0.54E-01
   4371 T=   616. E= -.22856914E+03 F= -.22483681E+03 E0= -.22483681E+03  EK= 0.10116E+02 SP= -.14E+02 SK= 0.54E-01
   4372 T=   646. E= -.22857148E+03 F= -.22516968E+03 E0= -.22516968E+03  EK= 0.10610E+02 SP= -.14E+02 SK= 0.45E-01
   4373 T=   674. E= -.22857370E+03 F= -.22547795E+03 E0= -.22547795E+03  EK= 0.11066E+02 SP= -.14E+02 SK= 0.31E-01
   4374 T=   697. E= -.22857547E+03 F= -.22573462E+03 E0= -.22573462E+03  EK= 0.11442E+02 SP= -.14E+02 SK= 0.16E-01
   4375 T=   713. E= -.22857647E+03 F= -.22592043E+03 E0= -.22592043E+03  EK= 0.11704E+02 SP= -.14E+02 SK= 0.39E-02
   4376 T=   721. E= -.22857656E+03 F= -.22602618E+03 E0= -.22602618E+03  EK= 0.11833E+02 SP= -.14E+02 SK= 0.49E-04
   4377 T=   720. E= -.22857579E+03 F= -.22605311E+03 E0= -.22605311E+03  EK= 0.11824E+02 SP= -.14E+02 SK= 0.62E-02
   4378 T=   712. E= -.22857435E+03 F= -.22601144E+03 E0= -.22601144E+03  EK= 0.11689E+02 SP= -.14E+02 SK= 0.22E-01
   4379 T=   698. E= -.22857256E+03 F= -.22591780E+03 E0= -.22591780E+03  EK= 0.11450E+02 SP= -.14E+02 SK= 0.44E-01
   4380 T=   678. E= -.22857070E+03 F= -.22579222E+03 E0= -.22579222E+03  EK= 0.11137E+02 SP= -.14E+02 SK= 0.69E-01
   4381 T=   657. E= -.22856904E+03 F= -.22565521E+03 E0= -.22565521E+03  EK= 0.10782E+02 SP= -.14E+02 SK= 0.92E-01
   4382 T=   634. E= -.22856772E+03 F= -.22552522E+03 E0= -.22552522E+03  EK= 0.10415E+02 SP= -.14E+02 SK= 0.11E+00
   4383 T=   613. E= -.22856679E+03 F= -.22541741E+03 E0= -.22541741E+03  EK= 0.10063E+02 SP= -.13E+02 SK= 0.12E+00
   4384 T=   594. E= -.22856625E+03 F= -.22534283E+03 E0= -.22534283E+03  EK= 0.97467E+01 SP= -.13E+02 SK= 0.12E+00
   4385 T=   577. E= -.22856603E+03 F= -.22530847E+03 E0= -.22530847E+03  EK= 0.94790E+01 SP= -.13E+02 SK= 0.11E+00
   4386 T=   565. E= -.22856607E+03 F= -.22531737E+03 E0= -.22531737E+03  EK= 0.92683E+01 SP= -.13E+02 SK= 0.10E+00
   4387 T=   555. E= -.22856629E+03 F= -.22536913E+03 E0= -.22536913E+03  EK= 0.91174E+01 SP= -.12E+02 SK= 0.90E-01
   4388 T=   550. E= -.22856662E+03 F= -.22546055E+03 E0= -.22546055E+03  EK= 0.90249E+01 SP= -.12E+02 SK= 0.74E-01
   4389 T=   547. E= -.22856701E+03 F= -.22558635E+03 E0= -.22558635E+03  EK= 0.89862E+01 SP= -.12E+02 SK= 0.59E-01
   4390 T=   548. E= -.22856743E+03 F= -.22573980E+03 E0= -.22573980E+03  EK= 0.89943E+01 SP= -.12E+02 SK= 0.45E-01
   4391 T=   551. E= -.22856783E+03 F= -.22591326E+03 E0= -.22591326E+03  EK= 0.90409E+01 SP= -.12E+02 SK= 0.34E-01
   4392 T=   555. E= -.22856821E+03 F= -.22609880E+03 E0= -.22609880E+03  EK= 0.91167E+01 SP= -.12E+02 SK= 0.25E-01
   4393 T=   561. E= -.22856857E+03 F= -.22628847E+03 E0= -.22628847E+03  EK= 0.92119E+01 SP= -.12E+02 SK= 0.18E-01
   4394 T=   568. E= -.22856892E+03 F= -.22647448E+03 E0= -.22647448E+03  EK= 0.93169E+01 SP= -.11E+02 SK= 0.13E-01
   4395 T=   574. E= -.22856928E+03 F= -.22664933E+03 E0= -.22664933E+03  EK= 0.94219E+01 SP= -.11E+02 SK= 0.93E-02
   4396 T=   580. E= -.22856970E+03 F= -.22680543E+03 E0= -.22680543E+03  EK= 0.95171E+01 SP= -.11E+02 SK= 0.70E-02
   4397 T=   584. E= -.22857012E+03 F= -.22693493E+03 E0= -.22693493E+03  EK= 0.95927E+01 SP= -.11E+02 SK= 0.55E-02
   4398 T=   587. E= -.22857049E+03 F= -.22703015E+03 E0= -.22703015E+03  EK= 0.96395E+01 SP= -.11E+02 SK= 0.44E-02
   4399 T=   588. E= -.22857075E+03 F= -.22708446E+03 E0= -.22708446E+03  EK= 0.96501E+01 SP= -.11E+02 SK= 0.36E-02
   4400 T=   586. E= -.22857083E+03 F= -.22709327E+03 E0= -.22709327E+03  EK= 0.96199E+01 SP= -.11E+02 SK= 0.29E-02
   4401 T=   582. E= -.22857067E+03 F= -.22705489E+03 E0= -.22705489E+03  EK= 0.95481E+01 SP= -.11E+02 SK= 0.20E-02
   4402 T=   575. E= -.22857030E+03 F= -.22697144E+03 E0= -.22697144E+03  EK= 0.94385E+01 SP= -.11E+02 SK= 0.11E-02
   4403 T=   566. E= -.22856973E+03 F= -.22684879E+03 E0= -.22684879E+03  EK= 0.92996E+01 SP= -.11E+02 SK= 0.30E-03
   4404 T=   557. E= -.22856902E+03 F= -.22669645E+03 E0= -.22669645E+03  EK= 0.91438E+01 SP= -.11E+02 SK= 0.19E-04
   4405 T=   547. E= -.22856828E+03 F= -.22652646E+03 E0= -.22652646E+03  EK= 0.89861E+01 SP= -.11E+02 SK= 0.99E-03
   4406 T=   539. E= -.22856758E+03 F= -.22635181E+03 E0= -.22635181E+03  EK= 0.88424E+01 SP= -.11E+02 SK= 0.41E-02
   4407 T=   532. E= -.22856698E+03 F= -.22618517E+03 E0= -.22618517E+03  EK= 0.87279E+01 SP= -.11E+02 SK= 0.10E-01
   4408 T=   527. E= -.22856650E+03 F= -.22603765E+03 E0= -.22603765E+03  EK= 0.86559E+01 SP= -.11E+02 SK= 0.20E-01
   4409 T=   526. E= -.22856614E+03 F= -.22591817E+03 E0= -.22591817E+03  EK= 0.86368E+01 SP= -.11E+02 SK= 0.34E-01
   4410 T=   529. E= -.22856591E+03 F= -.22583299E+03 E0= -.22583299E+03  EK= 0.86779E+01 SP= -.11E+02 SK= 0.51E-01
   4411 T=   535. E= -.22856582E+03 F= -.22578553E+03 E0= -.22578553E+03  EK= 0.87828E+01 SP= -.12E+02 SK= 0.71E-01
   4412 T=   545. E= -.22856588E+03 F= -.22577644E+03 E0= -.22577644E+03  EK= 0.89515E+01 SP= -.12E+02 SK= 0.90E-01
   4413 T=   559. E= -.22856614E+03 F= -.22580362E+03 E0= -.22580362E+03  EK= 0.91802E+01 SP= -.12E+02 SK= 0.11E+00
   4414 T=   576. E= -.22856663E+03 F= -.22586206E+03 E0= -.22586206E+03  EK= 0.94609E+01 SP= -.12E+02 SK= 0.12E+00
   4415 T=   596. E= -.22856740E+03 F= -.22594396E+03 E0= -.22594396E+03  EK= 0.97808E+01 SP= -.13E+02 SK= 0.13E+00
   4416 T=   617. E= -.22856837E+03 F= -.22603914E+03 E0= -.22603914E+03  EK= 0.10123E+02 SP= -.13E+02 SK= 0.12E+00
   4417 T=   638. E= -.22856945E+03 F= -.22613623E+03 E0= -.22613623E+03  EK= 0.10469E+02 SP= -.13E+02 SK= 0.11E+00
   4418 T=   658. E= -.22857050E+03 F= -.22622428E+03 E0= -.22622428E+03  EK= 0.10796E+02 SP= -.13E+02 SK= 0.93E-01
   4419 T=   675. E= -.22857142E+03 F= -.22629412E+03 E0= -.22629412E+03  EK= 0.11086E+02 SP= -.13E+02 SK= 0.70E-01
   4420 T=   690. E= -.22857213E+03 F= -.22633936E+03 E0= -.22633936E+03  EK= 0.11322E+02 SP= -.14E+02 SK= 0.46E-01
   4421 T=   700. E= -.22857259E+03 F= -.22635660E+03 E0= -.22635660E+03  EK= 0.11490E+02 SP= -.14E+02 SK= 0.25E-01
   4422 T=   706. E= -.22857279E+03 F= -.22634507E+03 E0= -.22634507E+03  EK= 0.11584E+02 SP= -.14E+02 SK= 0.96E-02
   4423 T=   707. E= -.22857278E+03 F= -.22630569E+03 E0= -.22630569E+03  EK= 0.11599E+02 SP= -.14E+02 SK= 0.12E-02
   4424 T=   703. E= -.22857257E+03 F= -.22624050E+03 E0= -.22624050E+03  EK= 0.11537E+02 SP= -.14E+02 SK= 0.74E-03
   4425 T=   695. E= -.22857215E+03 F= -.22615212E+03 E0= -.22615212E+03  EK= 0.11403E+02 SP= -.14E+02 SK= 0.74E-02
   4426 T=   683. E= -.22857156E+03 F= -.22604401E+03 E0= -.22604401E+03  EK= 0.11206E+02 SP= -.14E+02 SK= 0.19E-01
   4427 T=   667. E= -.22857081E+03 F= -.22592086E+03 E0= -.22592086E+03  EK= 0.10957E+02 SP= -.14E+02 SK= 0.34E-01
   4428 T=   650. E= -.22857003E+03 F= -.22578858E+03 E0= -.22578858E+03  EK= 0.10671E+02 SP= -.14E+02 SK= 0.48E-01
   4429 T=   631. E= -.22856926E+03 F= -.22565390E+03 E0= -.22565390E+03  EK= 0.10365E+02 SP= -.13E+02 SK= 0.59E-01
   4430 T=   612. E= -.22856857E+03 F= -.22552398E+03 E0= -.22552398E+03  EK= 0.10055E+02 SP= -.13E+02 SK= 0.66E-01
   4431 T=   594. E= -.22856801E+03 F= -.22540595E+03 E0= -.22540595E+03  EK= 0.97563E+01 SP= -.13E+02 SK= 0.67E-01
   4432 T=   578. E= -.22856757E+03 F= -.22530641E+03 E0= -.22530641E+03  EK= 0.94832E+01 SP= -.13E+02 SK= 0.63E-01
   4433 T=   563. E= -.22856724E+03 F= -.22523118E+03 E0= -.22523118E+03  EK= 0.92469E+01 SP= -.13E+02 SK= 0.55E-01
   4434 T=   552. E= -.22856701E+03 F= -.22518518E+03 E0= -.22518518E+03  EK= 0.90569E+01 SP= -.12E+02 SK= 0.44E-01
   4435 T=   543. E= -.22856689E+03 F= -.22517214E+03 E0= -.22517214E+03  EK= 0.89196E+01 SP= -.12E+02 SK= 0.32E-01
   4436 T=   538. E= -.22856687E+03 F= -.22519422E+03 E0= -.22519422E+03  EK= 0.88391E+01 SP= -.12E+02 SK= 0.21E-01
   4437 T=   537. E= -.22856696E+03 F= -.22525167E+03 E0= -.22525167E+03  EK= 0.88164E+01 SP= -.12E+02 SK= 0.12E-01
   4438 T=   539. E= -.22856717E+03 F= -.22534249E+03 E0= -.22534249E+03  EK= 0.88492E+01 SP= -.12E+02 SK= 0.55E-02
   4439 T=   544. E= -.22856755E+03 F= -.22546212E+03 E0= -.22546212E+03  EK= 0.89321E+01 SP= -.12E+02 SK= 0.17E-02
   4440 T=   552. E= -.22856806E+03 F= -.22560331E+03 E0= -.22560331E+03  EK= 0.90563E+01 SP= -.12E+02 SK= 0.12E-03
   4441 T=   561. E= -.22856866E+03 F= -.22575660E+03 E0= -.22575660E+03  EK= 0.92099E+01 SP= -.12E+02 SK= 0.19E-03
   4442 T=   571. E= -.22856933E+03 F= -.22591119E+03 E0= -.22591119E+03  EK= 0.93793E+01 SP= -.12E+02 SK= 0.11E-02
   4443 T=   582. E= -.22856996E+03 F= -.22605579E+03 E0= -.22605579E+03  EK= 0.95497E+01 SP= -.12E+02 SK= 0.21E-02
   4444 T=   591. E= -.22857046E+03 F= -.22618030E+03 E0= -.22618030E+03  EK= 0.97075E+01 SP= -.12E+02 SK= 0.28E-02
   4445 T=   599. E= -.22857072E+03 F= -.22627714E+03 E0= -.22627714E+03  EK= 0.98414E+01 SP= -.12E+02 SK= 0.30E-02
   4446 T=   606. E= -.22857073E+03 F= -.22634247E+03 E0= -.22634247E+03  EK= 0.99442E+01 SP= -.12E+02 SK= 0.27E-02
   4447 T=   610. E= -.22857044E+03 F= -.22637677E+03 E0= -.22637677E+03  EK= 0.10014E+02 SP= -.12E+02 SK= 0.22E-02
   4448 T=   612. E= -.22856991E+03 F= -.22638481E+03 E0= -.22638481E+03  EK= 0.10053E+02 SP= -.12E+02 SK= 0.16E-02
   4449 T=   613. E= -.22856924E+03 F= -.22637485E+03 E0= -.22637485E+03  EK= 0.10069E+02 SP= -.12E+02 SK= 0.97E-03
   4450 T=   613. E= -.22856860E+03 F= -.22635703E+03 E0= -.22635703E+03  EK= 0.10071E+02 SP= -.12E+02 SK= 0.51E-03
   4451 T=   613. E= -.22856808E+03 F= -.22634109E+03 E0= -.22634109E+03  EK= 0.10069E+02 SP= -.12E+02 SK= 0.20E-03
   4452 T=   613. E= -.22856782E+03 F= -.22633462E+03 E0= -.22633462E+03  EK= 0.10070E+02 SP= -.12E+02 SK= 0.33E-04
   4453 T=   614. E= -.22856781E+03 F= -.22634157E+03 E0= -.22634157E+03  EK= 0.10078E+02 SP= -.12E+02 SK= 0.79E-05
   4454 T=   615. E= -.22856804E+03 F= -.22636180E+03 E0= -.22636180E+03  EK= 0.10092E+02 SP= -.12E+02 SK= 0.14E-03
   4455 T=   616. E= -.22856845E+03 F= -.22639143E+03 E0= -.22639143E+03  EK= 0.10110E+02 SP= -.12E+02 SK= 0.46E-03
   4456 T=   617. E= -.22856894E+03 F= -.22642382E+03 E0= -.22642382E+03  EK= 0.10123E+02 SP= -.12E+02 SK= 0.99E-03
   4457 T=   617. E= -.22856942E+03 F= -.22645092E+03 E0= -.22645092E+03  EK= 0.10123E+02 SP= -.12E+02 SK= 0.18E-02
   4458 T=   615. E= -.22856978E+03 F= -.22646484E+03 E0= -.22646484E+03  EK= 0.10103E+02 SP= -.12E+02 SK= 0.27E-02
   4459 T=   613. E= -.22857000E+03 F= -.22645925E+03 E0= -.22645925E+03  EK= 0.10056E+02 SP= -.12E+02 SK= 0.37E-02
   4460 T=   608. E= -.22856999E+03 F= -.22643021E+03 E0= -.22643021E+03  EK= 0.99816E+01 SP= -.12E+02 SK= 0.46E-02
   4461 T=   602. E= -.22856976E+03 F= -.22637700E+03 E0= -.22637700E+03  EK= 0.98795E+01 SP= -.12E+02 SK= 0.51E-02
   4462 T=   594. E= -.22856935E+03 F= -.22630230E+03 E0= -.22630230E+03  EK= 0.97555E+01 SP= -.12E+02 SK= 0.51E-02
   4463 T=   586. E= -.22856882E+03 F= -.22621170E+03 E0= -.22621170E+03  EK= 0.96182E+01 SP= -.12E+02 SK= 0.44E-02
   4464 T=   577. E= -.22856827E+03 F= -.22611292E+03 E0= -.22611292E+03  EK= 0.94786E+01 SP= -.12E+02 SK= 0.31E-02
   4465 T=   569. E= -.22856772E+03 F= -.22601485E+03 E0= -.22601485E+03  EK= 0.93486E+01 SP= -.12E+02 SK= 0.17E-02
   4466 T=   563. E= -.22856727E+03 F= -.22592657E+03 E0= -.22592657E+03  EK= 0.92399E+01 SP= -.12E+02 SK= 0.48E-03
   4467 T=   558. E= -.22856695E+03 F= -.22585598E+03 E0= -.22585598E+03  EK= 0.91627E+01 SP= -.12E+02 SK= 0.35E-06
   4468 T=   556. E= -.22856679E+03 F= -.22580907E+03 E0= -.22580907E+03  EK= 0.91243E+01 SP= -.12E+02 SK= 0.64E-03
   4469 T=   556. E= -.22856676E+03 F= -.22578948E+03 E0= -.22578948E+03  EK= 0.91292E+01 SP= -.12E+02 SK= 0.25E-02
   4470 T=   559. E= -.22856688E+03 F= -.22579835E+03 E0= -.22579835E+03  EK= 0.91786E+01 SP= -.12E+02 SK= 0.56E-02
   4471 T=   565. E= -.22856714E+03 F= -.22583421E+03 E0= -.22583421E+03  EK= 0.92702E+01 SP= -.12E+02 SK= 0.93E-02
   4472 T=   573. E= -.22856751E+03 F= -.22589323E+03 E0= -.22589323E+03  EK= 0.93986E+01 SP= -.12E+02 SK= 0.13E-01
   4473 T=   582. E= -.22856796E+03 F= -.22596977E+03 E0= -.22596977E+03  EK= 0.95558E+01 SP= -.12E+02 SK= 0.16E-01
   4474 T=   593. E= -.22856845E+03 F= -.22605707E+03 E0= -.22605707E+03  EK= 0.97317E+01 SP= -.12E+02 SK= 0.18E-01
   4475 T=   604. E= -.22856897E+03 F= -.22614793E+03 E0= -.22614793E+03  EK= 0.99153E+01 SP= -.12E+02 SK= 0.18E-01
   4476 T=   615. E= -.22856948E+03 F= -.22623506E+03 E0= -.22623506E+03  EK= 0.10095E+02 SP= -.12E+02 SK= 0.16E-01
   4477 T=   625. E= -.22856999E+03 F= -.22631159E+03 E0= -.22631159E+03  EK= 0.10259E+02 SP= -.13E+02 SK= 0.13E-01
   4478 T=   633. E= -.22857045E+03 F= -.22637118E+03 E0= -.22637118E+03  EK= 0.10396E+02 SP= -.13E+02 SK= 0.95E-02
   4479 T=   639. E= -.22857084E+03 F= -.22640815E+03 E0= -.22640815E+03  EK= 0.10496E+02 SP= -.13E+02 SK= 0.57E-02
   4480 T=   643. E= -.22857115E+03 F= -.22641778E+03 E0= -.22641778E+03  EK= 0.10553E+02 SP= -.13E+02 SK= 0.25E-02
   4481 T=   643. E= -.22857131E+03 F= -.22639656E+03 E0= -.22639656E+03  EK= 0.10559E+02 SP= -.13E+02 SK= 0.60E-03
   4482 T=   640. E= -.22857131E+03 F= -.22634264E+03 E0= -.22634264E+03  EK= 0.10514E+02 SP= -.13E+02 SK= 0.95E-06
   4483 T=   635. E= -.22857115E+03 F= -.22625601E+03 E0= -.22625601E+03  EK= 0.10418E+02 SP= -.13E+02 SK= 0.57E-03
   4484 T=   626. E= -.22857080E+03 F= -.22613893E+03 E0= -.22613893E+03  EK= 0.10277E+02 SP= -.13E+02 SK= 0.18E-02
   4485 T=   615. E= -.22857029E+03 F= -.22599614E+03 E0= -.22599614E+03  EK= 0.10100E+02 SP= -.13E+02 SK= 0.31E-02
   4486 T=   603. E= -.22856963E+03 F= -.22583493E+03 E0= -.22583493E+03  EK= 0.98978E+01 SP= -.13E+02 SK= 0.38E-02
   4487 T=   590. E= -.22856890E+03 F= -.22566498E+03 E0= -.22566498E+03  EK= 0.96863E+01 SP= -.13E+02 SK= 0.36E-02
   4488 T=   578. E= -.22856816E+03 F= -.22549755E+03 E0= -.22549755E+03  EK= 0.94818E+01 SP= -.13E+02 SK= 0.26E-02
   4489 T=   567. E= -.22856753E+03 F= -.22534432E+03 E0= -.22534432E+03  EK= 0.93002E+01 SP= -.13E+02 SK= 0.13E-02
   4490 T=   558. E= -.22856708E+03 F= -.22521581E+03 E0= -.22521581E+03  EK= 0.91560E+01 SP= -.13E+02 SK= 0.19E-03
   4491 T=   552. E= -.22856686E+03 F= -.22511998E+03 E0= -.22511998E+03  EK= 0.90598E+01 SP= -.13E+02 SK= 0.14E-03
   4492 T=   549. E= -.22856688E+03 F= -.22506117E+03 E0= -.22506117E+03  EK= 0.90178E+01 SP= -.13E+02 SK= 0.16E-02
   4493 T=   550. E= -.22856711E+03 F= -.22503982E+03 E0= -.22503982E+03  EK= 0.90313E+01 SP= -.13E+02 SK= 0.48E-02
   4494 T=   554. E= -.22856747E+03 F= -.22505285E+03 E0= -.22505285E+03  EK= 0.90974E+01 SP= -.13E+02 SK= 0.94E-02
   4495 T=   561. E= -.22856792E+03 F= -.22509467E+03 E0= -.22509467E+03  EK= 0.92094E+01 SP= -.13E+02 SK= 0.15E-01
   4496 T=   570. E= -.22856842E+03 F= -.22515816E+03 E0= -.22515816E+03  EK= 0.93585E+01 SP= -.13E+02 SK= 0.20E-01
   4497 T=   581. E= -.22856892E+03 F= -.22523565E+03 E0= -.22523565E+03  EK= 0.95343E+01 SP= -.13E+02 SK= 0.24E-01
   4498 T=   592. E= -.22856938E+03 F= -.22531985E+03 E0= -.22531985E+03  EK= 0.97259E+01 SP= -.13E+02 SK= 0.26E-01
   4499 T=   604. E= -.22856975E+03 F= -.22540461E+03 E0= -.22540461E+03  EK= 0.99229E+01 SP= -.13E+02 SK= 0.26E-01
   4500 T=   616. E= -.22857002E+03 F= -.22548546E+03 E0= -.22548546E+03  EK= 0.10116E+02 SP= -.13E+02 SK= 0.24E-01
   4501 T=   627. E= -.22857027E+03 F= -.22555956E+03 E0= -.22555956E+03  EK= 0.10297E+02 SP= -.13E+02 SK= 0.20E-01
   4502 T=   637. E= -.22857051E+03 F= -.22562502E+03 E0= -.22562502E+03  EK= 0.10459E+02 SP= -.13E+02 SK= 0.15E-01
   4503 T=   645. E= -.22857078E+03 F= -.22568014E+03 E0= -.22568014E+03  EK= 0.10596E+02 SP= -.13E+02 SK= 0.94E-02
   4504 T=   652. E= -.22857109E+03 F= -.22572280E+03 E0= -.22572280E+03  EK= 0.10700E+02 SP= -.14E+02 SK= 0.46E-02
   4505 T=   656. E= -.22857137E+03 F= -.22575013E+03 E0= -.22575013E+03  EK= 0.10766E+02 SP= -.14E+02 SK= 0.12E-02
   4506 T=   657. E= -.22857153E+03 F= -.22575935E+03 E0= -.22575935E+03  EK= 0.10790E+02 SP= -.14E+02 SK= 0.18E-05
   4507 T=   656. E= -.22857146E+03 F= -.22574887E+03 E0= -.22574887E+03  EK= 0.10767E+02 SP= -.14E+02 SK= 0.11E-02
   4508 T=   652. E= -.22857115E+03 F= -.22571943E+03 E0= -.22571943E+03  EK= 0.10701E+02 SP= -.14E+02 SK= 0.42E-02
   4509 T=   645. E= -.22857063E+03 F= -.22567465E+03 E0= -.22567465E+03  EK= 0.10596E+02 SP= -.14E+02 SK= 0.89E-02
   4510 T=   637. E= -.22856993E+03 F= -.22562085E+03 E0= -.22562085E+03  EK= 0.10464E+02 SP= -.13E+02 SK= 0.14E-01
   4511 T=   628. E= -.22856921E+03 F= -.22556651E+03 E0= -.22556651E+03  EK= 0.10315E+02 SP= -.13E+02 SK= 0.19E-01
   4512 T=   619. E= -.22856857E+03 F= -.22552070E+03 E0= -.22552070E+03  EK= 0.10163E+02 SP= -.13E+02 SK= 0.24E-01
   4513 T=   610. E= -.22856817E+03 F= -.22549130E+03 E0= -.22549130E+03  EK= 0.10021E+02 SP= -.13E+02 SK= 0.27E-01
   4514 T=   603. E= -.22856804E+03 F= -.22548332E+03 E0= -.22548332E+03  EK= 0.98967E+01 SP= -.13E+02 SK= 0.28E-01
   4515 T=   597. E= -.22856817E+03 F= -.22549793E+03 E0= -.22549793E+03  EK= 0.97943E+01 SP= -.13E+02 SK= 0.28E-01
   4516 T=   592. E= -.22856853E+03 F= -.22553241E+03 E0= -.22553241E+03  EK= 0.97134E+01 SP= -.13E+02 SK= 0.27E-01
   4517 T=   588. E= -.22856901E+03 F= -.22558072E+03 E0= -.22558072E+03  EK= 0.96498E+01 SP= -.13E+02 SK= 0.25E-01
   4518 T=   585. E= -.22856947E+03 F= -.22563493E+03 E0= -.22563493E+03  EK= 0.95972E+01 SP= -.13E+02 SK= 0.23E-01
   4519 T=   582. E= -.22856982E+03 F= -.22568705E+03 E0= -.22568705E+03  EK= 0.95487E+01 SP= -.12E+02 SK= 0.20E-01
   4520 T=   579. E= -.22857002E+03 F= -.22573058E+03 E0= -.22573058E+03  EK= 0.94990E+01 SP= -.12E+02 SK= 0.18E-01
   4521 T=   575. E= -.22857001E+03 F= -.22576139E+03 E0= -.22576139E+03  EK= 0.94452E+01 SP= -.12E+02 SK= 0.14E-01
   4522 T=   572. E= -.22856987E+03 F= -.22577824E+03 E0= -.22577824E+03  EK= 0.93872E+01 SP= -.12E+02 SK= 0.11E-01
   4523 T=   568. E= -.22856963E+03 F= -.22578228E+03 E0= -.22578228E+03  EK= 0.93273E+01 SP= -.12E+02 SK= 0.78E-02
   4524 T=   565. E= -.22856940E+03 F= -.22577616E+03 E0= -.22577616E+03  EK= 0.92694E+01 SP= -.12E+02 SK= 0.48E-02
   4525 T=   562. E= -.22856920E+03 F= -.22576302E+03 E0= -.22576302E+03  EK= 0.92177E+01 SP= -.12E+02 SK= 0.24E-02
   4526 T=   559. E= -.22856909E+03 F= -.22574570E+03 E0= -.22574570E+03  EK= 0.91762E+01 SP= -.12E+02 SK= 0.68E-03
   4527 T=   557. E= -.22856905E+03 F= -.22572610E+03 E0= -.22572610E+03  EK= 0.91474E+01 SP= -.12E+02 SK= 0.55E-05
   4528 T=   556. E= -.22856909E+03 F= -.22570511E+03 E0= -.22570511E+03  EK= 0.91328E+01 SP= -.12E+02 SK= 0.49E-03
   4529 T=   556. E= -.22856916E+03 F= -.22568258E+03 E0= -.22568258E+03  EK= 0.91326E+01 SP= -.12E+02 SK= 0.22E-02
   4530 T=   557. E= -.22856921E+03 F= -.22565796E+03 E0= -.22565796E+03  EK= 0.91463E+01 SP= -.12E+02 SK= 0.51E-02
   4531 T=   559. E= -.22856915E+03 F= -.22563124E+03 E0= -.22563124E+03  EK= 0.91739E+01 SP= -.12E+02 SK= 0.91E-02
   4532 T=   561. E= -.22856895E+03 F= -.22560394E+03 E0= -.22560394E+03  EK= 0.92163E+01 SP= -.12E+02 SK= 0.14E-01
   4533 T=   565. E= -.22856863E+03 F= -.22557946E+03 E0= -.22557946E+03  EK= 0.92763E+01 SP= -.12E+02 SK= 0.19E-01
   4534 T=   570. E= -.22856825E+03 F= -.22556282E+03 E0= -.22556282E+03  EK= 0.93577E+01 SP= -.12E+02 SK= 0.25E-01
   4535 T=   577. E= -.22856796E+03 F= -.22555962E+03 E0= -.22555962E+03  EK= 0.94646E+01 SP= -.13E+02 SK= 0.30E-01
   4536 T=   585. E= -.22856780E+03 F= -.22557436E+03 E0= -.22557436E+03  EK= 0.95994E+01 SP= -.13E+02 SK= 0.33E-01
   4537 T=   595. E= -.22856789E+03 F= -.22560932E+03 E0= -.22560932E+03  EK= 0.97616E+01 SP= -.13E+02 SK= 0.35E-01
   4538 T=   606. E= -.22856824E+03 F= -.22566344E+03 E0= -.22566344E+03  EK= 0.99467E+01 SP= -.13E+02 SK= 0.35E-01
   4539 T=   618. E= -.22856885E+03 F= -.22573213E+03 E0= -.22573213E+03  EK= 0.10146E+02 SP= -.13E+02 SK= 0.32E-01
   4540 T=   630. E= -.22856963E+03 F= -.22580769E+03 E0= -.22580769E+03  EK= 0.10346E+02 SP= -.13E+02 SK= 0.27E-01
   4541 T=   642. E= -.22857048E+03 F= -.22588025E+03 E0= -.22588025E+03  EK= 0.10532E+02 SP= -.13E+02 SK= 0.21E-01
   4542 T=   651. E= -.22857130E+03 F= -.22593929E+03 E0= -.22593929E+03  EK= 0.10688E+02 SP= -.13E+02 SK= 0.13E-01
   4543 T=   658. E= -.22857198E+03 F= -.22597502E+03 E0= -.22597502E+03  EK= 0.10798E+02 SP= -.13E+02 SK= 0.69E-02
   4544 T=   661. E= -.22857242E+03 F= -.22597957E+03 E0= -.22597957E+03  EK= 0.10852E+02 SP= -.13E+02 SK= 0.22E-02
   4545 T=   660. E= -.22857259E+03 F= -.22594766E+03 E0= -.22594766E+03  EK= 0.10842E+02 SP= -.13E+02 SK= 0.11E-03
   4546 T=   656. E= -.22857249E+03 F= -.22587719E+03 E0= -.22587719E+03  EK= 0.10767E+02 SP= -.13E+02 SK= 0.60E-03
   4547 T=   647. E= -.22857211E+03 F= -.22576937E+03 E0= -.22576937E+03  EK= 0.10629E+02 SP= -.13E+02 SK= 0.31E-02
   4548 T=   636. E= -.22857153E+03 F= -.22562858E+03 E0= -.22562858E+03  EK= 0.10437E+02 SP= -.13E+02 SK= 0.65E-02
   4549 T=   622. E= -.22857081E+03 F= -.22546192E+03 E0= -.22546192E+03  EK= 0.10206E+02 SP= -.13E+02 SK= 0.97E-02
   4550 T=   606. E= -.22857002E+03 F= -.22527867E+03 E0= -.22527867E+03  EK= 0.99496E+01 SP= -.13E+02 SK= 0.12E-01
   4551 T=   590. E= -.22856923E+03 F= -.22508964E+03 E0= -.22508964E+03  EK= 0.96867E+01 SP= -.13E+02 SK= 0.11E-01
   4552 T=   575. E= -.22856851E+03 F= -.22490638E+03 E0= -.22490638E+03  EK= 0.94348E+01 SP= -.13E+02 SK= 0.95E-02
   4553 T=   561. E= -.22856791E+03 F= -.22474019E+03 E0= -.22474019E+03  EK= 0.92109E+01 SP= -.13E+02 SK= 0.63E-02
   4554 T=   550. E= -.22856747E+03 F= -.22460107E+03 E0= -.22460107E+03  EK= 0.90292E+01 SP= -.13E+02 SK= 0.29E-02
   4555 T=   542. E= -.22856718E+03 F= -.22449703E+03 E0= -.22449703E+03  EK= 0.89011E+01 SP= -.13E+02 SK= 0.52E-03
   4556 T=   538. E= -.22856701E+03 F= -.22443365E+03 E0= -.22443365E+03  EK= 0.88345E+01 SP= -.13E+02 SK= 0.14E-03
   4557 T=   538. E= -.22856697E+03 F= -.22441402E+03 E0= -.22441402E+03  EK= 0.88334E+01 SP= -.13E+02 SK= 0.23E-02
   4558 T=   542. E= -.22856706E+03 F= -.22443866E+03 E0= -.22443866E+03  EK= 0.88986E+01 SP= -.13E+02 SK= 0.67E-02
   4559 T=   550. E= -.22856729E+03 F= -.22450549E+03 E0= -.22450549E+03  EK= 0.90272E+01 SP= -.13E+02 SK= 0.13E-01
   4560 T=   561. E= -.22856764E+03 F= -.22460997E+03 E0= -.22460997E+03  EK= 0.92127E+01 SP= -.13E+02 SK= 0.19E-01
   4561 T=   575. E= -.22856812E+03 F= -.22474540E+03 E0= -.22474540E+03  EK= 0.94453E+01 SP= -.13E+02 SK= 0.25E-01
   4562 T=   592. E= -.22856876E+03 F= -.22490338E+03 E0= -.22490338E+03  EK= 0.97121E+01 SP= -.13E+02 SK= 0.27E-01
   4563 T=   609. E= -.22856951E+03 F= -.22507409E+03 E0= -.22507409E+03  EK= 0.99976E+01 SP= -.14E+02 SK= 0.27E-01
   4564 T=   626. E= -.22857031E+03 F= -.22524710E+03 E0= -.22524710E+03  EK= 0.10284E+02 SP= -.14E+02 SK= 0.24E-01
   4565 T=   643. E= -.22857109E+03 F= -.22541230E+03 E0= -.22541230E+03  EK= 0.10555E+02 SP= -.14E+02 SK= 0.18E-01
   4566 T=   657. E= -.22857176E+03 F= -.22556081E+03 E0= -.22556081E+03  EK= 0.10792E+02 SP= -.14E+02 SK= 0.11E-01
   4567 T=   669. E= -.22857225E+03 F= -.22568573E+03 E0= -.22568573E+03  EK= 0.10981E+02 SP= -.14E+02 SK= 0.42E-02
   4568 T=   677. E= -.22857252E+03 F= -.22578264E+03 E0= -.22578264E+03  EK= 0.11111E+02 SP= -.14E+02 SK= 0.44E-03
   4569 T=   681. E= -.22857257E+03 F= -.22584943E+03 E0= -.22584943E+03  EK= 0.11176E+02 SP= -.14E+02 SK= 0.67E-03
   4570 T=   681. E= -.22857244E+03 F= -.22588594E+03 E0= -.22588594E+03  EK= 0.11173E+02 SP= -.14E+02 SK= 0.55E-02
   4571 T=   676. E= -.22857216E+03 F= -.22589319E+03 E0= -.22589319E+03  EK= 0.11103E+02 SP= -.14E+02 SK= 0.15E-01
   4572 T=   668. E= -.22857178E+03 F= -.22587284E+03 E0= -.22587284E+03  EK= 0.10972E+02 SP= -.14E+02 SK= 0.27E-01
   4573 T=   657. E= -.22857132E+03 F= -.22582698E+03 E0= -.22582698E+03  EK= 0.10785E+02 SP= -.14E+02 SK= 0.41E-01
   4574 T=   643. E= -.22857085E+03 F= -.22575792E+03 E0= -.22575792E+03  EK= 0.10552E+02 SP= -.13E+02 SK= 0.54E-01
   4575 T=   626. E= -.22857032E+03 F= -.22566824E+03 E0= -.22566824E+03  EK= 0.10284E+02 SP= -.13E+02 SK= 0.64E-01
   4576 T=   609. E= -.22856977E+03 F= -.22556157E+03 E0= -.22556157E+03  EK= 0.99920E+01 SP= -.13E+02 SK= 0.70E-01
   4577 T=   590. E= -.22856917E+03 F= -.22544295E+03 E0= -.22544295E+03  EK= 0.96896E+01 SP= -.13E+02 SK= 0.70E-01
   4578 T=   572. E= -.22856853E+03 F= -.22531923E+03 E0= -.22531923E+03  EK= 0.93912E+01 SP= -.13E+02 SK= 0.64E-01
   4579 T=   555. E= -.22856788E+03 F= -.22519911E+03 E0= -.22519911E+03  EK= 0.91120E+01 SP= -.13E+02 SK= 0.54E-01
   4580 T=   540. E= -.22856729E+03 F= -.22509260E+03 E0= -.22509260E+03  EK= 0.88670E+01 SP= -.12E+02 SK= 0.41E-01
   4581 T=   528. E= -.22856678E+03 F= -.22500989E+03 E0= -.22500989E+03  EK= 0.86704E+01 SP= -.12E+02 SK= 0.27E-01
   4582 T=   520. E= -.22856644E+03 F= -.22496004E+03 E0= -.22496004E+03  EK= 0.85336E+01 SP= -.12E+02 SK= 0.15E-01
   4583 T=   516. E= -.22856631E+03 F= -.22494940E+03 E0= -.22494940E+03  EK= 0.84644E+01 SP= -.12E+02 SK= 0.54E-02
   4584 T=   516. E= -.22856639E+03 F= -.22498066E+03 E0= -.22498066E+03  EK= 0.84661E+01 SP= -.12E+02 SK= 0.61E-03
   4585 T=   520. E= -.22856670E+03 F= -.22505219E+03 E0= -.22505219E+03  EK= 0.85367E+01 SP= -.12E+02 SK= 0.52E-03
   4586 T=   528. E= -.22856721E+03 F= -.22515799E+03 E0= -.22515799E+03  EK= 0.86692E+01 SP= -.12E+02 SK= 0.44E-02
   4587 T=   539. E= -.22856789E+03 F= -.22528844E+03 E0= -.22528844E+03  EK= 0.88522E+01 SP= -.12E+02 SK= 0.11E-01
   4588 T=   553. E= -.22856868E+03 F= -.22543130E+03 E0= -.22543130E+03  EK= 0.90707E+01 SP= -.12E+02 SK= 0.18E-01
   4589 T=   567. E= -.22856949E+03 F= -.22557320E+03 E0= -.22557320E+03  EK= 0.93078E+01 SP= -.12E+02 SK= 0.25E-01
   4590 T=   581. E= -.22857028E+03 F= -.22570104E+03 E0= -.22570104E+03  EK= 0.95456E+01 SP= -.12E+02 SK= 0.30E-01
   4591 T=   595. E= -.22857094E+03 F= -.22580331E+03 E0= -.22580331E+03  EK= 0.97678E+01 SP= -.13E+02 SK= 0.32E-01
   4592 T=   607. E= -.22857147E+03 F= -.22587122E+03 E0= -.22587122E+03  EK= 0.99598E+01 SP= -.13E+02 SK= 0.31E-01
   4593 T=   616. E= -.22857183E+03 F= -.22589902E+03 E0= -.22589902E+03  EK= 0.10111E+02 SP= -.13E+02 SK= 0.29E-01
   4594 T=   622. E= -.22857197E+03 F= -.22588425E+03 E0= -.22588425E+03  EK= 0.10214E+02 SP= -.13E+02 SK= 0.25E-01
   4595 T=   625. E= -.22857190E+03 F= -.22582776E+03 E0= -.22582776E+03  EK= 0.10267E+02 SP= -.13E+02 SK= 0.20E-01
   4596 T=   626. E= -.22857164E+03 F= -.22573350E+03 E0= -.22573350E+03  EK= 0.10271E+02 SP= -.13E+02 SK= 0.16E-01
   4597 T=   623. E= -.22857124E+03 F= -.22560806E+03 E0= -.22560806E+03  EK= 0.10233E+02 SP= -.13E+02 SK= 0.12E-01
   4598 T=   619. E= -.22857066E+03 F= -.22546015E+03 E0= -.22546015E+03  EK= 0.10162E+02 SP= -.13E+02 SK= 0.97E-02
   4599 T=   613. E= -.22856998E+03 F= -.22530055E+03 E0= -.22530055E+03  EK= 0.10070E+02 SP= -.13E+02 SK= 0.78E-02
   4600 T=   607. E= -.22856924E+03 F= -.22514144E+03 E0= -.22514144E+03  EK= 0.99719E+01 SP= -.13E+02 SK= 0.66E-02
   4601 T=   602. E= -.22856848E+03 F= -.22499576E+03 E0= -.22499576E+03  EK= 0.98831E+01 SP= -.13E+02 SK= 0.61E-02
   4602 T=   598. E= -.22856778E+03 F= -.22487633E+03 E0= -.22487633E+03  EK= 0.98187E+01 SP= -.14E+02 SK= 0.60E-02
   4603 T=   596. E= -.22856720E+03 F= -.22479496E+03 E0= -.22479496E+03  EK= 0.97922E+01 SP= -.14E+02 SK= 0.62E-02
   4604 T=   598. E= -.22856680E+03 F= -.22476141E+03 E0= -.22476141E+03  EK= 0.98141E+01 SP= -.14E+02 SK= 0.64E-02
   4605 T=   602. E= -.22856671E+03 F= -.22478218E+03 E0= -.22478218E+03  EK= 0.98906E+01 SP= -.14E+02 SK= 0.63E-02
   4606 T=   610. E= -.22856694E+03 F= -.22485908E+03 E0= -.22485908E+03  EK= 0.10022E+02 SP= -.14E+02 SK= 0.57E-02
   4607 T=   621. E= -.22856759E+03 F= -.22498864E+03 E0= -.22498864E+03  EK= 0.10201E+02 SP= -.14E+02 SK= 0.43E-02
   4608 T=   634. E= -.22856855E+03 F= -.22516169E+03 E0= -.22516169E+03  EK= 0.10415E+02 SP= -.14E+02 SK= 0.24E-02
   4609 T=   648. E= -.22856977E+03 F= -.22536444E+03 E0= -.22536444E+03  EK= 0.10644E+02 SP= -.14E+02 SK= 0.57E-03
   4610 T=   662. E= -.22857109E+03 F= -.22557959E+03 E0= -.22557959E+03  EK= 0.10863E+02 SP= -.14E+02 SK= 0.81E-04
   4611 T=   673. E= -.22857232E+03 F= -.22578835E+03 E0= -.22578835E+03  EK= 0.11048E+02 SP= -.14E+02 SK= 0.24E-02
   4612 T=   681. E= -.22857325E+03 F= -.22597285E+03 E0= -.22597285E+03  EK= 0.11175E+02 SP= -.14E+02 SK= 0.91E-02
   4613 T=   684. E= -.22857372E+03 F= -.22611855E+03 E0= -.22611855E+03  EK= 0.11224E+02 SP= -.14E+02 SK= 0.21E-01
   4614 T=   681. E= -.22857366E+03 F= -.22621584E+03 E0= -.22621584E+03  EK= 0.11187E+02 SP= -.14E+02 SK= 0.38E-01
   4615 T=   674. E= -.22857300E+03 F= -.22626131E+03 E0= -.22626131E+03  EK= 0.11062E+02 SP= -.13E+02 SK= 0.58E-01
   4616 T=   661. E= -.22857192E+03 F= -.22625842E+03 E0= -.22625842E+03  EK= 0.10857E+02 SP= -.13E+02 SK= 0.79E-01
   4617 T=   645. E= -.22857057E+03 F= -.22621637E+03 E0= -.22621637E+03  EK= 0.10590E+02 SP= -.13E+02 SK= 0.98E-01
   4618 T=   626. E= -.22856922E+03 F= -.22614843E+03 E0= -.22614843E+03  EK= 0.10284E+02 SP= -.13E+02 SK= 0.11E+00
   4619 T=   607. E= -.22856804E+03 F= -.22606929E+03 E0= -.22606929E+03  EK= 0.99620E+01 SP= -.13E+02 SK= 0.12E+00
   4620 T=   588. E= -.22856715E+03 F= -.22599289E+03 E0= -.22599289E+03  EK= 0.96469E+01 SP= -.12E+02 SK= 0.12E+00
   4621 T=   570. E= -.22856661E+03 F= -.22593064E+03 E0= -.22593064E+03  EK= 0.93575E+01 SP= -.12E+02 SK= 0.11E+00
   4622 T=   555. E= -.22856641E+03 F= -.22589033E+03 E0= -.22589033E+03  EK= 0.91070E+01 SP= -.12E+02 SK= 0.97E-01
   4623 T=   542. E= -.22856644E+03 F= -.22587576E+03 E0= -.22587576E+03  EK= 0.89035E+01 SP= -.12E+02 SK= 0.79E-01
   4624 T=   533. E= -.22856667E+03 F= -.22588728E+03 E0= -.22588728E+03  EK= 0.87502E+01 SP= -.11E+02 SK= 0.60E-01
   4625 T=   527. E= -.22856700E+03 F= -.22592230E+03 E0= -.22592230E+03  EK= 0.86462E+01 SP= -.11E+02 SK= 0.42E-01
   4626 T=   523. E= -.22856734E+03 F= -.22597630E+03 E0= -.22597630E+03  EK= 0.85879E+01 SP= -.11E+02 SK= 0.26E-01
   4627 T=   522. E= -.22856765E+03 F= -.22604392E+03 E0= -.22604392E+03  EK= 0.85706E+01 SP= -.11E+02 SK= 0.14E-01
   4628 T=   523. E= -.22856790E+03 F= -.22611980E+03 E0= -.22611980E+03  EK= 0.85886E+01 SP= -.11E+02 SK= 0.52E-02
   4629 T=   526. E= -.22856807E+03 F= -.22619908E+03 E0= -.22619908E+03  EK= 0.86367E+01 SP= -.11E+02 SK= 0.85E-03
   4630 T=   531. E= -.22856816E+03 F= -.22627783E+03 E0= -.22627783E+03  EK= 0.87102E+01 SP= -.11E+02 SK= 0.15E-03
   4631 T=   536. E= -.22856820E+03 F= -.22635309E+03 E0= -.22635309E+03  EK= 0.88048E+01 SP= -.11E+02 SK= 0.25E-02
   4632 T=   543. E= -.22856823E+03 F= -.22642276E+03 E0= -.22642276E+03  EK= 0.89168E+01 SP= -.11E+02 SK= 0.72E-02
   4633 T=   551. E= -.22856828E+03 F= -.22648518E+03 E0= -.22648518E+03  EK= 0.90428E+01 SP= -.11E+02 SK= 0.13E-01
   4634 T=   559. E= -.22856836E+03 F= -.22653873E+03 E0= -.22653873E+03  EK= 0.91788E+01 SP= -.11E+02 SK= 0.20E-01
   4635 T=   568. E= -.22856846E+03 F= -.22658174E+03 E0= -.22658174E+03  EK= 0.93207E+01 SP= -.11E+02 SK= 0.26E-01
   4636 T=   577. E= -.22856861E+03 F= -.22661252E+03 E0= -.22661252E+03  EK= 0.94639E+01 SP= -.11E+02 SK= 0.31E-01
   4637 T=   585. E= -.22856878E+03 F= -.22662929E+03 E0= -.22662929E+03  EK= 0.96036E+01 SP= -.12E+02 SK= 0.35E-01
   4638 T=   593. E= -.22856891E+03 F= -.22663048E+03 E0= -.22663048E+03  EK= 0.97350E+01 SP= -.12E+02 SK= 0.37E-01
   4639 T=   600. E= -.22856900E+03 F= -.22661543E+03 E0= -.22661543E+03  EK= 0.98544E+01 SP= -.12E+02 SK= 0.38E-01
   4640 T=   607. E= -.22856907E+03 F= -.22658424E+03 E0= -.22658424E+03  EK= 0.99586E+01 SP= -.12E+02 SK= 0.37E-01
   4641 T=   612. E= -.22856912E+03 F= -.22653768E+03 E0= -.22653768E+03  EK= 0.10046E+02 SP= -.12E+02 SK= 0.34E-01
   4642 T=   616. E= -.22856917E+03 F= -.22647695E+03 E0= -.22647695E+03  EK= 0.10114E+02 SP= -.12E+02 SK= 0.31E-01
   4643 T=   619. E= -.22856927E+03 F= -.22640320E+03 E0= -.22640320E+03  EK= 0.10163E+02 SP= -.12E+02 SK= 0.27E-01
   4644 T=   621. E= -.22856941E+03 F= -.22631701E+03 E0= -.22631701E+03  EK= 0.10192E+02 SP= -.12E+02 SK= 0.23E-01
   4645 T=   621. E= -.22856954E+03 F= -.22621850E+03 E0= -.22621850E+03  EK= 0.10199E+02 SP= -.13E+02 SK= 0.20E-01
   4646 T=   620. E= -.22856966E+03 F= -.22610763E+03 E0= -.22610763E+03  EK= 0.10184E+02 SP= -.13E+02 SK= 0.16E-01
   4647 T=   618. E= -.22856972E+03 F= -.22598455E+03 E0= -.22598455E+03  EK= 0.10148E+02 SP= -.13E+02 SK= 0.13E-01
   4648 T=   615. E= -.22856968E+03 F= -.22585006E+03 E0= -.22585006E+03  EK= 0.10092E+02 SP= -.13E+02 SK= 0.11E-01
   4649 T=   610. E= -.22856955E+03 F= -.22570617E+03 E0= -.22570617E+03  EK= 0.10020E+02 SP= -.13E+02 SK= 0.93E-02
   4650 T=   605. E= -.22856933E+03 F= -.22555608E+03 E0= -.22555608E+03  EK= 0.99367E+01 SP= -.13E+02 SK= 0.83E-02
   4651 T=   600. E= -.22856904E+03 F= -.22540411E+03 E0= -.22540411E+03  EK= 0.98482E+01 SP= -.13E+02 SK= 0.79E-02
   4652 T=   595. E= -.22856866E+03 F= -.22525578E+03 E0= -.22525578E+03  EK= 0.97623E+01 SP= -.13E+02 SK= 0.81E-02
   4653 T=   590. E= -.22856828E+03 F= -.22511759E+03 E0= -.22511759E+03  EK= 0.96878E+01 SP= -.13E+02 SK= 0.88E-02
   4654 T=   587. E= -.22856794E+03 F= -.22499608E+03 E0= -.22499608E+03  EK= 0.96329E+01 SP= -.13E+02 SK= 0.10E-01
   4655 T=   585. E= -.22856768E+03 F= -.22489721E+03 E0= -.22489721E+03  EK= 0.96050E+01 SP= -.13E+02 SK= 0.12E-01
   4656 T=   585. E= -.22856755E+03 F= -.22482540E+03 E0= -.22482540E+03  EK= 0.96093E+01 SP= -.13E+02 SK= 0.13E-01
   4657 T=   588. E= -.22856759E+03 F= -.22478301E+03 E0= -.22478301E+03  EK= 0.96483E+01 SP= -.13E+02 SK= 0.15E-01
   4658 T=   592. E= -.22856779E+03 F= -.22476997E+03 E0= -.22476997E+03  EK= 0.97214E+01 SP= -.14E+02 SK= 0.17E-01
   4659 T=   598. E= -.22856812E+03 F= -.22478381E+03 E0= -.22478381E+03  EK= 0.98247E+01 SP= -.14E+02 SK= 0.17E-01
   4660 T=   606. E= -.22856858E+03 F= -.22482017E+03 E0= -.22482017E+03  EK= 0.99515E+01 SP= -.14E+02 SK= 0.17E-01
   4661 T=   615. E= -.22856912E+03 F= -.22487312E+03 E0= -.22487312E+03  EK= 0.10093E+02 SP= -.14E+02 SK= 0.15E-01
   4662 T=   624. E= -.22856970E+03 F= -.22493581E+03 E0= -.22493581E+03  EK= 0.10239E+02 SP= -.14E+02 SK= 0.12E-01
   4663 T=   632. E= -.22857023E+03 F= -.22500138E+03 E0= -.22500138E+03  EK= 0.10378E+02 SP= -.14E+02 SK= 0.87E-02
   4664 T=   640. E= -.22857069E+03 F= -.22506371E+03 E0= -.22506371E+03  EK= 0.10501E+02 SP= -.14E+02 SK= 0.51E-02
   4665 T=   646. E= -.22857103E+03 F= -.22511797E+03 E0= -.22511797E+03  EK= 0.10599E+02 SP= -.14E+02 SK= 0.21E-02
   4666 T=   650. E= -.22857125E+03 F= -.22516099E+03 E0= -.22516099E+03  EK= 0.10665E+02 SP= -.14E+02 SK= 0.29E-03
   4667 T=   652. E= -.22857135E+03 F= -.22519109E+03 E0= -.22519109E+03  EK= 0.10696E+02 SP= -.14E+02 SK= 0.18E-03
   4668 T=   651. E= -.22857135E+03 F= -.22520790E+03 E0= -.22520790E+03  EK= 0.10691E+02 SP= -.14E+02 SK= 0.20E-02
   4669 T=   649. E= -.22857128E+03 F= -.22521200E+03 E0= -.22521200E+03  EK= 0.10650E+02 SP= -.14E+02 SK= 0.56E-02
   4670 T=   644. E= -.22857113E+03 F= -.22520455E+03 E0= -.22520455E+03  EK= 0.10576E+02 SP= -.14E+02 SK= 0.11E-01
   4671 T=   638. E= -.22857097E+03 F= -.22518704E+03 E0= -.22518704E+03  EK= 0.10473E+02 SP= -.14E+02 SK= 0.16E-01
   4672 T=   630. E= -.22857080E+03 F= -.22516096E+03 E0= -.22516096E+03  EK= 0.10345E+02 SP= -.14E+02 SK= 0.22E-01
   4673 T=   621. E= -.22857063E+03 F= -.22512763E+03 E0= -.22512763E+03  EK= 0.10198E+02 SP= -.14E+02 SK= 0.27E-01
   4674 T=   611. E= -.22857048E+03 F= -.22508815E+03 E0= -.22508815E+03  EK= 0.10038E+02 SP= -.14E+02 SK= 0.30E-01
   4675 T=   601. E= -.22857035E+03 F= -.22504335E+03 E0= -.22504335E+03  EK= 0.98683E+01 SP= -.13E+02 SK= 0.32E-01
   4676 T=   591. E= -.22857020E+03 F= -.22499405E+03 E0= -.22499405E+03  EK= 0.96956E+01 SP= -.13E+02 SK= 0.31E-01
   4677 T=   580. E= -.22857004E+03 F= -.22494141E+03 E0= -.22494141E+03  EK= 0.95250E+01 SP= -.13E+02 SK= 0.29E-01
   4678 T=   570. E= -.22856980E+03 F= -.22488733E+03 E0= -.22488733E+03  EK= 0.93623E+01 SP= -.13E+02 SK= 0.24E-01
   4679 T=   561. E= -.22856950E+03 F= -.22483499E+03 E0= -.22483499E+03  EK= 0.92140E+01 SP= -.13E+02 SK= 0.19E-01
   4680 T=   554. E= -.22856912E+03 F= -.22478898E+03 E0= -.22478898E+03  EK= 0.90876E+01 SP= -.13E+02 SK= 0.13E-01
   4681 T=   548. E= -.22856870E+03 F= -.22475523E+03 E0= -.22475523E+03  EK= 0.89913E+01 SP= -.13E+02 SK= 0.71E-02
   4682 T=   544. E= -.22856829E+03 F= -.22474035E+03 E0= -.22474035E+03  EK= 0.89332E+01 SP= -.13E+02 SK= 0.28E-02
   4683 T=   543. E= -.22856796E+03 F= -.22475064E+03 E0= -.22475064E+03  EK= 0.89204E+01 SP= -.13E+02 SK= 0.44E-03
   4684 T=   546. E= -.22856776E+03 F= -.22479105E+03 E0= -.22479105E+03  EK= 0.89578E+01 SP= -.13E+02 SK= 0.12E-03
   4685 T=   551. E= -.22856772E+03 F= -.22486418E+03 E0= -.22486418E+03  EK= 0.90474E+01 SP= -.13E+02 SK= 0.16E-02
   4686 T=   560. E= -.22856787E+03 F= -.22496965E+03 E0= -.22496965E+03  EK= 0.91872E+01 SP= -.13E+02 SK= 0.44E-02
   4687 T=   571. E= -.22856823E+03 F= -.22510391E+03 E0= -.22510391E+03  EK= 0.93710E+01 SP= -.13E+02 SK= 0.74E-02
   4688 T=   584. E= -.22856875E+03 F= -.22526037E+03 E0= -.22526037E+03  EK= 0.95888E+01 SP= -.13E+02 SK= 0.97E-02
   4689 T=   599. E= -.22856941E+03 F= -.22543021E+03 E0= -.22543021E+03  EK= 0.98271E+01 SP= -.13E+02 SK= 0.11E-01
   4690 T=   613. E= -.22857018E+03 F= -.22560299E+03 E0= -.22560299E+03  EK= 0.10070E+02 SP= -.13E+02 SK= 0.97E-02
   4691 T=   627. E= -.22857099E+03 F= -.22576738E+03 E0= -.22576738E+03  EK= 0.10300E+02 SP= -.13E+02 SK= 0.73E-02
   4692 T=   640. E= -.22857177E+03 F= -.22591195E+03 E0= -.22591195E+03  EK= 0.10500E+02 SP= -.13E+02 SK= 0.42E-02
   4693 T=   649. E= -.22857247E+03 F= -.22602603E+03 E0= -.22602603E+03  EK= 0.10652E+02 SP= -.13E+02 SK= 0.15E-02
   4694 T=   654. E= -.22857294E+03 F= -.22610045E+03 E0= -.22610045E+03  EK= 0.10743E+02 SP= -.13E+02 SK= 0.49E-04
   4695 T=   656. E= -.22857314E+03 F= -.22612880E+03 E0= -.22612880E+03  EK= 0.10764E+02 SP= -.13E+02 SK= 0.69E-03
   4696 T=   652. E= -.22857297E+03 F= -.22610821E+03 E0= -.22610821E+03  EK= 0.10711E+02 SP= -.13E+02 SK= 0.35E-02
   4697 T=   645. E= -.22857244E+03 F= -.22604027E+03 E0= -.22604027E+03  EK= 0.10587E+02 SP= -.13E+02 SK= 0.78E-02
   4698 T=   634. E= -.22857158E+03 F= -.22593129E+03 E0= -.22593129E+03  EK= 0.10404E+02 SP= -.13E+02 SK= 0.13E-01
   4699 T=   620. E= -.22857052E+03 F= -.22579191E+03 E0= -.22579191E+03  EK= 0.10178E+02 SP= -.13E+02 SK= 0.17E-01
   4700 T=   605. E= -.22856935E+03 F= -.22563621E+03 E0= -.22563621E+03  EK= 0.99283E+01 SP= -.13E+02 SK= 0.19E-01
   4701 T=   590. E= -.22856828E+03 F= -.22548024E+03 E0= -.22548024E+03  EK= 0.96784E+01 SP= -.13E+02 SK= 0.19E-01
   4702 T=   576. E= -.22856743E+03 F= -.22533953E+03 E0= -.22533953E+03  EK= 0.94494E+01 SP= -.13E+02 SK= 0.16E-01
   4703 T=   564. E= -.22856694E+03 F= -.22522687E+03 E0= -.22522687E+03  EK= 0.92590E+01 SP= -.13E+02 SK= 0.12E-01
   4704 T=   555. E= -.22856677E+03 F= -.22515044E+03 E0= -.22515044E+03  EK= 0.91189E+01 SP= -.13E+02 SK= 0.75E-02
   4705 T=   550. E= -.22856695E+03 F= -.22511336E+03 E0= -.22511336E+03  EK= 0.90348E+01 SP= -.12E+02 SK= 0.35E-02
   4706 T=   549. E= -.22856738E+03 F= -.22511347E+03 E0= -.22511347E+03  EK= 0.90058E+01 SP= -.12E+02 SK= 0.92E-03
   4707 T=   550. E= -.22856795E+03 F= -.22514433E+03 E0= -.22514433E+03  EK= 0.90260E+01 SP= -.12E+02 SK= 0.16E-05
   4708 T=   553. E= -.22856857E+03 F= -.22519677E+03 E0= -.22519677E+03  EK= 0.90859E+01 SP= -.12E+02 SK= 0.70E-03
   4709 T=   559. E= -.22856918E+03 F= -.22526054E+03 E0= -.22526054E+03  EK= 0.91742E+01 SP= -.12E+02 SK= 0.26E-02
   4710 T=   565. E= -.22856973E+03 F= -.22532548E+03 E0= -.22532548E+03  EK= 0.92792E+01 SP= -.13E+02 SK= 0.53E-02
   4711 T=   572. E= -.22857021E+03 F= -.22538249E+03 E0= -.22538249E+03  EK= 0.93896E+01 SP= -.13E+02 SK= 0.82E-02
   4712 T=   578. E= -.22857056E+03 F= -.22542400E+03 E0= -.22542400E+03  EK= 0.94959E+01 SP= -.13E+02 SK= 0.11E-01
   4713 T=   584. E= -.22857076E+03 F= -.22544462E+03 E0= -.22544462E+03  EK= 0.95900E+01 SP= -.13E+02 SK= 0.13E-01
   4714 T=   589. E= -.22857084E+03 F= -.22544142E+03 E0= -.22544142E+03  EK= 0.96670E+01 SP= -.13E+02 SK= 0.15E-01
   4715 T=   592. E= -.22857079E+03 F= -.22541384E+03 E0= -.22541384E+03  EK= 0.97243E+01 SP= -.13E+02 SK= 0.16E-01
   4716 T=   595. E= -.22857064E+03 F= -.22536342E+03 E0= -.22536342E+03  EK= 0.97618E+01 SP= -.13E+02 SK= 0.17E-01
   4717 T=   596. E= -.22857043E+03 F= -.22529335E+03 E0= -.22529335E+03  EK= 0.97817E+01 SP= -.13E+02 SK= 0.17E-01
   4718 T=   596. E= -.22857019E+03 F= -.22520783E+03 E0= -.22520783E+03  EK= 0.97875E+01 SP= -.13E+02 SK= 0.17E-01
   4719 T=   596. E= -.22856997E+03 F= -.22511161E+03 E0= -.22511161E+03  EK= 0.97836E+01 SP= -.13E+02 SK= 0.18E-01
   4720 T=   595. E= -.22856975E+03 F= -.22500930E+03 E0= -.22500930E+03  EK= 0.97747E+01 SP= -.13E+02 SK= 0.18E-01
   4721 T=   595. E= -.22856958E+03 F= -.22490514E+03 E0= -.22490514E+03  EK= 0.97652E+01 SP= -.13E+02 SK= 0.19E-01
   4722 T=   594. E= -.22856946E+03 F= -.22480279E+03 E0= -.22480279E+03  EK= 0.97589E+01 SP= -.14E+02 SK= 0.20E-01
   4723 T=   594. E= -.22856940E+03 F= -.22470506E+03 E0= -.22470506E+03  EK= 0.97589E+01 SP= -.14E+02 SK= 0.20E-01
   4724 T=   595. E= -.22856940E+03 F= -.22461385E+03 E0= -.22461385E+03  EK= 0.97671E+01 SP= -.14E+02 SK= 0.21E-01
   4725 T=   596. E= -.22856944E+03 F= -.22453035E+03 E0= -.22453035E+03  EK= 0.97846E+01 SP= -.14E+02 SK= 0.22E-01
   4726 T=   598. E= -.22856947E+03 F= -.22445526E+03 E0= -.22445526E+03  EK= 0.98119E+01 SP= -.14E+02 SK= 0.22E-01
   4727 T=   600. E= -.22856950E+03 F= -.22438930E+03 E0= -.22438930E+03  EK= 0.98490E+01 SP= -.14E+02 SK= 0.22E-01
   4728 T=   603. E= -.22856948E+03 F= -.22433348E+03 E0= -.22433348E+03  EK= 0.98963E+01 SP= -.14E+02 SK= 0.21E-01
   4729 T=   606. E= -.22856951E+03 F= -.22428905E+03 E0= -.22428905E+03  EK= 0.99538E+01 SP= -.14E+02 SK= 0.21E-01
   4730 T=   610. E= -.22856955E+03 F= -.22425712E+03 E0= -.22425712E+03  EK= 0.10021E+02 SP= -.14E+02 SK= 0.19E-01
   4731 T=   615. E= -.22856966E+03 F= -.22423840E+03 E0= -.22423840E+03  EK= 0.10098E+02 SP= -.14E+02 SK= 0.17E-01
   4732 T=   620. E= -.22856984E+03 F= -.22423272E+03 E0= -.22423272E+03  EK= 0.10181E+02 SP= -.15E+02 SK= 0.14E-01
   4733 T=   625. E= -.22857012E+03 F= -.22423879E+03 E0= -.22423879E+03  EK= 0.10268E+02 SP= -.15E+02 SK= 0.11E-01
   4734 T=   631. E= -.22857047E+03 F= -.22425415E+03 E0= -.22425415E+03  EK= 0.10353E+02 SP= -.15E+02 SK= 0.76E-02
   4735 T=   635. E= -.22857086E+03 F= -.22427521E+03 E0= -.22427521E+03  EK= 0.10431E+02 SP= -.15E+02 SK= 0.45E-02
   4736 T=   639. E= -.22857124E+03 F= -.22429762E+03 E0= -.22429762E+03  EK= 0.10494E+02 SP= -.15E+02 SK= 0.20E-02
   4737 T=   642. E= -.22857161E+03 F= -.22431697E+03 E0= -.22431697E+03  EK= 0.10538E+02 SP= -.15E+02 SK= 0.41E-03
   4738 T=   643. E= -.22857189E+03 F= -.22432892E+03 E0= -.22432892E+03  EK= 0.10555E+02 SP= -.15E+02 SK= 0.29E-04
   4739 T=   642. E= -.22857206E+03 F= -.22432983E+03 E0= -.22432983E+03  EK= 0.10542E+02 SP= -.15E+02 SK= 0.97E-03
   4740 T=   639. E= -.22857210E+03 F= -.22431718E+03 E0= -.22431718E+03  EK= 0.10497E+02 SP= -.15E+02 SK= 0.31E-02
   4741 T=   635. E= -.22857197E+03 F= -.22428992E+03 E0= -.22428992E+03  EK= 0.10420E+02 SP= -.15E+02 SK= 0.61E-02
   4742 T=   628. E= -.22857169E+03 F= -.22424900E+03 E0= -.22424900E+03  EK= 0.10315E+02 SP= -.15E+02 SK= 0.95E-02
   4743 T=   621. E= -.22857126E+03 F= -.22419746E+03 E0= -.22419746E+03  EK= 0.10187E+02 SP= -.15E+02 SK= 0.13E-01
   4744 T=   612. E= -.22857072E+03 F= -.22414041E+03 E0= -.22414041E+03  EK= 0.10046E+02 SP= -.14E+02 SK= 0.15E-01
   4745 T=   603. E= -.22857013E+03 F= -.22408477E+03 E0= -.22408477E+03  EK= 0.99019E+01 SP= -.14E+02 SK= 0.16E-01
   4746 T=   595. E= -.22856955E+03 F= -.22403843E+03 E0= -.22403843E+03  EK= 0.97667E+01 SP= -.14E+02 SK= 0.16E-01
   4747 T=   588. E= -.22856905E+03 F= -.22400948E+03 E0= -.22400948E+03  EK= 0.96514E+01 SP= -.14E+02 SK= 0.15E-01
   4748 T=   583. E= -.22856872E+03 F= -.22400504E+03 E0= -.22400504E+03  EK= 0.95656E+01 SP= -.14E+02 SK= 0.13E-01
   4749 T=   580. E= -.22856860E+03 F= -.22402999E+03 E0= -.22402999E+03  EK= 0.95158E+01 SP= -.14E+02 SK= 0.11E-01
   4750 T=   579. E= -.22856872E+03 F= -.22408590E+03 E0= -.22408590E+03  EK= 0.95044E+01 SP= -.14E+02 SK= 0.88E-02
   4751 T=   580. E= -.22856903E+03 F= -.22417072E+03 E0= -.22417072E+03  EK= 0.95293E+01 SP= -.14E+02 SK= 0.68E-02
   4752 T=   584. E= -.22856947E+03 F= -.22427938E+03 E0= -.22427938E+03  EK= 0.95848E+01 SP= -.14E+02 SK= 0.53E-02
   4753 T=   589. E= -.22856996E+03 F= -.22440467E+03 E0= -.22440467E+03  EK= 0.96624E+01 SP= -.14E+02 SK= 0.43E-02
   4754 T=   594. E= -.22857043E+03 F= -.22453838E+03 E0= -.22453838E+03  EK= 0.97520E+01 SP= -.14E+02 SK= 0.37E-02
   4755 T=   600. E= -.22857086E+03 F= -.22467242E+03 E0= -.22467242E+03  EK= 0.98435E+01 SP= -.14E+02 SK= 0.36E-02
   4756 T=   605. E= -.22857111E+03 F= -.22479982E+03 E0= -.22479982E+03  EK= 0.99277E+01 SP= -.14E+02 SK= 0.39E-02
   4757 T=   609. E= -.22857117E+03 F= -.22491591E+03 E0= -.22491591E+03  EK= 0.99980E+01 SP= -.14E+02 SK= 0.45E-02
   4758 T=   612. E= -.22857108E+03 F= -.22501868E+03 E0= -.22501868E+03  EK= 0.10051E+02 SP= -.14E+02 SK= 0.55E-02
   4759 T=   614. E= -.22857085E+03 F= -.22510859E+03 E0= -.22510859E+03  EK= 0.10085E+02 SP= -.14E+02 SK= 0.69E-02
   4760 T=   615. E= -.22857055E+03 F= -.22518796E+03 E0= -.22518796E+03  EK= 0.10102E+02 SP= -.13E+02 SK= 0.85E-02
   4761 T=   616. E= -.22857025E+03 F= -.22526001E+03 E0= -.22526001E+03  EK= 0.10104E+02 SP= -.13E+02 SK= 0.10E-01
   4762 T=   615. E= -.22857003E+03 F= -.22532781E+03 E0= -.22532781E+03  EK= 0.10096E+02 SP= -.13E+02 SK= 0.12E-01
   4763 T=   614. E= -.22856988E+03 F= -.22539333E+03 E0= -.22539333E+03  EK= 0.10078E+02 SP= -.13E+02 SK= 0.15E-01
   4764 T=   612. E= -.22856983E+03 F= -.22545721E+03 E0= -.22545721E+03  EK= 0.10053E+02 SP= -.13E+02 SK= 0.17E-01
   4765 T=   610. E= -.22856982E+03 F= -.22551870E+03 E0= -.22551870E+03  EK= 0.10019E+02 SP= -.13E+02 SK= 0.19E-01
   4766 T=   608. E= -.22856981E+03 F= -.22557614E+03 E0= -.22557614E+03  EK= 0.99776E+01 SP= -.13E+02 SK= 0.20E-01
   4767 T=   605. E= -.22856976E+03 F= -.22562782E+03 E0= -.22562782E+03  EK= 0.99269E+01 SP= -.13E+02 SK= 0.22E-01
   4768 T=   601. E= -.22856965E+03 F= -.22567250E+03 E0= -.22567250E+03  EK= 0.98674E+01 SP= -.13E+02 SK= 0.22E-01
   4769 T=   597. E= -.22856953E+03 F= -.22570963E+03 E0= -.22570963E+03  EK= 0.98001E+01 SP= -.13E+02 SK= 0.22E-01
   4770 T=   593. E= -.22856938E+03 F= -.22573902E+03 E0= -.22573902E+03  EK= 0.97266E+01 SP= -.13E+02 SK= 0.22E-01
   4771 T=   588. E= -.22856926E+03 F= -.22576106E+03 E0= -.22576106E+03  EK= 0.96490E+01 SP= -.12E+02 SK= 0.20E-01
   4772 T=   583. E= -.22856914E+03 F= -.22577617E+03 E0= -.22577617E+03  EK= 0.95697E+01 SP= -.12E+02 SK= 0.18E-01
   4773 T=   578. E= -.22856903E+03 F= -.22578489E+03 E0= -.22578489E+03  EK= 0.94910E+01 SP= -.12E+02 SK= 0.15E-01
   4774 T=   574. E= -.22856890E+03 F= -.22578822E+03 E0= -.22578822E+03  EK= 0.94157E+01 SP= -.12E+02 SK= 0.12E-01
   4775 T=   569. E= -.22856876E+03 F= -.22578759E+03 E0= -.22578759E+03  EK= 0.93468E+01 SP= -.12E+02 SK= 0.90E-02
   4776 T=   566. E= -.22856859E+03 F= -.22578495E+03 E0= -.22578495E+03  EK= 0.92877E+01 SP= -.12E+02 SK= 0.59E-02
   4777 T=   563. E= -.22856844E+03 F= -.22578285E+03 E0= -.22578285E+03  EK= 0.92420E+01 SP= -.12E+02 SK= 0.32E-02
   4778 T=   561. E= -.22856836E+03 F= -.22578387E+03 E0= -.22578387E+03  EK= 0.92132E+01 SP= -.12E+02 SK= 0.12E-02
   4779 T=   561. E= -.22856837E+03 F= -.22578966E+03 E0= -.22578966E+03  EK= 0.92034E+01 SP= -.12E+02 SK= 0.17E-03
   4780 T=   561. E= -.22856847E+03 F= -.22580063E+03 E0= -.22580063E+03  EK= 0.92131E+01 SP= -.12E+02 SK= 0.86E-04
   4781 T=   563. E= -.22856867E+03 F= -.22581590E+03 E0= -.22581590E+03  EK= 0.92412E+01 SP= -.12E+02 SK= 0.95E-03
   4782 T=   566. E= -.22856892E+03 F= -.22583321E+03 E0= -.22583321E+03  EK= 0.92851E+01 SP= -.12E+02 SK= 0.26E-02
   4783 T=   569. E= -.22856921E+03 F= -.22584939E+03 E0= -.22584939E+03  EK= 0.93407E+01 SP= -.12E+02 SK= 0.48E-02
   4784 T=   573. E= -.22856954E+03 F= -.22586058E+03 E0= -.22586058E+03  EK= 0.94030E+01 SP= -.12E+02 SK= 0.73E-02
   4785 T=   577. E= -.22856986E+03 F= -.22586262E+03 E0= -.22586262E+03  EK= 0.94666E+01 SP= -.12E+02 SK= 0.99E-02
   4786 T=   580. E= -.22857010E+03 F= -.22585155E+03 E0= -.22585155E+03  EK= 0.95263E+01 SP= -.12E+02 SK= 0.12E-01
   4787 T=   583. E= -.22857032E+03 F= -.22582421E+03 E0= -.22582421E+03  EK= 0.95774E+01 SP= -.12E+02 SK= 0.15E-01
   4788 T=   586. E= -.22857047E+03 F= -.22577819E+03 E0= -.22577819E+03  EK= 0.96163E+01 SP= -.12E+02 SK= 0.17E-01
   4789 T=   587. E= -.22857053E+03 F= -.22571221E+03 E0= -.22571221E+03  EK= 0.96409E+01 SP= -.13E+02 SK= 0.19E-01
   4790 T=   588. E= -.22857051E+03 F= -.22562637E+03 E0= -.22562637E+03  EK= 0.96504E+01 SP= -.13E+02 SK= 0.20E-01
   4791 T=   588. E= -.22857040E+03 F= -.22552217E+03 E0= -.22552217E+03  EK= 0.96460E+01 SP= -.13E+02 SK= 0.22E-01
   4792 T=   587. E= -.22857018E+03 F= -.22540267E+03 E0= -.22540267E+03  EK= 0.96307E+01 SP= -.13E+02 SK= 0.24E-01
   4793 T=   585. E= -.22856987E+03 F= -.22527258E+03 E0= -.22527258E+03  EK= 0.96096E+01 SP= -.13E+02 SK= 0.27E-01
   4794 T=   584. E= -.22856942E+03 F= -.22513838E+03 E0= -.22513838E+03  EK= 0.95895E+01 SP= -.13E+02 SK= 0.29E-01
   4795 T=   584. E= -.22856887E+03 F= -.22500826E+03 E0= -.22500826E+03  EK= 0.95792E+01 SP= -.13E+02 SK= 0.32E-01
   4796 T=   584. E= -.22856828E+03 F= -.22489177E+03 E0= -.22489177E+03  EK= 0.95885E+01 SP= -.13E+02 SK= 0.36E-01
   4797 T=   586. E= -.22856770E+03 F= -.22479896E+03 E0= -.22479896E+03  EK= 0.96275E+01 SP= -.13E+02 SK= 0.39E-01
   4798 T=   591. E= -.22856724E+03 F= -.22473924E+03 E0= -.22473924E+03  EK= 0.97051E+01 SP= -.14E+02 SK= 0.41E-01
   4799 T=   599. E= -.22856698E+03 F= -.22471995E+03 E0= -.22471995E+03  EK= 0.98273E+01 SP= -.14E+02 SK= 0.42E-01
   4800 T=   609. E= -.22856704E+03 F= -.22474509E+03 E0= -.22474509E+03  EK= 0.99957E+01 SP= -.14E+02 SK= 0.41E-01
   4801 T=   622. E= -.22856743E+03 F= -.22481423E+03 E0= -.22481423E+03  EK= 0.10206E+02 SP= -.14E+02 SK= 0.37E-01
   4802 T=   636. E= -.22856815E+03 F= -.22492217E+03 E0= -.22492217E+03  EK= 0.10449E+02 SP= -.14E+02 SK= 0.31E-01
   4803 T=   652. E= -.22856913E+03 F= -.22505939E+03 E0= -.22505939E+03  EK= 0.10707E+02 SP= -.14E+02 SK= 0.22E-01
   4804 T=   668. E= -.22857029E+03 F= -.22521310E+03 E0= -.22521310E+03  EK= 0.10960E+02 SP= -.14E+02 SK= 0.13E-01
   4805 T=   681. E= -.22857144E+03 F= -.22536878E+03 E0= -.22536878E+03  EK= 0.11187E+02 SP= -.14E+02 SK= 0.48E-02
   4806 T=   692. E= -.22857240E+03 F= -.22551214E+03 E0= -.22551214E+03  EK= 0.11364E+02 SP= -.14E+02 SK= 0.31E-03
   4807 T=   699. E= -.22857302E+03 F= -.22563094E+03 E0= -.22563094E+03  EK= 0.11473E+02 SP= -.14E+02 SK= 0.15E-02
   4808 T=   701. E= -.22857321E+03 F= -.22571651E+03 E0= -.22571651E+03  EK= 0.11502E+02 SP= -.14E+02 SK= 0.97E-02
   4809 T=   697. E= -.22857292E+03 F= -.22576461E+03 E0= -.22576461E+03  EK= 0.11447E+02 SP= -.14E+02 SK= 0.25E-01
   4810 T=   689. E= -.22857221E+03 F= -.22577583E+03 E0= -.22577583E+03  EK= 0.11309E+02 SP= -.14E+02 SK= 0.45E-01
   4811 T=   676. E= -.22857121E+03 F= -.22575500E+03 E0= -.22575500E+03  EK= 0.11100E+02 SP= -.14E+02 SK= 0.69E-01
   4812 T=   660. E= -.22857013E+03 F= -.22571017E+03 E0= -.22571017E+03  EK= 0.10836E+02 SP= -.14E+02 SK= 0.92E-01
   4813 T=   642. E= -.22856910E+03 F= -.22565079E+03 E0= -.22565079E+03  EK= 0.10537E+02 SP= -.14E+02 SK= 0.11E+00
   4814 T=   623. E= -.22856825E+03 F= -.22558628E+03 E0= -.22558628E+03  EK= 0.10221E+02 SP= -.13E+02 SK= 0.12E+00
   4815 T=   603. E= -.22856765E+03 F= -.22552464E+03 E0= -.22552464E+03  EK= 0.99049E+01 SP= -.13E+02 SK= 0.13E+00
   4816 T=   585. E= -.22856733E+03 F= -.22547160E+03 E0= -.22547160E+03  EK= 0.96036E+01 SP= -.13E+02 SK= 0.13E+00
   4817 T=   568. E= -.22856721E+03 F= -.22543044E+03 E0= -.22543044E+03  EK= 0.93267E+01 SP= -.13E+02 SK= 0.12E+00
   4818 T=   553. E= -.22856722E+03 F= -.22540253E+03 E0= -.22540253E+03  EK= 0.90810E+01 SP= -.12E+02 SK= 0.10E+00
   4819 T=   540. E= -.22856729E+03 F= -.22538811E+03 E0= -.22538811E+03  EK= 0.88710E+01 SP= -.12E+02 SK= 0.85E-01
   4820 T=   530. E= -.22856738E+03 F= -.22538686E+03 E0= -.22538686E+03  EK= 0.86995E+01 SP= -.12E+02 SK= 0.65E-01
   4821 T=   522. E= -.22856747E+03 F= -.22539832E+03 E0= -.22539832E+03  EK= 0.85681E+01 SP= -.12E+02 SK= 0.45E-01
   4822 T=   516. E= -.22856757E+03 F= -.22542192E+03 E0= -.22542192E+03  EK= 0.84776E+01 SP= -.12E+02 SK= 0.27E-01
   4823 T=   513. E= -.22856766E+03 F= -.22545682E+03 E0= -.22545682E+03  EK= 0.84281E+01 SP= -.12E+02 SK= 0.14E-01
   4824 T=   513. E= -.22856776E+03 F= -.22550191E+03 E0= -.22550191E+03  EK= 0.84186E+01 SP= -.11E+02 SK= 0.44E-02
   4825 T=   515. E= -.22856785E+03 F= -.22555573E+03 E0= -.22555573E+03  EK= 0.84477E+01 SP= -.11E+02 SK= 0.27E-03
   4826 T=   519. E= -.22856793E+03 F= -.22561651E+03 E0= -.22561651E+03  EK= 0.85130E+01 SP= -.11E+02 SK= 0.10E-02
   4827 T=   525. E= -.22856799E+03 F= -.22568251E+03 E0= -.22568251E+03  EK= 0.86119E+01 SP= -.12E+02 SK= 0.59E-02
   4828 T=   532. E= -.22856804E+03 F= -.22575201E+03 E0= -.22575201E+03  EK= 0.87413E+01 SP= -.12E+02 SK= 0.14E-01
   4829 T=   542. E= -.22856809E+03 F= -.22582332E+03 E0= -.22582332E+03  EK= 0.88976E+01 SP= -.12E+02 SK= 0.24E-01
   4830 T=   553. E= -.22856818E+03 F= -.22589483E+03 E0= -.22589483E+03  EK= 0.90766E+01 SP= -.12E+02 SK= 0.34E-01
   4831 T=   565. E= -.22856836E+03 F= -.22596454E+03 E0= -.22596454E+03  EK= 0.92735E+01 SP= -.12E+02 SK= 0.43E-01
   4832 T=   578. E= -.22856862E+03 F= -.22602985E+03 E0= -.22602985E+03  EK= 0.94818E+01 SP= -.12E+02 SK= 0.50E-01
   4833 T=   591. E= -.22856896E+03 F= -.22608762E+03 E0= -.22608762E+03  EK= 0.96941E+01 SP= -.12E+02 SK= 0.54E-01
   4834 T=   603. E= -.22856936E+03 F= -.22613426E+03 E0= -.22613426E+03  EK= 0.99020E+01 SP= -.12E+02 SK= 0.54E-01
   4835 T=   615. E= -.22856978E+03 F= -.22616603E+03 E0= -.22616603E+03  EK= 0.10097E+02 SP= -.13E+02 SK= 0.52E-01
   4836 T=   626. E= -.22857017E+03 F= -.22617960E+03 E0= -.22617960E+03  EK= 0.10269E+02 SP= -.13E+02 SK= 0.46E-01
   4837 T=   634. E= -.22857051E+03 F= -.22617241E+03 E0= -.22617241E+03  EK= 0.10412E+02 SP= -.13E+02 SK= 0.38E-01
   4838 T=   641. E= -.22857075E+03 F= -.22614306E+03 E0= -.22614306E+03  EK= 0.10520E+02 SP= -.13E+02 SK= 0.30E-01
   4839 T=   645. E= -.22857088E+03 F= -.22609151E+03 E0= -.22609151E+03  EK= 0.10588E+02 SP= -.13E+02 SK= 0.22E-01
   4840 T=   647. E= -.22857087E+03 F= -.22601903E+03 E0= -.22601903E+03  EK= 0.10616E+02 SP= -.13E+02 SK= 0.14E-01
   4841 T=   646. E= -.22857074E+03 F= -.22592824E+03 E0= -.22592824E+03  EK= 0.10605E+02 SP= -.13E+02 SK= 0.84E-02
   4842 T=   643. E= -.22857046E+03 F= -.22582301E+03 E0= -.22582301E+03  EK= 0.10559E+02 SP= -.13E+02 SK= 0.42E-02
   4843 T=   639. E= -.22857008E+03 F= -.22570865E+03 E0= -.22570865E+03  EK= 0.10484E+02 SP= -.13E+02 SK= 0.16E-02
   4844 T=   633. E= -.22856958E+03 F= -.22559172E+03 E0= -.22559172E+03  EK= 0.10389E+02 SP= -.13E+02 SK= 0.34E-03
   4845 T=   626. E= -.22856906E+03 F= -.22547983E+03 E0= -.22547983E+03  EK= 0.10285E+02 SP= -.13E+02 SK= 0.19E-06
   4846 T=   620. E= -.22856852E+03 F= -.22538092E+03 E0= -.22538092E+03  EK= 0.10181E+02 SP= -.13E+02 SK= 0.19E-03
   4847 T=   615. E= -.22856808E+03 F= -.22530258E+03 E0= -.22530258E+03  EK= 0.10090E+02 SP= -.13E+02 SK= 0.60E-03
   4848 T=   610. E= -.22856781E+03 F= -.22525087E+03 E0= -.22525087E+03  EK= 0.10018E+02 SP= -.13E+02 SK= 0.10E-02
   4849 T=   607. E= -.22856773E+03 F= -.22522923E+03 E0= -.22522923E+03  EK= 0.99715E+01 SP= -.13E+02 SK= 0.14E-02
   4850 T=   606. E= -.22856791E+03 F= -.22523786E+03 E0= -.22523786E+03  EK= 0.99515E+01 SP= -.13E+02 SK= 0.18E-02
   4851 T=   606. E= -.22856832E+03 F= -.22527317E+03 E0= -.22527317E+03  EK= 0.99549E+01 SP= -.13E+02 SK= 0.22E-02
   4852 T=   608. E= -.22856890E+03 F= -.22532811E+03 E0= -.22532811E+03  EK= 0.99745E+01 SP= -.13E+02 SK= 0.26E-02
   4853 T=   609. E= -.22856959E+03 F= -.22539287E+03 E0= -.22539287E+03  EK= 0.10000E+02 SP= -.13E+02 SK= 0.33E-02
   4854 T=   610. E= -.22857022E+03 F= -.22545606E+03 E0= -.22545606E+03  EK= 0.10020E+02 SP= -.13E+02 SK= 0.40E-02
   4855 T=   611. E= -.22857073E+03 F= -.22550680E+03 E0= -.22550680E+03  EK= 0.10023E+02 SP= -.13E+02 SK= 0.50E-02
   4856 T=   609. E= -.22857102E+03 F= -.22553603E+03 E0= -.22553603E+03  EK= 0.99991E+01 SP= -.13E+02 SK= 0.59E-02
   4857 T=   606. E= -.22857103E+03 F= -.22553792E+03 E0= -.22553792E+03  EK= 0.99446E+01 SP= -.13E+02 SK= 0.68E-02
   4858 T=   601. E= -.22857077E+03 F= -.22551084E+03 E0= -.22551084E+03  EK= 0.98591E+01 SP= -.13E+02 SK= 0.72E-02
   4859 T=   594. E= -.22857026E+03 F= -.22545751E+03 E0= -.22545751E+03  EK= 0.97474E+01 SP= -.13E+02 SK= 0.71E-02
   4860 T=   586. E= -.22856962E+03 F= -.22538447E+03 E0= -.22538447E+03  EK= 0.96190E+01 SP= -.13E+02 SK= 0.62E-02
   4861 T=   578. E= -.22856894E+03 F= -.22530071E+03 E0= -.22530071E+03  EK= 0.94857E+01 SP= -.13E+02 SK= 0.48E-02
   4862 T=   570. E= -.22856834E+03 F= -.22521643E+03 E0= -.22521643E+03  EK= 0.93607E+01 SP= -.13E+02 SK= 0.30E-02
   4863 T=   564. E= -.22856785E+03 F= -.22514132E+03 E0= -.22514132E+03  EK= 0.92563E+01 SP= -.13E+02 SK= 0.13E-02
   4864 T=   559. E= -.22856749E+03 F= -.22508362E+03 E0= -.22508362E+03  EK= 0.91826E+01 SP= -.13E+02 SK= 0.20E-03
   4865 T=   557. E= -.22856730E+03 F= -.22504957E+03 E0= -.22504957E+03  EK= 0.91474E+01 SP= -.13E+02 SK= 0.97E-04
   4866 T=   558. E= -.22856726E+03 F= -.22504289E+03 E0= -.22504289E+03  EK= 0.91551E+01 SP= -.13E+02 SK= 0.12E-02
   4867 T=   561. E= -.22856734E+03 F= -.22506482E+03 E0= -.22506482E+03  EK= 0.92068E+01 SP= -.13E+02 SK= 0.33E-02
   4868 T=   567. E= -.22856756E+03 F= -.22511440E+03 E0= -.22511440E+03  EK= 0.93007E+01 SP= -.13E+02 SK= 0.61E-02
   4869 T=   575. E= -.22856789E+03 F= -.22518863E+03 E0= -.22518863E+03  EK= 0.94320E+01 SP= -.13E+02 SK= 0.90E-02
   4870 T=   584. E= -.22856831E+03 F= -.22528277E+03 E0= -.22528277E+03  EK= 0.95936E+01 SP= -.13E+02 SK= 0.11E-01
   4871 T=   596. E= -.22856882E+03 F= -.22539089E+03 E0= -.22539089E+03  EK= 0.97760E+01 SP= -.13E+02 SK= 0.12E-01
   4872 T=   607. E= -.22856942E+03 F= -.22550607E+03 E0= -.22550607E+03  EK= 0.99682E+01 SP= -.13E+02 SK= 0.12E-01
   4873 T=   619. E= -.22856998E+03 F= -.22562083E+03 E0= -.22562083E+03  EK= 0.10158E+02 SP= -.13E+02 SK= 0.10E-01
   4874 T=   629. E= -.22857056E+03 F= -.22572800E+03 E0= -.22572800E+03  EK= 0.10333E+02 SP= -.13E+02 SK= 0.75E-02
   4875 T=   639. E= -.22857104E+03 F= -.22582081E+03 E0= -.22582081E+03  EK= 0.10482E+02 SP= -.13E+02 SK= 0.44E-02
   4876 T=   645. E= -.22857140E+03 F= -.22589373E+03 E0= -.22589373E+03  EK= 0.10595E+02 SP= -.13E+02 SK= 0.17E-02
   4877 T=   650. E= -.22857156E+03 F= -.22594286E+03 E0= -.22594286E+03  EK= 0.10663E+02 SP= -.13E+02 SK= 0.15E-03
   4878 T=   651. E= -.22857154E+03 F= -.22596648E+03 E0= -.22596648E+03  EK= 0.10685E+02 SP= -.13E+02 SK= 0.33E-03
   4879 T=   649. E= -.22857132E+03 F= -.22596492E+03 E0= -.22596492E+03  EK= 0.10658E+02 SP= -.13E+02 SK= 0.23E-02
   4880 T=   645. E= -.22857092E+03 F= -.22594064E+03 E0= -.22594064E+03  EK= 0.10587E+02 SP= -.13E+02 SK= 0.59E-02
   4881 T=   638. E= -.22857044E+03 F= -.22589791E+03 E0= -.22589791E+03  EK= 0.10478E+02 SP= -.13E+02 SK= 0.10E-01
   4882 T=   630. E= -.22856992E+03 F= -.22584199E+03 E0= -.22584199E+03  EK= 0.10340E+02 SP= -.13E+02 SK= 0.15E-01
   4883 T=   620. E= -.22856945E+03 F= -.22577840E+03 E0= -.22577840E+03  EK= 0.10182E+02 SP= -.13E+02 SK= 0.19E-01
   4884 T=   610. E= -.22856906E+03 F= -.22571216E+03 E0= -.22571216E+03  EK= 0.10014E+02 SP= -.13E+02 SK= 0.22E-01
   4885 T=   600. E= -.22856877E+03 F= -.22564738E+03 E0= -.22564738E+03  EK= 0.98441E+01 SP= -.13E+02 SK= 0.23E-01
   4886 T=   590. E= -.22856855E+03 F= -.22558709E+03 E0= -.22558709E+03  EK= 0.96803E+01 SP= -.13E+02 SK= 0.22E-01
   4887 T=   580. E= -.22856840E+03 F= -.22553341E+03 E0= -.22553341E+03  EK= 0.95284E+01 SP= -.13E+02 SK= 0.20E-01
   4888 T=   572. E= -.22856827E+03 F= -.22548792E+03 E0= -.22548792E+03  EK= 0.93932E+01 SP= -.12E+02 SK= 0.16E-01
   4889 T=   565. E= -.22856816E+03 F= -.22545194E+03 E0= -.22545194E+03  EK= 0.92790E+01 SP= -.12E+02 SK= 0.12E-01
   4890 T=   560. E= -.22856808E+03 F= -.22542660E+03 E0= -.22542660E+03  EK= 0.91890E+01 SP= -.12E+02 SK= 0.78E-02
   4891 T=   556. E= -.22856804E+03 F= -.22541271E+03 E0= -.22541271E+03  EK= 0.91256E+01 SP= -.12E+02 SK= 0.41E-02
   4892 T=   554. E= -.22856805E+03 F= -.22541049E+03 E0= -.22541049E+03  EK= 0.90902E+01 SP= -.12E+02 SK= 0.15E-02
   4893 T=   553. E= -.22856812E+03 F= -.22541923E+03 E0= -.22541923E+03  EK= 0.90827E+01 SP= -.12E+02 SK= 0.14E-03
   4894 T=   554. E= -.22856825E+03 F= -.22543711E+03 E0= -.22543711E+03  EK= 0.91013E+01 SP= -.12E+02 SK= 0.21E-03
   4895 T=   557. E= -.22856842E+03 F= -.22546141E+03 E0= -.22546141E+03  EK= 0.91430E+01 SP= -.12E+02 SK= 0.16E-02
   4896 T=   561. E= -.22856857E+03 F= -.22548897E+03 E0= -.22548897E+03  EK= 0.92038E+01 SP= -.12E+02 SK= 0.40E-02
   4897 T=   565. E= -.22856872E+03 F= -.22551670E+03 E0= -.22551670E+03  EK= 0.92797E+01 SP= -.12E+02 SK= 0.71E-02
   4898 T=   571. E= -.22856885E+03 F= -.22554177E+03 E0= -.22554177E+03  EK= 0.93662E+01 SP= -.12E+02 SK= 0.10E-01
   4899 T=   576. E= -.22856897E+03 F= -.22556176E+03 E0= -.22556176E+03  EK= 0.94593E+01 SP= -.12E+02 SK= 0.14E-01
   4900 T=   582. E= -.22856907E+03 F= -.22557473E+03 E0= -.22557473E+03  EK= 0.95549E+01 SP= -.13E+02 SK= 0.17E-01
   4901 T=   588. E= -.22856915E+03 F= -.22557932E+03 E0= -.22557932E+03  EK= 0.96498E+01 SP= -.13E+02 SK= 0.19E-01
   4902 T=   593. E= -.22856921E+03 F= -.22557484E+03 E0= -.22557484E+03  EK= 0.97409E+01 SP= -.13E+02 SK= 0.20E-01
   4903 T=   599. E= -.22856921E+03 F= -.22556125E+03 E0= -.22556125E+03  EK= 0.98260E+01 SP= -.13E+02 SK= 0.20E-01
   4904 T=   603. E= -.22856919E+03 F= -.22553926E+03 E0= -.22553926E+03  EK= 0.99038E+01 SP= -.13E+02 SK= 0.20E-01
   4905 T=   608. E= -.22856913E+03 F= -.22551015E+03 E0= -.22551015E+03  EK= 0.99734E+01 SP= -.13E+02 SK= 0.19E-01
   4906 T=   611. E= -.22856907E+03 F= -.22547578E+03 E0= -.22547578E+03  EK= 0.10035E+02 SP= -.13E+02 SK= 0.17E-01
   4907 T=   615. E= -.22856902E+03 F= -.22543808E+03 E0= -.22543808E+03  EK= 0.10088E+02 SP= -.13E+02 SK= 0.15E-01
   4908 T=   617. E= -.22856902E+03 F= -.22539880E+03 E0= -.22539880E+03  EK= 0.10134E+02 SP= -.13E+02 SK= 0.13E-01
   4909 T=   620. E= -.22856906E+03 F= -.22535914E+03 E0= -.22535914E+03  EK= 0.10172E+02 SP= -.13E+02 SK= 0.10E-01
   4910 T=   621. E= -.22856916E+03 F= -.22531956E+03 E0= -.22531956E+03  EK= 0.10202E+02 SP= -.13E+02 SK= 0.80E-02
   4911 T=   623. E= -.22856928E+03 F= -.22527975E+03 E0= -.22527975E+03  EK= 0.10222E+02 SP= -.14E+02 SK= 0.58E-02
   4912 T=   623. E= -.22856939E+03 F= -.22523916E+03 E0= -.22523916E+03  EK= 0.10231E+02 SP= -.14E+02 SK= 0.38E-02
   4913 T=   623. E= -.22856945E+03 F= -.22519742E+03 E0= -.22519742E+03  EK= 0.10229E+02 SP= -.14E+02 SK= 0.23E-02
   4914 T=   622. E= -.22856940E+03 F= -.22515504E+03 E0= -.22515504E+03  EK= 0.10217E+02 SP= -.14E+02 SK= 0.11E-02
   4915 T=   621. E= -.22856925E+03 F= -.22511400E+03 E0= -.22511400E+03  EK= 0.10195E+02 SP= -.14E+02 SK= 0.42E-03
   4916 T=   619. E= -.22856898E+03 F= -.22507787E+03 E0= -.22507787E+03  EK= 0.10170E+02 SP= -.14E+02 SK= 0.63E-04
   4917 T=   618. E= -.22856866E+03 F= -.22505168E+03 E0= -.22505168E+03  EK= 0.10145E+02 SP= -.14E+02 SK= 0.13E-04
   4918 T=   617. E= -.22856834E+03 F= -.22504120E+03 E0= -.22504120E+03  EK= 0.10129E+02 SP= -.14E+02 SK= 0.21E-03
   4919 T=   617. E= -.22856808E+03 F= -.22505203E+03 E0= -.22505203E+03  EK= 0.10126E+02 SP= -.14E+02 SK= 0.62E-03
   4920 T=   618. E= -.22856796E+03 F= -.22508858E+03 E0= -.22508858E+03  EK= 0.10141E+02 SP= -.14E+02 SK= 0.13E-02
   4921 T=   620. E= -.22856803E+03 F= -.22515290E+03 E0= -.22515290E+03  EK= 0.10175E+02 SP= -.14E+02 SK= 0.22E-02
   4922 T=   623. E= -.22856833E+03 F= -.22524389E+03 E0= -.22524389E+03  EK= 0.10228E+02 SP= -.14E+02 SK= 0.36E-02
   4923 T=   627. E= -.22856884E+03 F= -.22535689E+03 E0= -.22535689E+03  EK= 0.10291E+02 SP= -.14E+02 SK= 0.56E-02
   4924 T=   631. E= -.22856950E+03 F= -.22548385E+03 E0= -.22548385E+03  EK= 0.10356E+02 SP= -.13E+02 SK= 0.86E-02
   4925 T=   634. E= -.22857018E+03 F= -.22561446E+03 E0= -.22561446E+03  EK= 0.10410E+02 SP= -.13E+02 SK= 0.13E-01
   4926 T=   636. E= -.22857075E+03 F= -.22573768E+03 E0= -.22573768E+03  EK= 0.10442E+02 SP= -.13E+02 SK= 0.18E-01
   4927 T=   636. E= -.22857113E+03 F= -.22584354E+03 E0= -.22584354E+03  EK= 0.10440E+02 SP= -.13E+02 SK= 0.24E-01
   4928 T=   633. E= -.22857125E+03 F= -.22592427E+03 E0= -.22592427E+03  EK= 0.10398E+02 SP= -.13E+02 SK= 0.31E-01
   4929 T=   628. E= -.22857109E+03 F= -.22597552E+03 E0= -.22597552E+03  EK= 0.10312E+02 SP= -.13E+02 SK= 0.38E-01
   4930 T=   620. E= -.22857068E+03 F= -.22599674E+03 E0= -.22599674E+03  EK= 0.10186E+02 SP= -.13E+02 SK= 0.44E-01
   4931 T=   611. E= -.22857010E+03 F= -.22599093E+03 E0= -.22599093E+03  EK= 0.10026E+02 SP= -.13E+02 SK= 0.49E-01
   4932 T=   600. E= -.22856939E+03 F= -.22596409E+03 E0= -.22596409E+03  EK= 0.98431E+01 SP= -.12E+02 SK= 0.50E-01
   4933 T=   588. E= -.22856868E+03 F= -.22592465E+03 E0= -.22592465E+03  EK= 0.96501E+01 SP= -.12E+02 SK= 0.49E-01
   4934 T=   576. E= -.22856803E+03 F= -.22588201E+03 E0= -.22588201E+03  EK= 0.94612E+01 SP= -.12E+02 SK= 0.45E-01
   4935 T=   566. E= -.22856749E+03 F= -.22584540E+03 E0= -.22584540E+03  EK= 0.92898E+01 SP= -.12E+02 SK= 0.38E-01
   4936 T=   557. E= -.22856712E+03 F= -.22582288E+03 E0= -.22582288E+03  EK= 0.91470E+01 SP= -.12E+02 SK= 0.30E-01
   4937 T=   551. E= -.22856695E+03 F= -.22582036E+03 E0= -.22582036E+03  EK= 0.90412E+01 SP= -.12E+02 SK= 0.22E-01
   4938 T=   547. E= -.22856699E+03 F= -.22584073E+03 E0= -.22584073E+03  EK= 0.89769E+01 SP= -.12E+02 SK= 0.14E-01
   4939 T=   545. E= -.22856718E+03 F= -.22588375E+03 E0= -.22588375E+03  EK= 0.89546E+01 SP= -.12E+02 SK= 0.76E-02
   4940 T=   547. E= -.22856750E+03 F= -.22594628E+03 E0= -.22594628E+03  EK= 0.89714E+01 SP= -.12E+02 SK= 0.31E-02
   4941 T=   550. E= -.22856790E+03 F= -.22602291E+03 E0= -.22602291E+03  EK= 0.90214E+01 SP= -.12E+02 SK= 0.69E-03
   4942 T=   554. E= -.22856832E+03 F= -.22610675E+03 E0= -.22610675E+03  EK= 0.90968E+01 SP= -.12E+02 SK= 0.15E-05
   4943 T=   560. E= -.22856876E+03 F= -.22619040E+03 E0= -.22619040E+03  EK= 0.91887E+01 SP= -.12E+02 SK= 0.66E-03
   4944 T=   566. E= -.22856914E+03 F= -.22626652E+03 E0= -.22626652E+03  EK= 0.92882E+01 SP= -.12E+02 SK= 0.22E-02
   4945 T=   572. E= -.22856942E+03 F= -.22632879E+03 E0= -.22632879E+03  EK= 0.93868E+01 SP= -.12E+02 SK= 0.41E-02
   4946 T=   577. E= -.22856957E+03 F= -.22637278E+03 E0= -.22637278E+03  EK= 0.94783E+01 SP= -.12E+02 SK= 0.61E-02
   4947 T=   582. E= -.22856962E+03 F= -.22639635E+03 E0= -.22639635E+03  EK= 0.95583E+01 SP= -.12E+02 SK= 0.79E-02
   4948 T=   586. E= -.22856956E+03 F= -.22639929E+03 E0= -.22639929E+03  EK= 0.96248E+01 SP= -.12E+02 SK= 0.95E-02
   4949 T=   590. E= -.22856944E+03 F= -.22638320E+03 E0= -.22638320E+03  EK= 0.96777E+01 SP= -.12E+02 SK= 0.11E-01
   4950 T=   592. E= -.22856931E+03 F= -.22635079E+03 E0= -.22635079E+03  EK= 0.97184E+01 SP= -.12E+02 SK= 0.12E-01
   4951 T=   594. E= -.22856919E+03 F= -.22630520E+03 E0= -.22630520E+03  EK= 0.97489E+01 SP= -.12E+02 SK= 0.12E-01
   4952 T=   595. E= -.22856911E+03 F= -.22624956E+03 E0= -.22624956E+03  EK= 0.97716E+01 SP= -.12E+02 SK= 0.13E-01
   4953 T=   596. E= -.22856903E+03 F= -.22618666E+03 E0= -.22618666E+03  EK= 0.97886E+01 SP= -.12E+02 SK= 0.13E-01
   4954 T=   597. E= -.22856896E+03 F= -.22611923E+03 E0= -.22611923E+03  EK= 0.98022E+01 SP= -.12E+02 SK= 0.14E-01
   4955 T=   598. E= -.22856886E+03 F= -.22605016E+03 E0= -.22605016E+03  EK= 0.98149E+01 SP= -.12E+02 SK= 0.14E-01
   4956 T=   599. E= -.22856873E+03 F= -.22598276E+03 E0= -.22598276E+03  EK= 0.98299E+01 SP= -.12E+02 SK= 0.14E-01
   4957 T=   600. E= -.22856862E+03 F= -.22592061E+03 E0= -.22592061E+03  EK= 0.98502E+01 SP= -.13E+02 SK= 0.14E-01
   4958 T=   602. E= -.22856854E+03 F= -.22586702E+03 E0= -.22586702E+03  EK= 0.98787E+01 SP= -.13E+02 SK= 0.14E-01
   4959 T=   604. E= -.22856857E+03 F= -.22582465E+03 E0= -.22582465E+03  EK= 0.99174E+01 SP= -.13E+02 SK= 0.13E-01
   4960 T=   607. E= -.22856867E+03 F= -.22579489E+03 E0= -.22579489E+03  EK= 0.99668E+01 SP= -.13E+02 SK= 0.12E-01
   4961 T=   611. E= -.22856888E+03 F= -.22577771E+03 E0= -.22577771E+03  EK= 0.10026E+02 SP= -.13E+02 SK= 0.11E-01
   4962 T=   615. E= -.22856917E+03 F= -.22577160E+03 E0= -.22577160E+03  EK= 0.10091E+02 SP= -.13E+02 SK= 0.93E-02
   4963 T=   619. E= -.22856950E+03 F= -.22577374E+03 E0= -.22577374E+03  EK= 0.10158E+02 SP= -.13E+02 SK= 0.74E-02
   4964 T=   623. E= -.22856987E+03 F= -.22578044E+03 E0= -.22578044E+03  EK= 0.10222E+02 SP= -.13E+02 SK= 0.53E-02
   4965 T=   626. E= -.22857020E+03 F= -.22578770E+03 E0= -.22578770E+03  EK= 0.10276E+02 SP= -.13E+02 SK= 0.34E-02
   4966 T=   628. E= -.22857046E+03 F= -.22579180E+03 E0= -.22579180E+03  EK= 0.10317E+02 SP= -.13E+02 SK= 0.17E-02
   4967 T=   630. E= -.22857062E+03 F= -.22578993E+03 E0= -.22578993E+03  EK= 0.10338E+02 SP= -.13E+02 SK= 0.55E-03
   4968 T=   630. E= -.22857067E+03 F= -.22578035E+03 E0= -.22578035E+03  EK= 0.10339E+02 SP= -.13E+02 SK= 0.27E-04
   4969 T=   629. E= -.22857060E+03 F= -.22576270E+03 E0= -.22576270E+03  EK= 0.10319E+02 SP= -.13E+02 SK= 0.16E-03
   4970 T=   626. E= -.22857042E+03 F= -.22573816E+03 E0= -.22573816E+03  EK= 0.10279E+02 SP= -.13E+02 SK= 0.87E-03
   4971 T=   623. E= -.22857012E+03 F= -.22570932E+03 E0= -.22570932E+03  EK= 0.10224E+02 SP= -.13E+02 SK= 0.20E-02
   4972 T=   619. E= -.22856982E+03 F= -.22567980E+03 E0= -.22567980E+03  EK= 0.10158E+02 SP= -.13E+02 SK= 0.33E-02
   4973 T=   614. E= -.22856953E+03 F= -.22565352E+03 E0= -.22565352E+03  EK= 0.10087E+02 SP= -.13E+02 SK= 0.46E-02
   4974 T=   610. E= -.22856935E+03 F= -.22563388E+03 E0= -.22563388E+03  EK= 0.10016E+02 SP= -.13E+02 SK= 0.57E-02
   4975 T=   606. E= -.22856925E+03 F= -.22562287E+03 E0= -.22562287E+03  EK= 0.99493E+01 SP= -.13E+02 SK= 0.66E-02
   4976 T=   602. E= -.22856928E+03 F= -.22562094E+03 E0= -.22562094E+03  EK= 0.98891E+01 SP= -.13E+02 SK= 0.71E-02
   4977 T=   599. E= -.22856942E+03 F= -.22562681E+03 E0= -.22562681E+03  EK= 0.98353E+01 SP= -.13E+02 SK= 0.73E-02
   4978 T=   596. E= -.22856960E+03 F= -.22563755E+03 E0= -.22563755E+03  EK= 0.97865E+01 SP= -.13E+02 SK= 0.72E-02
   4979 T=   593. E= -.22856977E+03 F= -.22564967E+03 E0= -.22564967E+03  EK= 0.97405E+01 SP= -.13E+02 SK= 0.68E-02
   4980 T=   591. E= -.22856986E+03 F= -.22566003E+03 E0= -.22566003E+03  EK= 0.96951E+01 SP= -.13E+02 SK= 0.62E-02
   4981 T=   588. E= -.22856983E+03 F= -.22566660E+03 E0= -.22566660E+03  EK= 0.96496E+01 SP= -.13E+02 SK= 0.54E-02
   4982 T=   585. E= -.22856971E+03 F= -.22566900E+03 E0= -.22566900E+03  EK= 0.96045E+01 SP= -.13E+02 SK= 0.44E-02
   4983 T=   582. E= -.22856951E+03 F= -.22566842E+03 E0= -.22566842E+03  EK= 0.95622E+01 SP= -.12E+02 SK= 0.33E-02
   4984 T=   580. E= -.22856929E+03 F= -.22566728E+03 E0= -.22566728E+03  EK= 0.95259E+01 SP= -.12E+02 SK= 0.22E-02
   4985 T=   579. E= -.22856910E+03 F= -.22566844E+03 E0= -.22566844E+03  EK= 0.94992E+01 SP= -.12E+02 SK= 0.13E-02
   4986 T=   578. E= -.22856898E+03 F= -.22567429E+03 E0= -.22567429E+03  EK= 0.94850E+01 SP= -.12E+02 SK= 0.57E-03
   4987 T=   578. E= -.22856892E+03 F= -.22568630E+03 E0= -.22568630E+03  EK= 0.94851E+01 SP= -.12E+02 SK= 0.14E-03
   4988 T=   579. E= -.22856891E+03 F= -.22570497E+03 E0= -.22570497E+03  EK= 0.95000E+01 SP= -.12E+02 SK= 0.13E-06
   4989 T=   580. E= -.22856893E+03 F= -.22573015E+03 E0= -.22573015E+03  EK= 0.95292E+01 SP= -.12E+02 SK= 0.13E-03
   4990 T=   583. E= -.22856894E+03 F= -.22576119E+03 E0= -.22576119E+03  EK= 0.95714E+01 SP= -.12E+02 SK= 0.46E-03
   4991 T=   586. E= -.22856894E+03 F= -.22579752E+03 E0= -.22579752E+03  EK= 0.96252E+01 SP= -.12E+02 SK= 0.89E-03
   4992 T=   590. E= -.22856893E+03 F= -.22583873E+03 E0= -.22583873E+03  EK= 0.96890E+01 SP= -.12E+02 SK= 0.13E-02
   4993 T=   595. E= -.22856893E+03 F= -.22588453E+03 E0= -.22588453E+03  EK= 0.97608E+01 SP= -.12E+02 SK= 0.16E-02
   4994 T=   599. E= -.22856893E+03 F= -.22593467E+03 E0= -.22593467E+03  EK= 0.98389E+01 SP= -.12E+02 SK= 0.17E-02
   4995 T=   604. E= -.22856894E+03 F= -.22598882E+03 E0= -.22598882E+03  EK= 0.99210E+01 SP= -.13E+02 SK= 0.15E-02
   4996 T=   609. E= -.22856900E+03 F= -.22604645E+03 E0= -.22604645E+03  EK= 0.10004E+02 SP= -.13E+02 SK= 0.12E-02
   4997 T=   614. E= -.22856910E+03 F= -.22610652E+03 E0= -.22610652E+03  EK= 0.10086E+02 SP= -.13E+02 SK= 0.71E-03
   4998 T=   619. E= -.22856922E+03 F= -.22616740E+03 E0= -.22616740E+03  EK= 0.10162E+02 SP= -.13E+02 SK= 0.26E-03
   4999 T=   623. E= -.22856936E+03 F= -.22622715E+03 E0= -.22622715E+03  EK= 0.10229E+02 SP= -.13E+02 SK= 0.93E-05
   5000 T=   626. E= -.22856949E+03 F= -.22628360E+03 E0= -.22628360E+03  EK= 0.10282E+02 SP= -.13E+02 SK= 0.15E-03
