  54  54   0   0
  0.2034159E+02  0.1031794E-08  0.1031794E-08  0.1031794E-08  0.2000000E-14
   600.000000000000     
  CAR 
 unknown system                          
      3.96779494     -4.23910767  301      0.14547792      1.00000000
     -4.239  0.0000E+00  0.0000E+00
     -4.212  0.0000E+00  0.0000E+00
     -4.184  0.0000E+00  0.0000E+00
     -4.157  0.0000E+00  0.0000E+00
     -4.130  0.0000E+00  0.0000E+00
     -4.102  0.0000E+00  0.0000E+00
     -4.075  0.0000E+00  0.0000E+00
     -4.048 -0.4709E-26 -0.1274E-27
     -4.020 -0.3351E-24 -0.9194E-26
     -3.993 -0.2083E-22 -0.5730E-24
     -3.966 -0.1117E-20 -0.3082E-22
     -3.938 -0.5169E-19 -0.1430E-20
     -3.911 -0.2062E-17 -0.5727E-19
     -3.883 -0.7090E-16 -0.1978E-17
     -3.856 -0.2101E-14 -0.5887E-16
     -3.829 -0.5272E-13 -0.1487E-14
     -3.801 -0.1140E-11 -0.3238E-13
     -3.774 -0.2150E-10 -0.6149E-12
     -3.747 -0.3483E-09 -0.1005E-10
     -3.719 -0.4848E-08 -0.1414E-09
     -3.692 -0.5791E-07 -0.1710E-08
     -3.665 -0.5934E-06 -0.1778E-07
     -3.637 -0.5208E-05 -0.1589E-06
     -3.610 -0.3910E-04 -0.1218E-05
     -3.583 -0.2506E-03 -0.8004E-05
     -3.555 -0.1368E-02 -0.4504E-04
     -3.528 -0.6333E-02 -0.2165E-03
     -3.500 -0.2475E-01 -0.8862E-03
     -3.473 -0.8097E-01 -0.3076E-02
     -3.446 -0.2187E+00 -0.8991E-02
     -3.418 -0.4756E+00 -0.2184E-01
     -3.391 -0.7856E+00 -0.4306E-01
     -3.364 -0.8144E+00 -0.6502E-01
     -3.336  0.1213E+00 -0.6162E-01
     -3.309  0.2774E+01  0.1349E-01
     -3.282  0.7249E+01  0.2095E+00
     -3.254  0.1237E+02  0.5437E+00
     -3.227  0.1595E+02  0.9743E+00
     -3.200  0.1616E+02  0.1410E+01
     -3.172  0.1289E+02  0.1758E+01
     -3.145  0.7846E+01  0.1969E+01
     -3.117  0.3239E+01  0.2056E+01
     -3.090  0.3725E+00  0.2066E+01
     -3.063 -0.7399E+00  0.2046E+01
     -3.035 -0.8020E+00  0.2024E+01
     -3.008 -0.5140E+00  0.2010E+01
     -2.981 -0.2480E+00  0.2004E+01
     -2.953 -0.9633E-01  0.2001E+01
     -2.926 -0.3101E-01  0.2000E+01
     -2.899 -0.8402E-02  0.2000E+01
     -2.871 -0.1934E-02  0.2000E+01
     -2.844 -0.3805E-03  0.2000E+01
     -2.817 -0.6427E-04  0.2000E+01
     -2.789 -0.9354E-05  0.2000E+01
     -2.762 -0.1227E-05  0.2000E+01
     -2.735 -0.6292E-06  0.2000E+01
     -2.707 -0.4146E-05  0.2000E+01
     -2.680 -0.2950E-04  0.2000E+01
     -2.652 -0.1821E-03  0.2000E+01
     -2.625 -0.9713E-03  0.2000E+01
     -2.598 -0.4470E-02  0.2000E+01
     -2.570 -0.1770E-01  0.1999E+01
     -2.543 -0.6008E-01  0.1998E+01
     -2.516 -0.1738E+00  0.1993E+01
     -2.488 -0.4238E+00  0.1982E+01
     -2.461 -0.8543E+00  0.1959E+01
     -2.434 -0.1363E+01  0.1922E+01
     -2.406 -0.1506E+01  0.1881E+01
     -2.379 -0.3872E+00  0.1871E+01
     -2.352  0.3158E+01  0.1956E+01
     -2.324  0.9976E+01  0.2226E+01
     -2.297  0.1991E+02  0.2764E+01
     -2.269  0.3153E+02  0.3616E+01
     -2.242  0.4261E+02  0.4767E+01
     -2.215  0.5107E+02  0.6146E+01
     -2.187  0.5564E+02  0.7648E+01
     -2.160  0.5597E+02  0.9158E+01
     -2.133  0.5235E+02  0.1057E+02
     -2.105  0.4539E+02  0.1179E+02
     -2.078  0.3596E+02  0.1276E+02
     -2.051  0.2540E+02  0.1345E+02
     -2.023  0.1534E+02  0.1386E+02
     -1.996  0.7296E+01  0.1406E+02
     -1.969  0.2049E+01  0.1411E+02
     -1.941 -0.5409E+00  0.1410E+02
     -1.914 -0.1277E+01  0.1406E+02
     -1.886 -0.1098E+01  0.1403E+02
     -1.859 -0.6787E+00  0.1401E+02
     -1.832 -0.3374E+00  0.1401E+02
     -1.804 -0.1404E+00  0.1400E+02
     -1.777 -0.4980E-01  0.1400E+02
     -1.750 -0.1523E-01  0.1400E+02
     -1.722 -0.4088E-02  0.1400E+02
     -1.695 -0.1234E-02  0.1400E+02
     -1.668 -0.1676E-02  0.1400E+02
     -1.640 -0.6390E-02  0.1400E+02
     -1.613 -0.2350E-01  0.1400E+02
     -1.586 -0.7490E-01  0.1400E+02
     -1.558 -0.2046E+00  0.1399E+02
     -1.531 -0.4741E+00  0.1398E+02
     -1.503 -0.9123E+00  0.1395E+02
     -1.476 -0.1391E+01  0.1392E+02
     -1.449 -0.1451E+01  0.1388E+02
     -1.421 -0.2183E+00  0.1387E+02
     -1.394  0.3409E+01  0.1396E+02
     -1.367  0.1025E+02  0.1424E+02
     -1.339  0.2026E+02  0.1479E+02
     -1.312  0.3242E+02  0.1567E+02
     -1.285  0.4510E+02  0.1688E+02
     -1.257  0.5677E+02  0.1842E+02
     -1.230  0.6642E+02  0.2021E+02
     -1.203  0.7353E+02  0.2220E+02
     -1.175  0.7780E+02  0.2430E+02
     -1.148  0.7911E+02  0.2643E+02
     -1.120  0.7757E+02  0.2852E+02
     -1.093  0.7362E+02  0.3051E+02
     -1.066  0.6776E+02  0.3234E+02
     -1.038  0.6034E+02  0.3396E+02
     -1.011  0.5138E+02  0.3535E+02
     -0.984  0.4097E+02  0.3645E+02
     -0.956  0.2968E+02  0.3725E+02
     -0.929  0.1875E+02  0.3776E+02
     -0.902  0.9646E+01  0.3802E+02
     -0.874  0.3373E+01  0.3811E+02
     -0.847 -0.4781E-03  0.3811E+02
     -0.820 -0.1194E+01  0.3807E+02
     -0.792 -0.1201E+01  0.3804E+02
     -0.765 -0.8099E+00  0.3802E+02
     -0.737 -0.4360E+00  0.3801E+02
     -0.710 -0.1993E+00  0.3800E+02
     -0.683 -0.8061E-01  0.3800E+02
     -0.655 -0.3181E-01  0.3800E+02
     -0.628 -0.1948E-01  0.3800E+02
     -0.601 -0.3150E-01  0.3800E+02
     -0.573 -0.7198E-01  0.3800E+02
     -0.546 -0.1531E+00  0.3799E+02
     -0.519 -0.2799E+00  0.3799E+02
     -0.491 -0.4205E+00  0.3797E+02
     -0.464 -0.4651E+00  0.3796E+02
     -0.437 -0.1910E+00  0.3796E+02
     -0.409  0.7309E+00  0.3798E+02
     -0.382  0.2664E+01  0.3805E+02
     -0.355  0.5882E+01  0.3821E+02
     -0.327  0.1045E+02  0.3849E+02
     -0.300  0.1620E+02  0.3893E+02
     -0.272  0.2273E+02  0.3954E+02
     -0.245  0.2954E+02  0.4034E+02
     -0.218  0.3603E+02  0.4131E+02
     -0.190  0.4161E+02  0.4244E+02
     -0.163  0.4569E+02  0.4367E+02
     -0.136  0.4791E+02  0.4496E+02
     -0.108  0.4827E+02  0.4627E+02
     -0.081  0.4715E+02  0.4754E+02
     -0.054  0.4505E+02  0.4875E+02
     -0.026  0.4227E+02  0.4989E+02
      0.001  0.3877E+02  0.5094E+02
      0.028  0.3424E+02  0.5186E+02
      0.056  0.2854E+02  0.5263E+02
      0.083  0.2195E+02  0.5322E+02
      0.111  0.1521E+02  0.5363E+02
      0.138  0.9204E+01  0.5388E+02
      0.165  0.4604E+01  0.5400E+02
      0.193  0.1630E+01  0.5405E+02
      0.220  0.7895E-01  0.5405E+02
      0.247 -0.4926E+00  0.5404E+02
      0.275 -0.5424E+00  0.5402E+02
      0.302 -0.4037E+00  0.5401E+02
      0.329 -0.2535E+00  0.5400E+02
      0.357 -0.1484E+00  0.5400E+02
      0.384 -0.7927E-01  0.5400E+02
      0.411 -0.1432E-01  0.5400E+02
      0.439  0.6831E-01  0.5400E+02
      0.466  0.1637E+00  0.5400E+02
      0.494  0.2520E+00  0.5401E+02
      0.521  0.3485E+00  0.5402E+02
      0.548  0.5697E+00  0.5404E+02
      0.576  0.1158E+01  0.5407E+02
      0.603  0.2426E+01  0.5413E+02
      0.630  0.4625E+01  0.5426E+02
      0.658  0.7820E+01  0.5447E+02
      0.685  0.1183E+02  0.5479E+02
      0.712  0.1625E+02  0.5523E+02
      0.740  0.2058E+02  0.5578E+02
      0.767  0.2435E+02  0.5644E+02
      0.794  0.2730E+02  0.5718E+02
      0.822  0.2945E+02  0.5797E+02
      0.849  0.3099E+02  0.5881E+02
      0.877  0.3216E+02  0.5968E+02
      0.904  0.3308E+02  0.6057E+02
      0.931  0.3377E+02  0.6148E+02
      0.959  0.3430E+02  0.6241E+02
      0.986  0.3485E+02  0.6335E+02
      1.013  0.3564E+02  0.6431E+02
      1.041  0.3672E+02  0.6530E+02
      1.068  0.3798E+02  0.6633E+02
      1.095  0.3924E+02  0.6738E+02
      1.123  0.4045E+02  0.6848E+02
      1.150  0.4172E+02  0.6960E+02
      1.177  0.4319E+02  0.7077E+02
      1.205  0.4484E+02  0.7198E+02
      1.232  0.4639E+02  0.7323E+02
      1.260  0.4746E+02  0.7451E+02
      1.287  0.4780E+02  0.7580E+02
      1.314  0.4745E+02  0.7708E+02
      1.342  0.4663E+02  0.7834E+02
      1.369  0.4556E+02  0.7957E+02
      1.396  0.4430E+02  0.8076E+02
      1.424  0.4273E+02  0.8192E+02
      1.451  0.4080E+02  0.8302E+02
      1.478  0.3851E+02  0.8405E+02
      1.506  0.3595E+02  0.8502E+02
      1.533  0.3319E+02  0.8592E+02
      1.560  0.3021E+02  0.8673E+02
      1.588  0.2699E+02  0.8746E+02
      1.615  0.2352E+02  0.8809E+02
      1.643  0.1985E+02  0.8863E+02
      1.670  0.1609E+02  0.8906E+02
      1.697  0.1240E+02  0.8940E+02
      1.725  0.8984E+01  0.8964E+02
      1.752  0.6028E+01  0.8980E+02
      1.779  0.3680E+01  0.8990E+02
      1.807  0.1999E+01  0.8996E+02
      1.834  0.9439E+00  0.8998E+02
      1.861  0.3996E+00  0.8999E+02
      1.889  0.2198E+00  0.9000E+02
      1.916  0.2773E+00  0.9001E+02
      1.943  0.5018E+00  0.9002E+02
      1.971  0.9062E+00  0.9004E+02
      1.998  0.1595E+01  0.9009E+02
      2.025  0.2735E+01  0.9016E+02
      2.053  0.4488E+01  0.9028E+02
      2.080  0.6913E+01  0.9047E+02
      2.108  0.9903E+01  0.9074E+02
      2.135  0.1317E+02  0.9109E+02
      2.162  0.1632E+02  0.9153E+02
      2.190  0.1903E+02  0.9205E+02
      2.217  0.2125E+02  0.9262E+02
      2.244  0.2325E+02  0.9325E+02
      2.272  0.2538E+02  0.9394E+02
      2.299  0.2785E+02  0.9469E+02
      2.326  0.3054E+02  0.9551E+02
      2.354  0.3309E+02  0.9641E+02
      2.381  0.3518E+02  0.9735E+02
      2.408  0.3667E+02  0.9834E+02
      2.436  0.3764E+02  0.9936E+02
      2.463  0.3831E+02  0.1004E+03
      2.491  0.3887E+02  0.1014E+03
      2.518  0.3943E+02  0.1025E+03
      2.545  0.3996E+02  0.1036E+03
      2.573  0.4037E+02  0.1047E+03
      2.600  0.4059E+02  0.1058E+03
      2.627  0.4063E+02  0.1069E+03
      2.655  0.4053E+02  0.1080E+03
      2.682  0.4034E+02  0.1090E+03
      2.709  0.4003E+02  0.1101E+03
      2.737  0.3955E+02  0.1112E+03
      2.764  0.3891E+02  0.1122E+03
      2.791  0.3817E+02  0.1133E+03
      2.819  0.3742E+02  0.1143E+03
      2.846  0.3677E+02  0.1153E+03
      2.874  0.3622E+02  0.1162E+03
      2.901  0.3537E+02  0.1172E+03
      2.928  0.3334E+02  0.1181E+03
      2.956  0.2911E+02  0.1189E+03
      2.983  0.2243E+02  0.1195E+03
      3.010  0.1438E+02  0.1199E+03
      3.038  0.6938E+01  0.1201E+03
      3.065  0.1745E+01  0.1201E+03
      3.092 -0.7946E+00  0.1201E+03
      3.120 -0.1384E+01  0.1201E+03
      3.147 -0.1066E+01  0.1200E+03
      3.174 -0.5895E+00  0.1200E+03
      3.202 -0.2577E+00  0.1200E+03
      3.229 -0.9231E-01  0.1200E+03
      3.257 -0.2757E-01  0.1200E+03
      3.284 -0.6937E-02  0.1200E+03
      3.311 -0.1479E-02  0.1200E+03
      3.339 -0.2682E-03  0.1200E+03
      3.366 -0.4150E-04  0.1200E+03
      3.393 -0.5490E-05  0.1200E+03
      3.421 -0.6221E-06  0.1200E+03
      3.448 -0.6043E-07  0.1200E+03
      3.475 -0.5038E-08  0.1200E+03
      3.503 -0.3608E-09  0.1200E+03
      3.530 -0.2221E-10  0.1200E+03
      3.557 -0.1174E-11  0.1200E+03
      3.585 -0.5680E-13  0.1200E+03
      3.612  0.0000E+00  0.1200E+03
      3.640  0.0000E+00  0.1200E+03
      3.667  0.0000E+00  0.1200E+03
      3.694  0.0000E+00  0.1200E+03
      3.722  0.0000E+00  0.1200E+03
      3.749  0.0000E+00  0.1200E+03
      3.776  0.0000E+00  0.1200E+03
      3.804  0.0000E+00  0.1200E+03
      3.831  0.0000E+00  0.1200E+03
      3.858  0.0000E+00  0.1200E+03
      3.886  0.0000E+00  0.1200E+03
      3.913  0.0000E+00  0.1200E+03
      3.940  0.0000E+00  0.1200E+03
      3.968  0.0000E+00  0.1200E+03
      3.97357806     -4.23926168  301      0.14228687      1.00000000
     -4.239  0.0000E+00  0.0000E+00
     -4.212  0.0000E+00  0.0000E+00
     -4.185  0.0000E+00  0.0000E+00
     -4.157  0.0000E+00  0.0000E+00
     -4.130  0.0000E+00  0.0000E+00
     -4.102  0.0000E+00  0.0000E+00
     -4.075  0.0000E+00  0.0000E+00
     -4.048 -0.3478E-29 -0.9522E-31
     -4.020 -0.2571E-27 -0.7135E-29
     -3.993 -0.1653E-25 -0.4597E-27
     -3.966 -0.9131E-24 -0.2546E-25
     -3.938 -0.4334E-22 -0.1212E-23
     -3.911 -0.1767E-20 -0.4959E-22
     -3.883 -0.6188E-19 -0.1744E-20
     -3.856 -0.1861E-17 -0.5268E-19
     -3.829 -0.4599E-16 -0.1312E-17
     -3.801 -0.1031E-14 -0.2954E-16
     -3.774 -0.1951E-13 -0.5636E-15
     -3.746 -0.3165E-12 -0.9228E-14
     -3.719 -0.4397E-11 -0.1296E-12
     -3.692 -0.5226E-10 -0.1560E-11
     -3.664 -0.5309E-09 -0.1609E-10
     -3.637 -0.4602E-08 -0.1421E-09
     -3.610 -0.3400E-07 -0.1073E-08
     -3.582 -0.2135E-06 -0.6918E-08
     -3.555 -0.1136E-05 -0.3803E-07
     -3.527 -0.5103E-05 -0.1777E-06
     -3.500 -0.1921E-04 -0.7037E-06
     -3.473 -0.6003E-04 -0.2347E-05
     -3.445 -0.1529E-03 -0.6534E-05
     -3.418 -0.3067E-03 -0.1493E-04
     -3.391 -0.4427E-03 -0.2705E-04
     -3.363 -0.3059E-03 -0.3542E-04
     -3.336  0.5191E-03 -0.2121E-04
     -3.308  0.2342E-02  0.4291E-04
     -3.281  0.4934E-02  0.1780E-03
     -3.254  0.7345E-02  0.3790E-03
     -3.226  0.8375E-02  0.6083E-03
     -3.199  0.7449E-02  0.8122E-03
     -3.172  0.5086E-02  0.9515E-03
     -3.144  0.2474E-02  0.1019E-02
     -3.117  0.5942E-03  0.1035E-02
     -3.089 -0.2819E-03  0.1028E-02
     -3.062 -0.4457E-03  0.1016E-02
     -3.035 -0.3163E-03  0.1007E-02
     -3.007 -0.1601E-03  0.1002E-02
     -2.980 -0.6363E-04  0.1001E-02
     -2.953 -0.2059E-04  0.1000E-02
     -2.925 -0.5525E-05  0.1000E-02
     -2.898 -0.1242E-05  0.1000E-02
     -2.870 -0.2356E-06  0.1000E-02
     -2.843 -0.3787E-07  0.1000E-02
     -2.816 -0.5174E-08  0.1000E-02
     -2.788 -0.6040E-09  0.1000E-02
     -2.761 -0.8418E-10  0.1000E-02
     -2.734 -0.2655E-09  0.1000E-02
     -2.706 -0.2377E-08  0.1000E-02
     -2.679 -0.1851E-07  0.1000E-02
     -2.651 -0.1227E-06  0.1000E-02
     -2.624 -0.6915E-06  0.1000E-02
     -2.597 -0.3301E-05  0.9999E-03
     -2.569 -0.1330E-04  0.9995E-03
     -2.542 -0.4497E-04  0.9983E-03
     -2.515 -0.1265E-03  0.9948E-03
     -2.487 -0.2919E-03  0.9868E-03
     -2.460 -0.5371E-03  0.9721E-03
     -2.432 -0.7366E-03  0.9520E-03
     -2.405 -0.5743E-03  0.9362E-03
     -2.378  0.4112E-03  0.9475E-03
     -2.350  0.2657E-02  0.1020E-02
     -2.323  0.6432E-02  0.1196E-02
     -2.296  0.1181E-01  0.1520E-02
     -2.268  0.1855E-01  0.2027E-02
     -2.241  0.2578E-01  0.2733E-02
     -2.213  0.3166E-01  0.3600E-02
     -2.186  0.3407E-01  0.4533E-02
     -2.159  0.3188E-01  0.5405E-02
     -2.131  0.2585E-01  0.6113E-02
     -2.104  0.1807E-01  0.6608E-02
     -2.077  0.1068E-01  0.6900E-02
     -2.049  0.4997E-02  0.7037E-02
     -2.022  0.1404E-02  0.7075E-02
     -1.994 -0.3584E-03  0.7066E-02
     -1.967 -0.8660E-03  0.7042E-02
     -1.940 -0.7425E-03  0.7021E-02
     -1.912 -0.4502E-03  0.7009E-02
     -1.885 -0.2149E-03  0.7003E-02
     -1.858 -0.8375E-04  0.7001E-02
     -1.830 -0.2711E-04  0.7000E-02
     -1.803 -0.7357E-05  0.7000E-02
     -1.775 -0.1684E-05  0.7000E-02
     -1.748 -0.3302E-06  0.7000E-02
     -1.721 -0.8340E-07  0.7000E-02
     -1.693 -0.1990E-06  0.7000E-02
     -1.666 -0.1052E-05  0.7000E-02
     -1.639 -0.4896E-05  0.7000E-02
     -1.611 -0.1929E-04  0.6999E-02
     -1.584 -0.6395E-04  0.6998E-02
     -1.556 -0.1768E-03  0.6993E-02
     -1.529 -0.4014E-03  0.6982E-02
     -1.502 -0.7254E-03  0.6962E-02
     -1.474 -0.9614E-03  0.6936E-02
     -1.447 -0.6464E-03  0.6918E-02
     -1.420  0.8851E-03  0.6942E-02
     -1.392  0.4181E-02  0.7057E-02
     -1.365  0.9287E-02  0.7311E-02
     -1.337  0.1566E-01  0.7740E-02
     -1.310  0.2248E-01  0.8355E-02
     -1.283  0.2906E-01  0.9150E-02
     -1.255  0.3497E-01  0.1011E-01
     -1.228  0.3991E-01  0.1120E-01
     -1.201  0.4347E-01  0.1239E-01
     -1.173  0.4517E-01  0.1363E-01
     -1.146  0.4456E-01  0.1485E-01
     -1.118  0.4134E-01  0.1598E-01
     -1.091  0.3571E-01  0.1696E-01
     -1.064  0.2848E-01  0.1774E-01
     -1.036  0.2088E-01  0.1831E-01
     -1.009  0.1397E-01  0.1869E-01
     -0.982  0.8322E-02  0.1892E-01
     -0.954  0.4083E-02  0.1903E-01
     -0.927  0.1265E-02  0.1906E-01
     -0.899 -0.2381E-03  0.1906E-01
     -0.872 -0.7312E-03  0.1904E-01
     -0.845 -0.6575E-03  0.1902E-01
     -0.817 -0.4084E-03  0.1901E-01
     -0.790 -0.1974E-03  0.1900E-01
     -0.762 -0.7743E-04  0.1900E-01
     -0.735 -0.2512E-04  0.1900E-01
     -0.708 -0.6909E-05  0.1900E-01
     -0.680 -0.2134E-05  0.1900E-01
     -0.653 -0.3102E-05  0.1900E-01
     -0.626 -0.1143E-04  0.1900E-01
     -0.598 -0.3858E-04  0.1900E-01
     -0.571 -0.1078E-03  0.1900E-01
     -0.543 -0.2432E-03  0.1899E-01
     -0.516 -0.4217E-03  0.1898E-01
     -0.489 -0.4895E-03  0.1896E-01
     -0.461 -0.1171E-03  0.1896E-01
     -0.434  0.1066E-02  0.1899E-01
     -0.407  0.3135E-02  0.1908E-01
     -0.379  0.5631E-02  0.1923E-01
     -0.352  0.7800E-02  0.1944E-01
     -0.324  0.9275E-02  0.1970E-01
     -0.297  0.1055E-01  0.1999E-01
     -0.270  0.1270E-01  0.2033E-01
     -0.242  0.1652E-01  0.2079E-01
     -0.215  0.2187E-01  0.2138E-01
     -0.188  0.2747E-01  0.2214E-01
     -0.160  0.3134E-01  0.2299E-01
     -0.133  0.3177E-01  0.2386E-01
     -0.105  0.2832E-01  0.2464E-01
     -0.078  0.2214E-01  0.2525E-01
     -0.051  0.1537E-01  0.2567E-01
     -0.023  0.1007E-01  0.2594E-01
      0.004  0.7366E-02  0.2614E-01
      0.031  0.6976E-02  0.2633E-01
      0.059  0.7496E-02  0.2654E-01
      0.086  0.7345E-02  0.2674E-01
      0.114  0.5843E-02  0.2690E-01
      0.141  0.3499E-02  0.2700E-01
      0.168  0.1338E-02  0.2703E-01
      0.196  0.2424E-04  0.2703E-01
      0.223 -0.4359E-03  0.2702E-01
      0.250 -0.4081E-03  0.2701E-01
      0.278 -0.2422E-03  0.2700E-01
      0.305 -0.1091E-03  0.2700E-01
      0.333 -0.4010E-04  0.2700E-01
      0.360 -0.1529E-04  0.2700E-01
      0.387 -0.1711E-04  0.2700E-01
      0.415 -0.4716E-04  0.2700E-01
      0.442 -0.1252E-03  0.2699E-01
      0.469 -0.2680E-03  0.2699E-01
      0.497 -0.4300E-03  0.2698E-01
      0.524 -0.4133E-03  0.2696E-01
      0.552  0.1518E-03  0.2697E-01
      0.579  0.1612E-02  0.2701E-01
      0.606  0.3906E-02  0.2712E-01
      0.634  0.6352E-02  0.2729E-01
      0.661  0.8019E-02  0.2751E-01
      0.688  0.8492E-02  0.2775E-01
      0.716  0.8218E-02  0.2797E-01
      0.743  0.8004E-02  0.2819E-01
      0.771  0.8288E-02  0.2842E-01
      0.798  0.9079E-02  0.2867E-01
      0.825  0.1042E-01  0.2895E-01
      0.853  0.1257E-01  0.2929E-01
      0.880  0.1566E-01  0.2972E-01
      0.907  0.1940E-01  0.3025E-01
      0.935  0.2314E-01  0.3089E-01
      0.962  0.2591E-01  0.3160E-01
      0.990  0.2654E-01  0.3232E-01
      1.017  0.2450E-01  0.3299E-01
      1.044  0.2088E-01  0.3357E-01
      1.072  0.1835E-01  0.3407E-01
      1.099  0.1938E-01  0.3460E-01
      1.126  0.2422E-01  0.3526E-01
      1.154  0.3052E-01  0.3610E-01
      1.181  0.3493E-01  0.3705E-01
      1.209  0.3525E-01  0.3802E-01
      1.236  0.3153E-01  0.3888E-01
      1.263  0.2567E-01  0.3958E-01
      1.291  0.1995E-01  0.4013E-01
      1.318  0.1574E-01  0.4056E-01
      1.345  0.1321E-01  0.4092E-01
      1.373  0.1193E-01  0.4125E-01
      1.400  0.1158E-01  0.4157E-01
      1.428  0.1236E-01  0.4191E-01
      1.455  0.1453E-01  0.4230E-01
      1.482  0.1769E-01  0.4279E-01
      1.510  0.2044E-01  0.4335E-01
      1.537  0.2099E-01  0.4392E-01
      1.564  0.1838E-01  0.4442E-01
      1.592  0.1325E-01  0.4479E-01
      1.619  0.7452E-02  0.4499E-01
      1.647  0.2790E-02  0.4507E-01
      1.674  0.1032E-03  0.4507E-01
      1.701 -0.8530E-03  0.4505E-01
      1.729 -0.8397E-03  0.4502E-01
      1.756 -0.5348E-03  0.4501E-01
      1.783 -0.2939E-03  0.4500E-01
      1.811 -0.2199E-03  0.4500E-01
      1.838 -0.3004E-03  0.4499E-01
      1.866 -0.4511E-03  0.4498E-01
      1.893 -0.4588E-03  0.4496E-01
      1.920  0.5037E-04  0.4496E-01
      1.948  0.1451E-02  0.4500E-01
      1.975  0.3778E-02  0.4511E-01
      2.002  0.6512E-02  0.4529E-01
      2.030  0.8831E-02  0.4553E-01
      2.057  0.1017E-01  0.4581E-01
      2.085  0.1051E-01  0.4609E-01
      2.112  0.1015E-01  0.4637E-01
      2.139  0.9402E-02  0.4663E-01
      2.167  0.8672E-02  0.4687E-01
      2.194  0.8484E-02  0.4710E-01
      2.222  0.9260E-02  0.4735E-01
      2.249  0.1105E-01  0.4765E-01
      2.276  0.1354E-01  0.4803E-01
      2.304  0.1625E-01  0.4847E-01
      2.331  0.1862E-01  0.4898E-01
      2.358  0.2021E-01  0.4953E-01
      2.386  0.2112E-01  0.5011E-01
      2.413  0.2198E-01  0.5071E-01
      2.441  0.2332E-01  0.5135E-01
      2.468  0.2470E-01  0.5203E-01
      2.495  0.2485E-01  0.5271E-01
      2.523  0.2290E-01  0.5333E-01
      2.550  0.1931E-01  0.5386E-01
      2.577  0.1566E-01  0.5429E-01
      2.605  0.1338E-01  0.5466E-01
      2.632  0.1284E-01  0.5501E-01
      2.660  0.1346E-01  0.5538E-01
      2.687  0.1440E-01  0.5577E-01
      2.714  0.1512E-01  0.5619E-01
      2.742  0.1559E-01  0.5661E-01
      2.769  0.1603E-01  0.5705E-01
      2.796  0.1642E-01  0.5750E-01
      2.824  0.1626E-01  0.5795E-01
      2.851  0.1496E-01  0.5836E-01
      2.879  0.1262E-01  0.5870E-01
      2.906  0.1023E-01  0.5898E-01
      2.933  0.8788E-02  0.5922E-01
      2.961  0.8343E-02  0.5945E-01
      2.988  0.7936E-02  0.5967E-01
      3.015  0.6625E-02  0.5985E-01
      3.043  0.4397E-02  0.5997E-01
      3.070  0.2055E-02  0.6003E-01
      3.098  0.3974E-03  0.6004E-01
      3.125 -0.3480E-03  0.6003E-01
      3.152 -0.4549E-03  0.6002E-01
      3.180 -0.3096E-03  0.6001E-01
      3.207 -0.1535E-03  0.6000E-01
      3.234 -0.6013E-04  0.6000E-01
      3.262 -0.1923E-04  0.6000E-01
      3.289 -0.5105E-05  0.6000E-01
      3.317 -0.1137E-05  0.6000E-01
      3.344 -0.2135E-06  0.6000E-01
      3.371 -0.3400E-07  0.6000E-01
      3.399 -0.4603E-08  0.6000E-01
      3.426 -0.5309E-09  0.6000E-01
      3.453 -0.5226E-10  0.6000E-01
      3.481 -0.4397E-11  0.6000E-01
      3.508 -0.3165E-12  0.6000E-01
      3.536 -0.1951E-13  0.6000E-01
      3.563 -0.1030E-14  0.6000E-01
      3.590 -0.4867E-16  0.6000E-01
      3.618  0.0000E+00  0.6000E-01
      3.645  0.0000E+00  0.6000E-01
      3.672  0.0000E+00  0.6000E-01
      3.700  0.0000E+00  0.6000E-01
      3.727  0.0000E+00  0.6000E-01
      3.755  0.0000E+00  0.6000E-01
      3.782  0.0000E+00  0.6000E-01
      3.809  0.0000E+00  0.6000E-01
      3.837  0.0000E+00  0.6000E-01
      3.864  0.0000E+00  0.6000E-01
      3.891  0.0000E+00  0.6000E-01
      3.919  0.0000E+00  0.6000E-01
      3.946  0.0000E+00  0.6000E-01
      3.974  0.0000E+00  0.6000E-01
