Li                                      
   1.00000000000000     
    10.4549009999999996   -0.0294757090000000   -0.0724821500000000
    -0.0000000000004953   10.6560550000000003   -0.2686387000000000
    -0.0000000000018651    0.0000000000006567   10.3773959999999992
   Li
    54
Direct
     0.8583659541563737    0.0258439723452281   -0.0002691172366299
     0.0934416559029576    0.1884748017297120    0.1108170390467151
     0.9208487122817856    1.0389820274040378    0.2705840902204922
     0.0868024781592875    0.1212586243660979    0.4281515822553499
     0.8744047271382873    1.0056580514044258    0.6330385167901179
     0.0400605904903963    0.1394696345025932    0.7997732214812681
     0.9333405081962126    0.3336206663306454    1.0092809086619705
     0.1189597098103925    0.4965773752637198    0.0814343238825454
     0.9553753859265184    0.3614129912047808    0.3151515787102823
     0.0497487675655789    0.5355754007790283    0.4729559880234345
     0.8954290198268389    0.2853531111451150    0.6037962788180196
     0.0723791671406706    0.4806597484602063    0.8022052601948406
     0.9419991006937992    0.6441278527786988    1.0245068627218195
     0.0432633715446283    0.8564352393689210    0.1294506201431317
     0.9004054494210003    0.6583792628356637    0.3246377171049696
     0.0630137781411450    0.8231418313307257    0.4476965648877317
     0.8883953564369832    0.7174084973407924    0.6530760114192220
    -0.0185294279868378    0.8394690507182294    0.8594882676423464
     0.2689741769267543    1.0221659257140303    0.9618385901475573
     0.3694783599867742    0.1879068783357950    0.1714927954788269
     0.2664089801128103    0.9630948080038549    0.2783462367514308
     0.3981121641397752    0.1730121124888823    0.5154620156094762
     0.2009440339872123    0.9591238642658593    0.6714852249635184
     0.4336761792662280    0.1648917730031726    0.7930264446673846
     0.2591799781982875    0.3257316560752467    0.9163640776631862
     0.3957581520610512    0.4597027141976303    0.1126417854172398
     0.1999380397910002    0.3834162905414537    0.2962774060859982
     0.3643937103079531    0.5387596647900080    0.4598000709223427
     0.1960549483707226    0.3346741811423804    0.6230803047099996
     0.3886029705578780    0.5280857206728248    0.8191368681113470
     0.2018707087835197    0.6923892877176356    0.9317949948986340
     0.4569504420295604    0.8169861368419638    0.0777734766199750
     0.2471722642787819    0.6733874678082966    0.2458900877787367
     0.3826755412530930    0.8662588093613041    0.4995788525929241
     0.2161541383617182    0.6819735671657539    0.6558183981785772
     0.4740787555488498    0.8648710508163235    0.8255275844483700
     0.5459783377700443    0.0752585295311141    1.0159316444525153
     0.7130135809305725    0.1994292912267331    0.1655215212300712
     0.5561389323067571    0.0131838297957093    0.3207308835210879
     0.7115170970170579    0.2137905681400927    0.4429396129875429
     0.5932242340820628   -0.0206430831038711    0.6354033087308906
     0.6862832583223826    0.1955981961458846    0.8139490623343278
     0.5717780273872630    0.3599140674606488    0.9607456992813703
     0.7374818588923741    0.4969938013271751    0.1795753557168439
     0.5197936896960212    0.3323365863247739    0.3416388780471557
     0.7141674995839072    0.5059872019061991    0.4632474276884078
     0.5117430766836569    0.3888424369439180    0.6452731216296108
     0.8020926273438918    0.4894284801962999    0.7673011075332363
     0.6432025935538563    0.6452998463326794    0.9433027574300711
     0.7382315286713229    0.8306148831077367    0.1357443759210318
     0.5545929940442095    0.6602346717700003    0.2948718925882370
     0.7755665834655620    0.8247691438404027    0.4455837306295327
     0.5619362941667242    0.6946506975237690    0.6243860320215159
     0.7304345602743558    0.8903891712797114    0.8056915178434013
 
  0.32408774E-03  0.10319655E-01  0.55149629E-02
 -0.37842768E-02 -0.77943070E-02 -0.49754854E-02
 -0.11263550E-01  0.12830473E-01 -0.72212225E-02
  0.15694377E-01 -0.18396818E-03  0.52790457E-03
 -0.22299133E-02 -0.29375931E-02 -0.31781127E-02
  0.32125968E-02  0.81582776E-02  0.85189332E-02
  0.93515686E-02 -0.82805388E-03  0.77983858E-02
  0.70353597E-02 -0.31771783E-03 -0.89241016E-02
 -0.86772003E-02  0.10007502E-01  0.99741443E-02
 -0.19653472E-02 -0.13170793E-01 -0.12561019E-01
  0.69462082E-02 -0.53999118E-02  0.73207192E-02
 -0.61014137E-02  0.51111107E-02  0.22976381E-02
 -0.92611956E-02  0.39087791E-02  0.17234080E-03
  0.32773314E-02 -0.94617786E-02 -0.19785896E-03
  0.35433252E-02 -0.13134795E-01  0.72776022E-02
 -0.19930868E-02  0.86474949E-02  0.83063482E-02
 -0.12989960E-01  0.26700558E-02  0.94936475E-02
 -0.10775558E-01 -0.11433341E-01  0.25901990E-02
  0.96033650E-03 -0.31234473E-02 -0.92410605E-02
  0.52251693E-02 -0.12688196E-01  0.17140695E-02
  0.14163712E-01  0.17633960E-01  0.90233479E-02
  0.60614627E-03 -0.30394915E-04 -0.75558974E-02
 -0.53020747E-02  0.63753227E-02 -0.22335888E-02
 -0.48525075E-02  0.30851546E-02  0.14103199E-01
 -0.11814359E-01  0.43365386E-02  0.59461171E-02
 -0.58121808E-02  0.57478737E-02  0.52558934E-02
  0.16829976E-01 -0.19018972E-01 -0.93372949E-02
  0.10690230E-01 -0.79279271E-02 -0.42393184E-02
  0.22879902E-02 -0.13122165E-02  0.15035529E-01
 -0.17108912E-02 -0.20884163E-02  0.11251949E-01
  0.12608387E-01  0.39278547E-02 -0.63059386E-02
 -0.42553079E-02  0.37144626E-02 -0.64230604E-02
  0.25238724E-02 -0.96296870E-02 -0.51628311E-03
  0.15893000E-01  0.46608106E-02 -0.52328254E-02
  0.28709830E-02 -0.23479615E-03  0.60670280E-02
 -0.22854731E-01 -0.35899928E-02 -0.16413236E-02
 -0.10640455E-02  0.65034954E-02  0.11364077E-02
  0.61672951E-02  0.12867929E-01 -0.66739593E-02
  0.30239557E-02  0.59063466E-02 -0.16437157E-03
 -0.92054081E-02 -0.92667010E-02 -0.29494175E-02
 -0.86268747E-02 -0.16567419E-02 -0.43568975E-02
 -0.47288770E-02 -0.11066884E-02  0.99568516E-02
 -0.15326387E-02  0.20861587E-02  0.55823469E-03
  0.12205848E-01 -0.44395378E-02 -0.71177833E-02
  0.65017565E-02  0.70772276E-02  0.25291514E-02
 -0.16810884E-03 -0.65741380E-02 -0.10292105E-01
 -0.65834724E-03 -0.10137613E-01  0.38815685E-02
  0.83398032E-02 -0.45115914E-02 -0.18245031E-01
 -0.46285452E-02  0.36327291E-02  0.44531654E-03
  0.25498232E-02  0.48647055E-02 -0.67925816E-02
  0.88890552E-02  0.13276448E-02  0.14320125E-01
 -0.22294436E-01  0.10516846E-01 -0.16349973E-01
  0.11869224E-01 -0.19409102E-02 -0.37098623E-02
 -0.15040584E-01 -0.19781823E-02 -0.45812396E-02
 
           1
   2.00000000000000     
  0.11896745E+01  0.10945993E-01  0.11590694E-01  0.11784062E+01
  0.85842795E+00  0.27781006E-01  0.84433953E-03
  0.92717732E-01  0.18700991E+00  0.10981515E+00
  0.91869402E+00  0.41384177E-01  0.26923950E+00
  0.89804779E-01  0.12123240E+00  0.42827361E+00
  0.87397815E+00  0.51055242E-02  0.63240873E+00
  0.40675153E-01  0.14100253E+00  0.80145902E+00
  0.93512944E+00  0.33347020E+00  0.10792465E-01
  0.12030556E+00  0.49652147E+00  0.79722365E-01
  0.95371546E+00  0.36328667E+00  0.31711077E+00
  0.49372801E-01  0.53310238E+00  0.47046850E+00
  0.89675781E+00  0.28434329E+00  0.60519032E+00
  0.71211980E-01  0.48161581E+00  0.80266467E+00
  0.94022745E+00  0.64485658E+00  0.24546568E-01
  0.43890318E-01  0.85466112E+00  0.12937094E+00
  0.90108328E+00  0.65591591E+00  0.32598127E+00
  0.62632505E-01  0.82476380E+00  0.44933674E+00
  0.88591041E+00  0.71790276E+00  0.65490113E+00
  0.97940923E+00  0.83731746E+00  0.85991737E+00
  0.26915789E+00  0.21580204E-01  0.96004371E+00
  0.37047792E+00  0.18552824E+00  0.17176855E+00
  0.26911847E+00  0.96641196E+00  0.28019007E+00
  0.39822812E+00  0.17300673E+00  0.51400646E+00
  0.19992976E+00  0.96031762E+00  0.67107857E+00
  0.43274791E+00  0.16546825E+00  0.79575295E+00
  0.25691992E+00  0.32653932E+00  0.91751517E+00
  0.39464629E+00  0.46077844E+00  0.11367482E+00
  0.20315758E+00  0.37985559E+00  0.29440817E+00
  0.36643873E+00  0.53727735E+00  0.45895895E+00
  0.19649264E+00  0.33442911E+00  0.62597476E+00
  0.38827568E+00  0.52769285E+00  0.82129296E+00
  0.20428267E+00  0.69313317E+00  0.93061578E+00
  0.45613641E+00  0.81768104E+00  0.76547885E-01
  0.24765508E+00  0.67158144E+00  0.24574721E+00
  0.38571584E+00  0.86714199E+00  0.49861445E+00
  0.21670335E+00  0.68193102E+00  0.65699041E+00
  0.46970669E+00  0.86418516E+00  0.82516297E+00
  0.54577479E+00  0.76478586E-01  0.16180822E-01
  0.71419337E+00  0.20184769E+00  0.16430612E+00
  0.55671741E+00  0.14293973E-01  0.32073198E+00
  0.70975612E+00  0.21204646E+00  0.44231373E+00
  0.59157393E+00  0.97904140E+00  0.63454392E+00
  0.68537863E+00  0.19538798E+00  0.81585625E+00
  0.57148484E+00  0.36030480E+00  0.96086135E+00
  0.73981681E+00  0.49616702E+00  0.17819848E+00
  0.52103746E+00  0.33366833E+00  0.34216947E+00
  0.71413534E+00  0.50475323E+00  0.46123170E+00
  0.51161714E+00  0.38693939E+00  0.64597106E+00
  0.80368801E+00  0.48858613E+00  0.76377414E+00
  0.64231716E+00  0.64597921E+00  0.94339998E+00
  0.73871930E+00  0.83152927E+00  0.13446234E+00
  0.55629345E+00  0.66048856E+00  0.29765021E+00
  0.77130171E+00  0.82673122E+00  0.44245366E+00
  0.56420685E+00  0.69429270E+00  0.62367763E+00
  0.72755733E+00  0.89000993E+00  0.80477868E+00
  0.00000000E+00  0.00000000E+00  0.00000000E+00
  0.00000000E+00  0.00000000E+00  0.00000000E+00
  0.00000000E+00  0.00000000E+00  0.00000000E+00
  0.00000000E+00  0.00000000E+00  0.00000000E+00
  0.00000000E+00  0.00000000E+00  0.00000000E+00
  0.00000000E+00  0.00000000E+00  0.00000000E+00
  0.00000000E+00  0.00000000E+00  0.00000000E+00
  0.00000000E+00  0.00000000E+00  0.00000000E+00
  0.00000000E+00  0.00000000E+00  0.00000000E+00
  0.00000000E+00  0.00000000E+00  0.00000000E+00
  0.00000000E+00  0.00000000E+00  0.00000000E+00
  0.00000000E+00  0.00000000E+00  0.00000000E+00
  0.00000000E+00  0.00000000E+00  0.00000000E+00
  0.00000000E+00  0.00000000E+00  0.00000000E+00
  0.00000000E+00  0.00000000E+00  0.00000000E+00
  0.00000000E+00  0.00000000E+00  0.00000000E+00
  0.00000000E+00  0.00000000E+00  0.00000000E+00
  0.00000000E+00  0.00000000E+00  0.00000000E+00
  0.00000000E+00  0.00000000E+00  0.00000000E+00
  0.00000000E+00  0.00000000E+00  0.00000000E+00
  0.00000000E+00  0.00000000E+00  0.00000000E+00
  0.00000000E+00  0.00000000E+00  0.00000000E+00
  0.00000000E+00  0.00000000E+00  0.00000000E+00
  0.00000000E+00  0.00000000E+00  0.00000000E+00
  0.00000000E+00  0.00000000E+00  0.00000000E+00
  0.00000000E+00  0.00000000E+00  0.00000000E+00
  0.00000000E+00  0.00000000E+00  0.00000000E+00
  0.00000000E+00  0.00000000E+00  0.00000000E+00
  0.00000000E+00  0.00000000E+00  0.00000000E+00
  0.00000000E+00  0.00000000E+00  0.00000000E+00
  0.00000000E+00  0.00000000E+00  0.00000000E+00
  0.00000000E+00  0.00000000E+00  0.00000000E+00
  0.00000000E+00  0.00000000E+00  0.00000000E+00
  0.00000000E+00  0.00000000E+00  0.00000000E+00
  0.00000000E+00  0.00000000E+00  0.00000000E+00
  0.00000000E+00  0.00000000E+00  0.00000000E+00
  0.00000000E+00  0.00000000E+00  0.00000000E+00
  0.00000000E+00  0.00000000E+00  0.00000000E+00
  0.00000000E+00  0.00000000E+00  0.00000000E+00
  0.00000000E+00  0.00000000E+00  0.00000000E+00
  0.00000000E+00  0.00000000E+00  0.00000000E+00
  0.00000000E+00  0.00000000E+00  0.00000000E+00
  0.00000000E+00  0.00000000E+00  0.00000000E+00
  0.00000000E+00  0.00000000E+00  0.00000000E+00
  0.00000000E+00  0.00000000E+00  0.00000000E+00
  0.00000000E+00  0.00000000E+00  0.00000000E+00
  0.00000000E+00  0.00000000E+00  0.00000000E+00
  0.00000000E+00  0.00000000E+00  0.00000000E+00
  0.00000000E+00  0.00000000E+00  0.00000000E+00
  0.00000000E+00  0.00000000E+00  0.00000000E+00
  0.00000000E+00  0.00000000E+00  0.00000000E+00
  0.00000000E+00  0.00000000E+00  0.00000000E+00
  0.00000000E+00  0.00000000E+00  0.00000000E+00
  0.00000000E+00  0.00000000E+00  0.00000000E+00
  0.00000000E+00  0.00000000E+00  0.00000000E+00
  0.00000000E+00  0.00000000E+00  0.00000000E+00
  0.00000000E+00  0.00000000E+00  0.00000000E+00
  0.00000000E+00  0.00000000E+00  0.00000000E+00
  0.00000000E+00  0.00000000E+00  0.00000000E+00
  0.00000000E+00  0.00000000E+00  0.00000000E+00
  0.00000000E+00  0.00000000E+00  0.00000000E+00
  0.00000000E+00  0.00000000E+00  0.00000000E+00
  0.00000000E+00  0.00000000E+00  0.00000000E+00
  0.00000000E+00  0.00000000E+00  0.00000000E+00
  0.00000000E+00  0.00000000E+00  0.00000000E+00
  0.00000000E+00  0.00000000E+00  0.00000000E+00
  0.00000000E+00  0.00000000E+00  0.00000000E+00
  0.00000000E+00  0.00000000E+00  0.00000000E+00
  0.00000000E+00  0.00000000E+00  0.00000000E+00
  0.00000000E+00  0.00000000E+00  0.00000000E+00
  0.00000000E+00  0.00000000E+00  0.00000000E+00
  0.00000000E+00  0.00000000E+00  0.00000000E+00
  0.00000000E+00  0.00000000E+00  0.00000000E+00
  0.00000000E+00  0.00000000E+00  0.00000000E+00
  0.00000000E+00  0.00000000E+00  0.00000000E+00
  0.00000000E+00  0.00000000E+00  0.00000000E+00
  0.00000000E+00  0.00000000E+00  0.00000000E+00
  0.00000000E+00  0.00000000E+00  0.00000000E+00
  0.00000000E+00  0.00000000E+00  0.00000000E+00
  0.00000000E+00  0.00000000E+00  0.00000000E+00
  0.00000000E+00  0.00000000E+00  0.00000000E+00
  0.00000000E+00  0.00000000E+00  0.00000000E+00
  0.00000000E+00  0.00000000E+00  0.00000000E+00
  0.00000000E+00  0.00000000E+00  0.00000000E+00
  0.00000000E+00  0.00000000E+00  0.00000000E+00
  0.00000000E+00  0.00000000E+00  0.00000000E+00
  0.00000000E+00  0.00000000E+00  0.00000000E+00
  0.00000000E+00  0.00000000E+00  0.00000000E+00
  0.00000000E+00  0.00000000E+00  0.00000000E+00
  0.00000000E+00  0.00000000E+00  0.00000000E+00
  0.00000000E+00  0.00000000E+00  0.00000000E+00
  0.00000000E+00  0.00000000E+00  0.00000000E+00
  0.00000000E+00  0.00000000E+00  0.00000000E+00
  0.00000000E+00  0.00000000E+00  0.00000000E+00
  0.00000000E+00  0.00000000E+00  0.00000000E+00
  0.00000000E+00  0.00000000E+00  0.00000000E+00
  0.00000000E+00  0.00000000E+00  0.00000000E+00
  0.00000000E+00  0.00000000E+00  0.00000000E+00
  0.00000000E+00  0.00000000E+00  0.00000000E+00
  0.00000000E+00  0.00000000E+00  0.00000000E+00
  0.00000000E+00  0.00000000E+00  0.00000000E+00
  0.00000000E+00  0.00000000E+00  0.00000000E+00
  0.00000000E+00  0.00000000E+00  0.00000000E+00
  0.00000000E+00  0.00000000E+00  0.00000000E+00
  0.00000000E+00  0.00000000E+00  0.00000000E+00
  0.00000000E+00  0.00000000E+00  0.00000000E+00
  0.00000000E+00  0.00000000E+00  0.00000000E+00
  0.00000000E+00  0.00000000E+00  0.00000000E+00
