  54  54   0   0
  0.2140972E+02  0.1045519E-08  0.1065944E-08  0.1037740E-08  0.2000000E-14
   600.000000000000     
  CAR 
 unknown system                          
      3.90917316     -4.23882193  301      0.08245560      1.00000000
     -4.239  0.0000E+00  0.0000E+00
     -4.212  0.0000E+00  0.0000E+00
     -4.185  0.0000E+00  0.0000E+00
     -4.157  0.0000E+00  0.0000E+00
     -4.130  0.0000E+00  0.0000E+00
     -4.103  0.0000E+00  0.0000E+00
     -4.076  0.0000E+00  0.0000E+00
     -4.049 -0.5160E-26 -0.1399E-27
     -4.022 -0.3698E-24 -0.1017E-25
     -3.994 -0.2313E-22 -0.6373E-24
     -3.967 -0.1247E-20 -0.3445E-22
     -3.940 -0.5792E-19 -0.1605E-20
     -3.913 -0.2318E-17 -0.6448E-19
     -3.886 -0.7992E-16 -0.2232E-17
     -3.859 -0.2373E-14 -0.6659E-16
     -3.831 -0.5952E-13 -0.1681E-14
     -3.804 -0.1292E-11 -0.3672E-13
     -3.777 -0.2437E-10 -0.6978E-12
     -3.750 -0.3949E-09 -0.1141E-10
     -3.723 -0.5496E-08 -0.1605E-09
     -3.696 -0.6563E-07 -0.1941E-08
     -3.668 -0.6719E-06 -0.2017E-07
     -3.641 -0.5889E-05 -0.1799E-06
     -3.614 -0.4412E-04 -0.1377E-05
     -3.587 -0.2821E-03 -0.9027E-05
     -3.560 -0.1534E-02 -0.5063E-04
     -3.533 -0.7071E-02 -0.2424E-03
     -3.506 -0.2747E-01 -0.9873E-03
     -3.478 -0.8917E-01 -0.3405E-02
     -3.451 -0.2384E+00 -0.9867E-02
     -3.424 -0.5105E+00 -0.2370E-01
     -3.397 -0.8220E+00 -0.4598E-01
     -3.370 -0.7965E+00 -0.6755E-01
     -3.343  0.2977E+00 -0.5944E-01
     -3.315  0.3209E+01  0.2760E-01
     -3.288  0.7929E+01  0.2425E+00
     -3.261  0.1308E+02  0.5969E+00
     -3.234  0.1635E+02  0.1040E+01
     -3.207  0.1601E+02  0.1473E+01
     -3.180  0.1224E+02  0.1805E+01
     -3.152  0.7021E+01  0.1995E+01
     -3.125  0.2567E+01  0.2065E+01
     -3.098  0.5685E-02  0.2065E+01
     -3.071 -0.8455E+00  0.2042E+01
     -3.044 -0.7743E+00  0.2021E+01
     -3.017 -0.4564E+00  0.2008E+01
     -2.989 -0.2057E+00  0.2003E+01
     -2.962 -0.7488E-01  0.2001E+01
     -2.935 -0.2256E-01  0.2000E+01
     -2.908 -0.5699E-02  0.2000E+01
     -2.881 -0.1218E-02  0.2000E+01
     -2.854 -0.2213E-03  0.2000E+01
     -2.827 -0.3432E-04  0.2000E+01
     -2.799 -0.4571E-05  0.2000E+01
     -2.772 -0.6700E-06  0.2000E+01
     -2.745 -0.1236E-05  0.2000E+01
     -2.718 -0.8130E-05  0.2000E+01
     -2.691 -0.4906E-04  0.2000E+01
     -2.664 -0.2617E-03  0.2000E+01
     -2.636 -0.1235E-02  0.2000E+01
     -2.609 -0.5155E-02  0.2000E+01
     -2.582 -0.1896E-01  0.1999E+01
     -2.555 -0.6102E-01  0.1998E+01
     -2.528 -0.1703E+00  0.1993E+01
     -2.501 -0.4060E+00  0.1982E+01
     -2.473 -0.8083E+00  0.1960E+01
     -2.446 -0.1281E+01  0.1925E+01
     -2.419 -0.1411E+01  0.1887E+01
     -2.392 -0.3455E+00  0.1878E+01
     -2.365  0.3042E+01  0.1961E+01
     -2.338  0.9616E+01  0.2222E+01
     -2.310  0.1931E+02  0.2746E+01
     -2.283  0.3083E+02  0.3582E+01
     -2.256  0.4212E+02  0.4723E+01
     -2.229  0.5116E+02  0.6109E+01
     -2.202  0.5658E+02  0.7642E+01
     -2.175  0.5774E+02  0.9206E+01
     -2.148  0.5443E+02  0.1068E+02
     -2.120  0.4695E+02  0.1195E+02
     -2.093  0.3631E+02  0.1293E+02
     -2.066  0.2442E+02  0.1359E+02
     -2.039  0.1353E+02  0.1396E+02
     -2.012  0.5431E+01  0.1411E+02
     -1.985  0.7000E+00  0.1413E+02
     -1.957 -0.1223E+01  0.1409E+02
     -1.930 -0.1461E+01  0.1405E+02
     -1.903 -0.1042E+01  0.1403E+02
     -1.876 -0.5697E+00  0.1401E+02
     -1.849 -0.2553E+00  0.1400E+02
     -1.822 -0.9638E-01  0.1400E+02
     -1.794 -0.3107E-01  0.1400E+02
     -1.767 -0.8623E-02  0.1400E+02
     -1.740 -0.2115E-02  0.1400E+02
     -1.713 -0.6922E-03  0.1400E+02
     -1.686 -0.1311E-02  0.1400E+02
     -1.659 -0.5071E-02  0.1400E+02
     -1.631 -0.1812E-01  0.1400E+02
     -1.604 -0.5659E-01  0.1400E+02
     -1.577 -0.1536E+00  0.1399E+02
     -1.550 -0.3593E+00  0.1398E+02
     -1.523 -0.7132E+00  0.1396E+02
     -1.496 -0.1160E+01  0.1393E+02
     -1.469 -0.1407E+01  0.1389E+02
     -1.441 -0.7910E+00  0.1387E+02
     -1.414  0.1707E+01  0.1392E+02
     -1.387  0.7156E+01  0.1411E+02
     -1.360  0.1614E+02  0.1455E+02
     -1.333  0.2829E+02  0.1532E+02
     -1.306  0.4217E+02  0.1646E+02
     -1.278  0.5582E+02  0.1798E+02
     -1.251  0.6743E+02  0.1981E+02
     -1.224  0.7602E+02  0.2186E+02
     -1.197  0.8141E+02  0.2407E+02
     -1.170  0.8385E+02  0.2634E+02
     -1.143  0.8353E+02  0.2860E+02
     -1.115  0.8034E+02  0.3078E+02
     -1.088  0.7398E+02  0.3278E+02
     -1.061  0.6435E+02  0.3452E+02
     -1.034  0.5197E+02  0.3593E+02
     -1.007  0.3808E+02  0.3696E+02
     -0.980  0.2451E+02  0.3763E+02
     -0.952  0.1312E+02  0.3798E+02
     -0.925  0.5077E+01  0.3812E+02
     -0.898  0.5300E+00  0.3813E+02
     -0.871 -0.1283E+01  0.3810E+02
     -0.844 -0.1492E+01  0.3806E+02
     -0.817 -0.1075E+01  0.3803E+02
     -0.790 -0.6015E+00  0.3801E+02
     -0.762 -0.2783E+00  0.3800E+02
     -0.735 -0.1092E+00  0.3800E+02
     -0.708 -0.3699E-01  0.3800E+02
     -0.681 -0.1161E-01  0.3800E+02
     -0.654 -0.5881E-02  0.3800E+02
     -0.627 -0.1051E-01  0.3800E+02
     -0.599 -0.2777E-01  0.3800E+02
     -0.572 -0.6926E-01  0.3800E+02
     -0.545 -0.1550E+00  0.3799E+02
     -0.518 -0.3057E+00  0.3798E+02
     -0.491 -0.5144E+00  0.3797E+02
     -0.464 -0.6838E+00  0.3795E+02
     -0.436 -0.5421E+00  0.3794E+02
     -0.409  0.4042E+00  0.3795E+02
     -0.382  0.2782E+01  0.3802E+02
     -0.355  0.7088E+01  0.3822E+02
     -0.328  0.1335E+02  0.3858E+02
     -0.301  0.2101E+02  0.3915E+02
     -0.273  0.2905E+02  0.3994E+02
     -0.246  0.3650E+02  0.4093E+02
     -0.219  0.4277E+02  0.4209E+02
     -0.192  0.4758E+02  0.4338E+02
     -0.165  0.5081E+02  0.4475E+02
     -0.138  0.5227E+02  0.4617E+02
     -0.111  0.5175E+02  0.4757E+02
     -0.083  0.4926E+02  0.4890E+02
     -0.056  0.4505E+02  0.5012E+02
     -0.029  0.3955E+02  0.5119E+02
     -0.002  0.3321E+02  0.5209E+02
      0.025  0.2647E+02  0.5281E+02
      0.052  0.1972E+02  0.5334E+02
      0.080  0.1340E+02  0.5371E+02
      0.107  0.7979E+01  0.5392E+02
      0.134  0.3855E+01  0.5403E+02
      0.161  0.1182E+01  0.5406E+02
      0.188 -0.1880E+00  0.5405E+02
      0.215 -0.6317E+00  0.5404E+02
      0.243 -0.5850E+00  0.5402E+02
      0.270 -0.3828E+00  0.5401E+02
      0.297 -0.2015E+00  0.5400E+02
      0.324 -0.9254E-01  0.5400E+02
      0.351 -0.4777E-01  0.5400E+02
      0.378 -0.4800E-01  0.5400E+02
      0.406 -0.8106E-01  0.5400E+02
      0.433 -0.1380E+00  0.5399E+02
      0.460 -0.1996E+00  0.5399E+02
      0.487 -0.2197E+00  0.5398E+02
      0.514 -0.1091E+00  0.5398E+02
      0.541  0.2813E+00  0.5399E+02
      0.568  0.1167E+01  0.5402E+02
      0.596  0.2798E+01  0.5409E+02
      0.623  0.5360E+01  0.5424E+02
      0.650  0.8834E+01  0.5448E+02
      0.677  0.1292E+02  0.5483E+02
      0.704  0.1714E+02  0.5530E+02
      0.731  0.2102E+02  0.5587E+02
      0.759  0.2439E+02  0.5653E+02
      0.786  0.2729E+02  0.5727E+02
      0.813  0.2984E+02  0.5808E+02
      0.840  0.3205E+02  0.5894E+02
      0.867  0.3377E+02  0.5986E+02
      0.894  0.3493E+02  0.6081E+02
      0.922  0.3563E+02  0.6177E+02
      0.949  0.3611E+02  0.6275E+02
      0.976  0.3665E+02  0.6374E+02
      1.003  0.3747E+02  0.6476E+02
      1.030  0.3862E+02  0.6580E+02
      1.057  0.4004E+02  0.6689E+02
      1.085  0.4161E+02  0.6802E+02
      1.112  0.4323E+02  0.6919E+02
      1.139  0.4480E+02  0.7040E+02
      1.166  0.4623E+02  0.7165E+02
      1.193  0.4736E+02  0.7294E+02
      1.220  0.4806E+02  0.7424E+02
      1.247  0.4827E+02  0.7554E+02
      1.275  0.4807E+02  0.7685E+02
      1.302  0.4763E+02  0.7814E+02
      1.329  0.4706E+02  0.7941E+02
      1.356  0.4636E+02  0.8067E+02
      1.383  0.4548E+02  0.8190E+02
      1.410  0.4430E+02  0.8310E+02
      1.438  0.4272E+02  0.8425E+02
      1.465  0.4053E+02  0.8535E+02
      1.492  0.3747E+02  0.8637E+02
      1.519  0.3332E+02  0.8727E+02
      1.546  0.2820E+02  0.8803E+02
      1.573  0.2256E+02  0.8864E+02
      1.601  0.1708E+02  0.8910E+02
      1.628  0.1228E+02  0.8944E+02
      1.655  0.8419E+01  0.8967E+02
      1.682  0.5491E+01  0.8981E+02
      1.709  0.3390E+01  0.8991E+02
      1.736  0.1963E+01  0.8996E+02
      1.764  0.1047E+01  0.8999E+02
      1.791  0.4829E+00  0.9000E+02
      1.818  0.1446E+00  0.9000E+02
      1.845 -0.5038E-01  0.9000E+02
      1.872 -0.1477E+00  0.9000E+02
      1.899 -0.1649E+00  0.9000E+02
      1.926 -0.9016E-01  0.8999E+02
      1.954  0.1242E+00  0.9000E+02
      1.981  0.5608E+00  0.9001E+02
      2.008  0.1325E+01  0.9005E+02
      2.035  0.2529E+01  0.9012E+02
      2.062  0.4271E+01  0.9023E+02
      2.089  0.6637E+01  0.9041E+02
      2.117  0.9670E+01  0.9068E+02
      2.144  0.1333E+02  0.9104E+02
      2.171  0.1742E+02  0.9151E+02
      2.198  0.2162E+02  0.9210E+02
      2.225  0.2554E+02  0.9279E+02
      2.252  0.2888E+02  0.9357E+02
      2.280  0.3153E+02  0.9443E+02
      2.307  0.3356E+02  0.9534E+02
      2.334  0.3517E+02  0.9629E+02
      2.361  0.3657E+02  0.9728E+02
      2.388  0.3791E+02  0.9831E+02
      2.415  0.3917E+02  0.9937E+02
      2.443  0.4027E+02  0.1005E+03
      2.470  0.4115E+02  0.1016E+03
      2.497  0.4177E+02  0.1027E+03
      2.524  0.4219E+02  0.1038E+03
      2.551  0.4248E+02  0.1050E+03
      2.578  0.4271E+02  0.1062E+03
      2.605  0.4289E+02  0.1073E+03
      2.633  0.4299E+02  0.1085E+03
      2.660  0.4286E+02  0.1096E+03
      2.687  0.4236E+02  0.1108E+03
      2.714  0.4139E+02  0.1119E+03
      2.741  0.4003E+02  0.1130E+03
      2.768  0.3852E+02  0.1140E+03
      2.796  0.3726E+02  0.1150E+03
      2.823  0.3649E+02  0.1160E+03
      2.850  0.3590E+02  0.1170E+03
      2.877  0.3440E+02  0.1179E+03
      2.904  0.3065E+02  0.1188E+03
      2.931  0.2410E+02  0.1194E+03
      2.959  0.1580E+02  0.1198E+03
      2.986  0.7856E+01  0.1201E+03
      3.013  0.2164E+01  0.1201E+03
      3.040 -0.7095E+00  0.1201E+03
      3.067 -0.1442E+01  0.1201E+03
      3.094 -0.1145E+01  0.1200E+03
      3.122 -0.6425E+00  0.1200E+03
      3.149 -0.2836E+00  0.1200E+03
      3.176 -0.1023E+00  0.1200E+03
      3.203 -0.3072E-01  0.1200E+03
      3.230 -0.7759E-02  0.1200E+03
      3.257 -0.1659E-02  0.1200E+03
      3.284 -0.3016E-03  0.1200E+03
      3.312 -0.4675E-04  0.1200E+03
      3.339 -0.6194E-05  0.1200E+03
      3.366 -0.7024E-06  0.1200E+03
      3.393 -0.6826E-07  0.1200E+03
      3.420 -0.5692E-08  0.1200E+03
      3.447 -0.4076E-09  0.1200E+03
      3.475 -0.2507E-10  0.1200E+03
      3.502 -0.1325E-11  0.1200E+03
      3.529 -0.6395E-13  0.1200E+03
      3.556  0.0000E+00  0.1200E+03
      3.583  0.0000E+00  0.1200E+03
      3.610  0.0000E+00  0.1200E+03
      3.638  0.0000E+00  0.1200E+03
      3.665  0.0000E+00  0.1200E+03
      3.692  0.0000E+00  0.1200E+03
      3.719  0.0000E+00  0.1200E+03
      3.746  0.0000E+00  0.1200E+03
      3.773  0.0000E+00  0.1200E+03
      3.801  0.0000E+00  0.1200E+03
      3.828  0.0000E+00  0.1200E+03
      3.855  0.0000E+00  0.1200E+03
      3.882  0.0000E+00  0.1200E+03
      3.909  0.0000E+00  0.1200E+03
      3.91141547     -4.23952953  301      0.08200672      1.00000000
     -4.240  0.0000E+00  0.0000E+00
     -4.212  0.0000E+00  0.0000E+00
     -4.185  0.0000E+00  0.0000E+00
     -4.158  0.0000E+00  0.0000E+00
     -4.131  0.0000E+00  0.0000E+00
     -4.104  0.0000E+00  0.0000E+00
     -4.077  0.0000E+00  0.0000E+00
     -4.049 -0.2779E-29 -0.7551E-31
     -4.022 -0.2005E-27 -0.5524E-29
     -3.995 -0.1261E-25 -0.3482E-27
     -3.968 -0.6832E-24 -0.1891E-25
     -3.941 -0.3187E-22 -0.8849E-24
     -3.913 -0.1280E-20 -0.3567E-22
     -3.886 -0.4427E-19 -0.1238E-20
     -3.859 -0.1317E-17 -0.3703E-19
     -3.832 -0.3169E-16 -0.8979E-18
     -3.805 -0.7203E-15 -0.2047E-16
     -3.778 -0.1358E-13 -0.3896E-15
     -3.750 -0.2202E-12 -0.6372E-14
     -3.723 -0.3064E-11 -0.8961E-13
     -3.696 -0.3656E-10 -0.1083E-11
     -3.669 -0.3738E-09 -0.1124E-10
     -3.642 -0.3270E-08 -0.1001E-09
     -3.615 -0.2445E-07 -0.7643E-09
     -3.587 -0.1558E-06 -0.4997E-08
     -3.560 -0.8439E-06 -0.2792E-07
     -3.533 -0.3871E-05 -0.1331E-06
     -3.506 -0.1495E-04 -0.5391E-06
     -3.479 -0.4814E-04 -0.1847E-05
     -3.452 -0.1274E-03 -0.5309E-05
     -3.424 -0.2690E-03 -0.1262E-04
     -3.397 -0.4231E-03 -0.2411E-04
     -3.370 -0.3843E-03 -0.3456E-04
     -3.343  0.2302E-03 -0.2830E-04
     -3.316  0.1787E-02  0.2025E-04
     -3.289  0.4228E-02  0.1351E-03
     -3.261  0.6790E-02  0.3196E-03
     -3.234  0.8282E-02  0.5446E-03
     -3.207  0.7899E-02  0.7593E-03
     -3.180  0.5854E-02  0.9183E-03
     -3.153  0.3207E-02  0.1005E-02
     -3.126  0.1059E-02  0.1034E-02
     -3.098 -0.1051E-03  0.1031E-02
     -3.071 -0.4438E-03  0.1019E-02
     -3.044 -0.3704E-03  0.1009E-02
     -3.017 -0.2072E-03  0.1004E-02
     -2.990 -0.8944E-04  0.1001E-02
     -2.963 -0.3123E-04  0.1000E-02
     -2.935 -0.9024E-05  0.1000E-02
     -2.908 -0.2184E-05  0.1000E-02
     -2.881 -0.4461E-06  0.1000E-02
     -2.854 -0.7727E-07  0.1000E-02
     -2.827 -0.1139E-07  0.1000E-02
     -2.800 -0.1436E-08  0.1000E-02
     -2.772 -0.1859E-09  0.1000E-02
     -2.745 -0.3501E-09  0.1000E-02
     -2.718 -0.3052E-08  0.1000E-02
     -2.691 -0.2372E-07  0.1000E-02
     -2.664 -0.1577E-06  0.1000E-02
     -2.637 -0.8940E-06  0.1000E-02
     -2.609 -0.4308E-05  0.9999E-03
     -2.582 -0.1756E-04  0.9994E-03
     -2.555 -0.6015E-04  0.9977E-03
     -2.528 -0.1711E-03  0.9931E-03
     -2.501 -0.3961E-03  0.9823E-03
     -2.473 -0.7153E-03  0.9629E-03
     -2.446 -0.8968E-03  0.9385E-03
     -2.419 -0.3794E-03  0.9282E-03
     -2.392  0.1569E-02  0.9709E-03
     -2.365  0.5283E-02  0.1114E-02
     -2.338  0.1009E-01  0.1389E-02
     -2.310  0.1447E-01  0.1782E-02
     -2.283  0.1713E-01  0.2247E-02
     -2.256  0.1820E-01  0.2742E-02
     -2.229  0.1899E-01  0.3258E-02
     -2.202  0.2066E-01  0.3819E-02
     -2.175  0.2303E-01  0.4445E-02
     -2.147  0.2474E-01  0.5117E-02
     -2.120  0.2424E-01  0.5775E-02
     -2.093  0.2082E-01  0.6341E-02
     -2.066  0.1508E-01  0.6751E-02
     -2.039  0.8665E-02  0.6986E-02
     -2.012  0.3382E-02  0.7078E-02
     -1.984  0.2149E-03  0.7084E-02
     -1.957 -0.9790E-03  0.7057E-02
     -1.930 -0.1001E-02  0.7030E-02
     -1.903 -0.6355E-03  0.7013E-02
     -1.876 -0.3056E-03  0.7005E-02
     -1.849 -0.1181E-03  0.7001E-02
     -1.821 -0.3763E-04  0.7000E-02
     -1.794 -0.1002E-04  0.7000E-02
     -1.767 -0.2253E-05  0.7000E-02
     -1.740 -0.4474E-06  0.7000E-02
     -1.713 -0.1955E-06  0.7000E-02
     -1.686 -0.7120E-06  0.7000E-02
     -1.658 -0.3322E-05  0.7000E-02
     -1.631 -0.1330E-04  0.7000E-02
     -1.604 -0.4486E-04  0.6998E-02
     -1.577 -0.1265E-03  0.6995E-02
     -1.550 -0.2946E-03  0.6987E-02
     -1.523 -0.5528E-03  0.6972E-02
     -1.495 -0.7888E-03  0.6950E-02
     -1.468 -0.6954E-03  0.6932E-02
     -1.441  0.2069E-03  0.6937E-02
     -1.414  0.2409E-02  0.7003E-02
     -1.387  0.6224E-02  0.7172E-02
     -1.360  0.1171E-01  0.7490E-02
     -1.332  0.1860E-01  0.7995E-02
     -1.305  0.2611E-01  0.8704E-02
     -1.278  0.3280E-01  0.9596E-02
     -1.251  0.3696E-01  0.1060E-01
     -1.224  0.3772E-01  0.1162E-01
     -1.197  0.3587E-01  0.1260E-01
     -1.169  0.3350E-01  0.1351E-01
     -1.142  0.3250E-01  0.1439E-01
     -1.115  0.3322E-01  0.1530E-01
     -1.088  0.3417E-01  0.1622E-01
     -1.061  0.3319E-01  0.1713E-01
     -1.033  0.2893E-01  0.1791E-01
     -1.006  0.2179E-01  0.1850E-01
     -0.979  0.1361E-01  0.1887E-01
     -0.952  0.6505E-02  0.1905E-01
     -0.925  0.1760E-02  0.1910E-01
     -0.898 -0.5490E-03  0.1908E-01
     -0.870 -0.1151E-02  0.1905E-01
     -0.843 -0.9420E-03  0.1903E-01
     -0.816 -0.5521E-03  0.1901E-01
     -0.789 -0.2572E-03  0.1900E-01
     -0.762 -0.9870E-04  0.1900E-01
     -0.735 -0.3173E-04  0.1900E-01
     -0.707 -0.8618E-05  0.1900E-01
     -0.680 -0.2001E-05  0.1900E-01
     -0.653 -0.4918E-06  0.1900E-01
     -0.626 -0.6572E-06  0.1900E-01
     -0.599 -0.2942E-05  0.1900E-01
     -0.572 -0.1234E-04  0.1900E-01
     -0.544 -0.4385E-04  0.1900E-01
     -0.517 -0.1306E-03  0.1899E-01
     -0.490 -0.3216E-03  0.1899E-01
     -0.463 -0.6378E-03  0.1897E-01
     -0.436 -0.9570E-03  0.1894E-01
     -0.409 -0.8693E-03  0.1892E-01
     -0.381  0.3331E-03  0.1893E-01
     -0.354  0.3353E-02  0.1902E-01
     -0.327  0.8345E-02  0.1925E-01
     -0.300  0.1458E-01  0.1964E-01
     -0.273  0.2070E-01  0.2020E-01
     -0.246  0.2543E-01  0.2090E-01
     -0.218  0.2812E-01  0.2166E-01
     -0.191  0.2870E-01  0.2244E-01
     -0.164  0.2736E-01  0.2318E-01
     -0.137  0.2440E-01  0.2385E-01
     -0.110  0.2055E-01  0.2440E-01
     -0.083  0.1713E-01  0.2487E-01
     -0.055  0.1540E-01  0.2529E-01
     -0.028  0.1541E-01  0.2571E-01
     -0.001  0.1568E-01  0.2613E-01
      0.026  0.1438E-01  0.2652E-01
      0.053  0.1093E-01  0.2682E-01
      0.080  0.6389E-02  0.2699E-01
      0.108  0.2441E-02  0.2706E-01
      0.135  0.7918E-04  0.2706E-01
      0.162 -0.7663E-03  0.2704E-01
      0.189 -0.7418E-03  0.2702E-01
      0.216 -0.4550E-03  0.2701E-01
      0.243 -0.2128E-03  0.2700E-01
      0.271 -0.8035E-04  0.2700E-01
      0.298 -0.2514E-04  0.2700E-01
      0.325 -0.6812E-05  0.2700E-01
      0.352 -0.2682E-05  0.2700E-01
      0.379 -0.5678E-05  0.2700E-01
      0.407 -0.2009E-04  0.2700E-01
      0.434 -0.6196E-04  0.2700E-01
      0.461 -0.1570E-03  0.2699E-01
      0.488 -0.3165E-03  0.2698E-01
      0.515 -0.4719E-03  0.2697E-01
      0.542 -0.3950E-03  0.2696E-01
      0.570  0.2882E-03  0.2697E-01
      0.597  0.1872E-02  0.2702E-01
      0.624  0.4229E-02  0.2713E-01
      0.651  0.6725E-02  0.2732E-01
      0.678  0.8657E-02  0.2755E-01
      0.705  0.9874E-02  0.2782E-01
      0.733  0.1089E-01  0.2812E-01
      0.760  0.1227E-01  0.2845E-01
      0.787  0.1402E-01  0.2883E-01
      0.814  0.1558E-01  0.2925E-01
      0.841  0.1637E-01  0.2970E-01
      0.868  0.1621E-01  0.3014E-01
      0.896  0.1550E-01  0.3056E-01
      0.923  0.1491E-01  0.3097E-01
      0.950  0.1510E-01  0.3138E-01
      0.977  0.1637E-01  0.3182E-01
      1.004  0.1843E-01  0.3232E-01
      1.031  0.2066E-01  0.3288E-01
      1.059  0.2264E-01  0.3350E-01
      1.086  0.2450E-01  0.3416E-01
      1.113  0.2648E-01  0.3488E-01
      1.140  0.2825E-01  0.3565E-01
      1.167  0.2877E-01  0.3643E-01
      1.194  0.2731E-01  0.3717E-01
      1.222  0.2450E-01  0.3784E-01
      1.249  0.2211E-01  0.3844E-01
      1.276  0.2160E-01  0.3903E-01
      1.303  0.2282E-01  0.3965E-01
      1.330  0.2427E-01  0.4031E-01
      1.357  0.2445E-01  0.4097E-01
      1.385  0.2297E-01  0.4160E-01
      1.412  0.2056E-01  0.4215E-01
      1.439  0.1806E-01  0.4264E-01
      1.466  0.1568E-01  0.4307E-01
      1.493  0.1312E-01  0.4343E-01
      1.520  0.1022E-01  0.4370E-01
      1.548  0.7542E-02  0.4391E-01
      1.575  0.6040E-02  0.4407E-01
      1.602  0.6158E-02  0.4424E-01
      1.629  0.7197E-02  0.4444E-01
      1.656  0.7749E-02  0.4465E-01
      1.683  0.6848E-02  0.4483E-01
      1.711  0.4684E-02  0.4496E-01
      1.738  0.2266E-02  0.4502E-01
      1.765  0.5110E-03  0.4504E-01
      1.792 -0.3099E-03  0.4503E-01
      1.819 -0.4695E-03  0.4501E-01
      1.847 -0.3791E-03  0.4500E-01
      1.874 -0.3175E-03  0.4500E-01
      1.901 -0.3748E-03  0.4499E-01
      1.928 -0.4650E-03  0.4497E-01
      1.955 -0.3109E-03  0.4496E-01
      1.982  0.5096E-03  0.4498E-01
      2.010  0.2300E-02  0.4504E-01
      2.037  0.4822E-02  0.4517E-01
      2.064  0.7121E-02  0.4537E-01
      2.091  0.7986E-02  0.4558E-01
      2.118  0.6867E-02  0.4577E-01
      2.145  0.4464E-02  0.4589E-01
      2.173  0.2418E-02  0.4596E-01
      2.200  0.2294E-02  0.4602E-01
      2.227  0.4636E-02  0.4614E-01
      2.254  0.8687E-02  0.4638E-01
      2.281  0.1297E-01  0.4673E-01
      2.308  0.1634E-01  0.4718E-01
      2.336  0.1871E-01  0.4768E-01
      2.363  0.2069E-01  0.4825E-01
      2.390  0.2266E-01  0.4886E-01
      2.417  0.2411E-01  0.4952E-01
      2.444  0.2419E-01  0.5017E-01
      2.471  0.2260E-01  0.5079E-01
      2.499  0.2016E-01  0.5134E-01
      2.526  0.1839E-01  0.5184E-01
      2.553  0.1859E-01  0.5234E-01
      2.580  0.2100E-01  0.5291E-01
      2.607  0.2453E-01  0.5358E-01
      2.634  0.2738E-01  0.5432E-01
      2.662  0.2802E-01  0.5508E-01
      2.689  0.2617E-01  0.5580E-01
      2.716  0.2298E-01  0.5642E-01
      2.743  0.2020E-01  0.5697E-01
      2.770  0.1880E-01  0.5748E-01
      2.797  0.1830E-01  0.5798E-01
      2.825  0.1745E-01  0.5845E-01
      2.852  0.1562E-01  0.5888E-01
      2.879  0.1318E-01  0.5923E-01
      2.906  0.1074E-01  0.5953E-01
      2.933  0.8389E-02  0.5975E-01
      2.960  0.5895E-02  0.5991E-01
      2.988  0.3355E-02  0.6000E-01
      3.015  0.1252E-02  0.6004E-01
      3.042 -0.1871E-04  0.6004E-01
      3.069 -0.4773E-03  0.6003E-01
      3.096 -0.4517E-03  0.6001E-01
      3.123 -0.2764E-03  0.6001E-01
      3.151 -0.1290E-03  0.6000E-01
      3.178 -0.4843E-04  0.6000E-01
      3.205 -0.1499E-04  0.6000E-01
      3.232 -0.3877E-05  0.6000E-01
      3.259 -0.8446E-06  0.6000E-01
      3.287 -0.1558E-06  0.6000E-01
      3.314 -0.2445E-07  0.6000E-01
      3.341 -0.3271E-08  0.6000E-01
      3.368 -0.3738E-09  0.6000E-01
      3.395 -0.3656E-10  0.6000E-01
      3.422 -0.3064E-11  0.6000E-01
      3.450 -0.2202E-12  0.6000E-01
      3.477 -0.1358E-13  0.6000E-01
      3.504 -0.7192E-15  0.6000E-01
      3.531 -0.3269E-16  0.6000E-01
      3.558  0.0000E+00  0.6000E-01
      3.585  0.0000E+00  0.6000E-01
      3.613  0.0000E+00  0.6000E-01
      3.640  0.0000E+00  0.6000E-01
      3.667  0.0000E+00  0.6000E-01
      3.694  0.0000E+00  0.6000E-01
      3.721  0.0000E+00  0.6000E-01
      3.748  0.0000E+00  0.6000E-01
      3.776  0.0000E+00  0.6000E-01
      3.803  0.0000E+00  0.6000E-01
      3.830  0.0000E+00  0.6000E-01
      3.857  0.0000E+00  0.6000E-01
      3.884  0.0000E+00  0.6000E-01
      3.911  0.0000E+00  0.6000E-01
