   54   54 2000    1
  0.2140972E+02  0.1045519E-08  0.1065944E-08  0.1037740E-08  0.2000000E-14
   600.000000000000     
  CAR 
 unknown system                          
     54      1     60
 
  0.1276756E-14  0.1276756E-14  0.1276756E-14  0.1000000E+01
      1         -3.239530   1.000000
      2         -2.312475   1.000000
      3         -2.292418   1.000000
      4         -2.197060   1.000000
      5         -2.182390   1.000000
      6         -2.114389   1.000000
      7         -2.106770   1.000000
      8         -1.361422   1.000000
      9         -1.298248   1.000000
     10         -1.279395   1.000000
     11         -1.253198   1.000000
     12         -1.225044   1.000000
     13         -1.222607   1.000000
     14         -1.158131   1.000000
     15         -1.144134   1.000000
     16         -1.094237   1.000000
     17         -1.069262   1.000000
     18         -1.066911   1.000000
     19         -1.014665   1.000000
     20         -0.297069   1.000001
     21         -0.266330   1.000005
     22         -0.213777   1.000118
     23         -0.202218   1.000220
     24         -0.141545   1.003475
     25         -0.123504   1.006664
     26         -0.019627   1.026741
     27          0.011165   0.962778
     28          0.666563  -0.000000
     29          0.767985  -0.000000
     30          0.827680  -0.000000
     31          0.886989  -0.000000
     32          0.958378  -0.000000
     33          1.023049  -0.000000
     34          1.047839  -0.000000
     35          1.102416  -0.000000
     36          1.146024  -0.000000
     37          1.169485  -0.000000
     38          1.187758  -0.000000
     39          1.255829  -0.000000
     40          1.315255  -0.000000
     41          1.326759  -0.000000
     42          1.375905  -0.000000
     43          1.433155  -0.000000
     44          1.497781  -0.000000
     45          1.642024  -0.000000
     46          2.079094  -0.000000
     47          2.271093   0.000000
     48          2.315477   0.000000
     49          2.389615   0.000000
     50          2.408592   0.000000
     51          2.455538   0.000000
     52          2.497933   0.000000
     53          2.572665   0.000000
     54          2.606395   0.000000
     55          2.646443   0.000000
     56          2.667861   0.000000
     57          2.710018   0.000000
     58          2.800509   0.000000
     59          2.802886   0.000000
     60          2.911415   0.000000
