 running   12 mpi-ranks, on    1 nodes
 distrk:  each k-point on   12 cores,    1 groups
 distr:  one band on    1 cores,   12 groups
 vasp.6.6.0 06Mar2026 (build Jun 23 2026 14:11:56) gamma-only                   
  
 POSCAR found type information on POSCAR Li
 POSCAR found :  1 types and      54 ions
 scaLAPACK will be used
 -----------------------------------------------------------------------------
|                                                                             |
|           W    W    AA    RRRRR   N    N  II  N    N   GGGG   !!!           |
|           W    W   A  A   R    R  NN   N  II  NN   N  G    G  !!!           |
|           W    W  A    A  R    R  N N  N  II  N N  N  G       !!!           |
|           W WW W  AAAAAA  RRRRR   N  N N  II  N  N N  G  GGG   !            |
|           WW  WW  A    A  R   R   N   NN  II  N   NN  G    G                |
|           W    W  A    A  R    R  N    N  II  N    N   GGGG   !!!           |
|                                                                             |
|     For optimal performance we recommend to set                             |
|       NCORE = 2 up to number-of-cores-per-socket                            |
|     NCORE specifies how many cores store one orbital (NPAR=cpu/NCORE).      |
|     This setting can greatly improve the performance of VASP for DFT.       |
|     The default, NCORE=1 might be grossly inefficient on modern             |
|     multi-core architectures or massively parallel machines. Do your        |
|     own testing! More info at https://www.vasp.at/wiki/index.php/NCORE      |
|     Unfortunately you need to use the default for GW and RPA                |
|     calculations (for HF NCORE is supported but not extensively tested      |
|     yet).                                                                   |
|                                                                             |
 -----------------------------------------------------------------------------

 LDA part: xc-table for (Slater+PW92), standard interpolation
 -----------------------------------------------------------------------------
|                                                                             |
|           W    W    AA    RRRRR   N    N  II  N    N   GGGG   !!!           |
|           W    W   A  A   R    R  NN   N  II  NN   N  G    G  !!!           |
|           W    W  A    A  R    R  N N  N  II  N N  N  G       !!!           |
|           W WW W  AAAAAA  RRRRR   N  N N  II  N  N N  G  GGG   !            |
|           WW  WW  A    A  R   R   N   NN  II  N   NN  G    G                |
|           W    W  A    A  R    R  N    N  II  N    N   GGGG   !!!           |
|                                                                             |
|     The initial velocities result in a center-of-mass drift but there       |
|     must be no drift. The drift will be removed!                            |
|                                                                             |
 -----------------------------------------------------------------------------

 POSCAR, INCAR and KPOINTS ok, starting setup
 FFT: planning ... GRIDC
 FFT: planning ... GRID_SOFT
 FFT: planning ... GRID
 WAVECAR not read
 prediction of wavefunctions initialized - no I/O
 entering main loop
       N       E                     dE             d eps       ncg     rms          rms(c)
DAV:   1    -0.835428590973E+01   -0.83543E+01   -0.10884E+04   120   0.413E+02
DAV:   2    -0.946249268350E+02   -0.86271E+02   -0.70295E+02   168   0.572E+01
DAV:   3    -0.102626767511E+03   -0.80018E+01   -0.76801E+01   156   0.149E+01
DAV:   4    -0.102842442006E+03   -0.21567E+00   -0.21524E+00   144   0.313E+00
DAV:   5    -0.102846345514E+03   -0.39035E-02   -0.39032E-02   156   0.464E-01    0.238E+00
RMM:   6    -0.102157067371E+03    0.68928E+00   -0.54892E-01   120   0.819E-01    0.109E+00
RMM:   7    -0.102061367964E+03    0.95699E-01   -0.27040E-01   120   0.690E-01    0.465E-01
RMM:   8    -0.102048742883E+03    0.12625E-01   -0.30091E-02   120   0.351E-01    0.157E-01
RMM:   9    -0.102048443871E+03    0.29901E-03   -0.73892E-03   120   0.178E-01    0.443E-02
RMM:  10    -0.102048446858E+03   -0.29877E-05   -0.14796E-03   120   0.976E-02    0.121E-02
RMM:  11    -0.102048476293E+03   -0.29435E-04   -0.45027E-04   119   0.575E-02
      1 T=   622. E= -.89566321E+02 F= -.10204848E+03 E0= -.10205109E+03  EK= 0.42612E+01 SP= 0.82E+01 SK= 0.00E+00
 bond charge predicted
       N       E                     dE             d eps       ncg     rms          rms(c)
DAV:   1    -0.102073108382E+03   -0.24662E-01   -0.10955E+00   144   0.236E+00    0.206E-01
RMM:   2    -0.102070799070E+03    0.23093E-02   -0.37004E-02   120   0.461E-01    0.806E-02
RMM:   3    -0.102070735098E+03    0.63972E-04   -0.78896E-03   120   0.253E-01    0.315E-02
RMM:   4    -0.102070802124E+03   -0.67026E-04   -0.17477E-03   120   0.113E-01    0.882E-03
RMM:   5    -0.102070855767E+03   -0.53643E-04   -0.57955E-04   120   0.725E-02
      2 T=   625. E= -.89566962E+02 F= -.10207086E+03 E0= -.10207352E+03  EK= 0.42807E+01 SP= 0.82E+01 SK= 0.88E-04
 bond charge predicted
 prediction of wavefunctions
       N       E                     dE             d eps       ncg     rms          rms(c)
DAV:   1    -0.102086418854E+03   -0.15617E-01   -0.23667E-02   168   0.447E-01    0.253E-02
RMM:   2    -0.102086847036E+03   -0.42818E-03   -0.49802E-03   120   0.181E-01    0.121E-02
RMM:   3    -0.102086924962E+03   -0.77926E-04   -0.79952E-04   120   0.867E-02
      3 T=   626. E= -.89567720E+02 F= -.10208692E+03 E0= -.10208970E+03  EK= 0.42892E+01 SP= 0.82E+01 SK= 0.38E-03
 bond charge predicted
 prediction of wavefunctions
       N       E                     dE             d eps       ncg     rms          rms(c)
DAV:   1    -0.102094383857E+03   -0.75368E-02   -0.75706E-03   168   0.245E-01    0.112E-02
RMM:   2    -0.102094597045E+03   -0.21319E-03   -0.21913E-03   120   0.127E-01    0.792E-03
RMM:   3    -0.102094640502E+03   -0.43457E-04   -0.41653E-04   113   0.625E-02
      4 T=   625. E= -.89567891E+02 F= -.10209464E+03 E0= -.10209762E+03  EK= 0.42851E+01 SP= 0.82E+01 SK= 0.89E-03
Information: wavefunction orthogonal band   60  0.7047
 bond charge predicted
 prediction of wavefunctions
       N       E                     dE             d eps       ncg     rms          rms(c)
DAV:   1    -0.102092546651E+03    0.20504E-02   -0.82310E-03   204   0.242E-01    0.111E-02
RMM:   2    -0.102092721190E+03   -0.17454E-03   -0.17775E-03   120   0.106E-01    0.768E-03
RMM:   3    -0.102092742788E+03   -0.21598E-04   -0.21748E-04    93   0.407E-02
      5 T=   623. E= -.89567451E+02 F= -.10209274E+03 E0= -.10209605E+03  EK= 0.42674E+01 SP= 0.83E+01 SK= 0.16E-02
 bond charge predicted
 prediction of wavefunctions
       N       E                     dE             d eps       ncg     rms          rms(c)
DAV:   1    -0.102080960663E+03    0.11761E-01   -0.77772E-03   180   0.228E-01    0.881E-03
RMM:   2    -0.102081073763E+03   -0.11310E-03   -0.11450E-03   120   0.949E-02    0.600E-03
RMM:   3    -0.102081093112E+03   -0.19349E-04   -0.18438E-04    79   0.409E-02
      6 T=   618. E= -.89566894E+02 F= -.10208109E+03 E0= -.10208498E+03  EK= 0.42359E+01 SP= 0.83E+01 SK= 0.23E-02
 bond charge predicted
 prediction of wavefunctions
       N       E                     dE             d eps       ncg     rms          rms(c)
DAV:   1    -0.102061095700E+03    0.19978E-01   -0.72278E-03   180   0.225E-01    0.661E-03
RMM:   2    -0.102061188593E+03   -0.92893E-04   -0.94258E-04   120   0.903E-02
      7 T=   612. E= -.89566441E+02 F= -.10206119E+03 E0= -.10206604E+03  EK= 0.41928E+01 SP= 0.83E+01 SK= 0.29E-02
 bond charge predicted
 prediction of wavefunctions
       N       E                     dE             d eps       ncg     rms          rms(c)
DAV:   1    -0.102035250889E+03    0.25845E-01   -0.72455E-03   204   0.249E-01    0.979E-03
RMM:   2    -0.102035414396E+03   -0.16351E-03   -0.16765E-03   120   0.121E-01    0.753E-03
RMM:   3    -0.102035434102E+03   -0.19706E-04   -0.19181E-04    71   0.415E-02
      8 T=   605. E= -.89566013E+02 F= -.10203543E+03 E0= -.10204182E+03  EK= 0.41419E+01 SP= 0.83E+01 SK= 0.33E-02
 bond charge predicted
 prediction of wavefunctions
       N       E                     dE             d eps       ncg     rms          rms(c)
DAV:   1    -0.102006862855E+03    0.28552E-01   -0.68712E-03   168   0.218E-01    0.128E-02
RMM:   2    -0.102006917890E+03   -0.55035E-04   -0.65776E-04   120   0.764E-02
      9 T=   597. E= -.89565239E+02 F= -.10200692E+03 E0= -.10201516E+03  EK= 0.40879E+01 SP= 0.84E+01 SK= 0.34E-02
 bond charge predicted
 prediction of wavefunctions
       N       E                     dE             d eps       ncg     rms          rms(c)
DAV:   1    -0.101979856605E+03    0.27006E-01   -0.82868E-03   156   0.254E-01    0.260E-02
RMM:   2    -0.101980001218E+03   -0.14461E-03   -0.20557E-03   120   0.128E-01    0.131E-02
RMM:   3    -0.101980010333E+03   -0.91156E-05   -0.21261E-04    83   0.430E-02
     10 T=   589. E= -.89564410E+02 F= -.10198001E+03 E0= -.10198957E+03  EK= 0.40362E+01 SP= 0.84E+01 SK= 0.32E-02
 bond charge predicted
 prediction of wavefunctions
       N       E                     dE             d eps       ncg     rms          rms(c)
DAV:   1    -0.101958838673E+03    0.21163E-01   -0.75119E-03   120   0.199E-01    0.141E-02
RMM:   2    -0.101958886737E+03   -0.48063E-04   -0.59655E-04   120   0.682E-02
     11 T=   583. E= -.89563638E+02 F= -.10195889E+03 E0= -.10196929E+03  EK= 0.39921E+01 SP= 0.84E+01 SK= 0.26E-02
 bond charge predicted
 prediction of wavefunctions
       N       E                     dE             d eps       ncg     rms          rms(c)
DAV:   1    -0.101946948255E+03    0.11890E-01   -0.86338E-03   192   0.238E-01    0.174E-02
RMM:   2    -0.101947105512E+03   -0.15726E-03   -0.17219E-03   120   0.118E-01    0.999E-03
RMM:   3    -0.101947123478E+03   -0.17966E-04   -0.19245E-04    77   0.413E-02
     12 T=   578. E= -.89563066E+02 F= -.10194712E+03 E0= -.10195821E+03  EK= 0.39600E+01 SP= 0.84E+01 SK= 0.20E-02
 bond charge predicted
 prediction of wavefunctions
       N       E                     dE             d eps       ncg     rms          rms(c)
DAV:   1    -0.101946699545E+03    0.40597E-03   -0.62770E-03   168   0.200E-01    0.902E-03
RMM:   2    -0.101946769619E+03   -0.70074E-04   -0.75986E-04   120   0.799E-02
     13 T=   576. E= -.89562633E+02 F= -.10194677E+03 E0= -.10195840E+03  EK= 0.39427E+01 SP= 0.84E+01 SK= 0.13E-02
 bond charge predicted
 prediction of wavefunctions
       N       E                     dE             d eps       ncg     rms          rms(c)
DAV:   1    -0.101957960895E+03   -0.11261E-01   -0.65665E-03   168   0.237E-01    0.125E-02
RMM:   2    -0.101958123563E+03   -0.16267E-03   -0.17235E-03   120   0.121E-01    0.804E-03
RMM:   3    -0.101958142653E+03   -0.19090E-04   -0.19691E-04    77   0.423E-02
     14 T=   575. E= -.89562520E+02 F= -.10195814E+03 E0= -.10197007E+03  EK= 0.39406E+01 SP= 0.85E+01 SK= 0.73E-03
 bond charge predicted
 prediction of wavefunctions
       N       E                     dE             d eps       ncg     rms          rms(c)
DAV:   1    -0.101978876036E+03   -0.20752E-01   -0.42991E-03   168   0.198E-01    0.620E-03
RMM:   2    -0.101978936173E+03   -0.60137E-04   -0.62450E-04   120   0.732E-02
     15 T=   577. E= -.89562384E+02 F= -.10197894E+03 E0= -.10199070E+03  EK= 0.39517E+01 SP= 0.85E+01 SK= 0.34E-03
 bond charge predicted
 prediction of wavefunctions
       N       E                     dE             d eps       ncg     rms          rms(c)
DAV:   1    -0.102005678005E+03   -0.26802E-01   -0.48541E-03   228   0.236E-01    0.114E-02
RMM:   2    -0.102005835750E+03   -0.15775E-03   -0.16618E-03   120   0.120E-01    0.802E-03
RMM:   3    -0.102005847767E+03   -0.12017E-04   -0.13425E-04    67   0.352E-02
     16 T=   580. E= -.89562536E+02 F= -.10200585E+03 E0= -.10201692E+03  EK= 0.39722E+01 SP= 0.85E+01 SK= 0.11E-03
 bond charge predicted
 prediction of wavefunctions
       N       E                     dE             d eps       ncg     rms          rms(c)
DAV:   1    -0.102033834710E+03   -0.27999E-01   -0.41097E-03   204   0.205E-01    0.938E-03
RMM:   2    -0.102033944250E+03   -0.10954E-03   -0.11611E-03   120   0.801E-02    0.641E-03
RMM:   3    -0.102033963909E+03   -0.19659E-04   -0.22100E-04    84   0.379E-02
     17 T=   583. E= -.89562677E+02 F= -.10203396E+03 E0= -.10204403E+03  EK= 0.39970E+01 SP= 0.85E+01 SK= 0.17E-04
Information: wavefunction orthogonal band   60  0.6914
 bond charge predicted
 prediction of wavefunctions
       N       E                     dE             d eps       ncg     rms          rms(c)
DAV:   1    -0.102058748668E+03   -0.24804E-01   -0.52087E-03   156   0.210E-01    0.112E-02
RMM:   2    -0.102058851387E+03   -0.10272E-03   -0.11020E-03   120   0.939E-02    0.682E-03
RMM:   3    -0.102058865322E+03   -0.13936E-04   -0.14643E-04    76   0.356E-02
     18 T=   587. E= -.89562861E+02 F= -.10205887E+03 E0= -.10206804E+03  EK= 0.40210E+01 SP= 0.85E+01 SK= 0.86E-06
 bond charge predicted
 prediction of wavefunctions
       N       E                     dE             d eps       ncg     rms          rms(c)
DAV:   1    -0.102076041243E+03   -0.17190E-01   -0.53977E-03   180   0.207E-01    0.537E-03
RMM:   2    -0.102076137082E+03   -0.95838E-04   -0.96982E-04   120   0.893E-02
     19 T=   590. E= -.89562652E+02 F= -.10207614E+03 E0= -.10208462E+03  EK= 0.40397E+01 SP= 0.85E+01 SK= 0.23E-04
 bond charge predicted
 prediction of wavefunctions
       N       E                     dE             d eps       ncg     rms          rms(c)
DAV:   1    -0.102082471815E+03   -0.64306E-02   -0.56426E-03   192   0.229E-01    0.969E-03
RMM:   2    -0.102082626209E+03   -0.15439E-03   -0.15761E-03   120   0.115E-01    0.745E-03
RMM:   3    -0.102082648552E+03   -0.22343E-04   -0.21396E-04    78   0.433E-02
     20 T=   591. E= -.89562400E+02 F= -.10208265E+03 E0= -.10209063E+03  EK= 0.40493E+01 SP= 0.85E+01 SK= 0.61E-04
 bond charge predicted
 prediction of wavefunctions
       N       E                     dE             d eps       ncg     rms          rms(c)
DAV:   1    -0.102076038585E+03    0.65876E-02   -0.53970E-03   180   0.200E-01    0.577E-03
RMM:   2    -0.102076096113E+03   -0.57528E-04   -0.58899E-04   120   0.728E-02
     21 T=   591. E= -.89561899E+02 F= -.10207610E+03 E0= -.10208371E+03  EK= 0.40473E+01 SP= 0.85E+01 SK= 0.11E-03
 bond charge predicted
 prediction of wavefunctions
       N       E                     dE             d eps       ncg     rms          rms(c)
DAV:   1    -0.102056133172E+03    0.19905E-01   -0.59652E-03   168   0.236E-01    0.954E-03
RMM:   2    -0.102056295416E+03   -0.16224E-03   -0.16492E-03   120   0.117E-01    0.661E-03
RMM:   3    -0.102056310435E+03   -0.15019E-04   -0.13386E-04    66   0.350E-02
     22 T=   589. E= -.89561517E+02 F= -.10205631E+03 E0= -.10206367E+03  EK= 0.40334E+01 SP= 0.85E+01 SK= 0.19E-03
 bond charge predicted
 prediction of wavefunctions
       N       E                     dE             d eps       ncg     rms          rms(c)
DAV:   1    -0.102024245530E+03    0.32050E-01   -0.50773E-03   156   0.191E-01    0.563E-03
RMM:   2    -0.102024285970E+03   -0.40439E-04   -0.42137E-04   119   0.587E-02
     23 T=   585. E= -.89561159E+02 F= -.10202429E+03 E0= -.10203147E+03  EK= 0.40088E+01 SP= 0.85E+01 SK= 0.33E-03
 bond charge predicted
 prediction of wavefunctions
       N       E                     dE             d eps       ncg     rms          rms(c)
DAV:   1    -0.101982314594E+03    0.41931E-01   -0.55128E-03   144   0.231E-01    0.757E-03
RMM:   2    -0.101982461544E+03   -0.14695E-03   -0.14935E-03   120   0.112E-01    0.513E-03
RMM:   3    -0.101982479960E+03   -0.18416E-04   -0.17403E-04    71   0.392E-02
     24 T=   580. E= -.89560504E+02 F= -.10198248E+03 E0= -.10198951E+03  EK= 0.39769E+01 SP= 0.84E+01 SK= 0.58E-03
 bond charge predicted
 prediction of wavefunctions
       N       E                     dE             d eps       ncg     rms          rms(c)
DAV:   1    -0.101934694124E+03    0.47767E-01   -0.46080E-03   168   0.200E-01    0.597E-03
RMM:   2    -0.101934756427E+03   -0.62303E-04   -0.63237E-04   120   0.735E-02
     25 T=   575. E= -.89559990E+02 F= -.10193476E+03 E0= -.10194160E+03  EK= 0.39419E+01 SP= 0.84E+01 SK= 0.10E-02
 bond charge predicted
 prediction of wavefunctions
       N       E                     dE             d eps       ncg     rms          rms(c)
DAV:   1    -0.101884187336E+03    0.50507E-01   -0.50785E-03   192   0.239E-01    0.948E-03
RMM:   2    -0.101884355505E+03   -0.16817E-03   -0.17202E-03   120   0.120E-01    0.667E-03
RMM:   3    -0.101884379488E+03   -0.23983E-04   -0.23244E-04    79   0.454E-02
     26 T=   570. E= -.89559570E+02 F= -.10188438E+03 E0= -.10189098E+03  EK= 0.39078E+01 SP= 0.84E+01 SK= 0.17E-02
 bond charge predicted
 prediction of wavefunctions
       N       E                     dE             d eps       ncg     rms          rms(c)
DAV:   1    -0.101834577629E+03    0.49778E-01   -0.40214E-03   144   0.205E-01    0.536E-03
RMM:   2    -0.101834636447E+03   -0.58818E-04   -0.60088E-04   120   0.744E-02
     27 T=   566. E= -.89558901E+02 F= -.10183464E+03 E0= -.10184089E+03  EK= 0.38790E+01 SP= 0.84E+01 SK= 0.28E-02
 bond charge predicted
 prediction of wavefunctions
       N       E                     dE             d eps       ncg     rms          rms(c)
DAV:   1    -0.101788842045E+03    0.45736E-01   -0.44071E-03   180   0.241E-01    0.960E-03
RMM:   2    -0.101788997886E+03   -0.15584E-03   -0.16078E-03   120   0.116E-01    0.597E-03
RMM:   3    -0.101789012888E+03   -0.15002E-04   -0.14290E-04    64   0.355E-02
     28 T=   563. E= -.89558280E+02 F= -.10178901E+03 E0= -.10179486E+03  EK= 0.38593E+01 SP= 0.84E+01 SK= 0.44E-02
 bond charge predicted
 prediction of wavefunctions
       N       E                     dE             d eps       ncg     rms          rms(c)
DAV:   1    -0.101750104808E+03    0.38893E-01   -0.34862E-03   156   0.205E-01    0.586E-03
RMM:   2    -0.101750156284E+03   -0.51477E-04   -0.53496E-04   120   0.682E-02
     29 T=   562. E= -.89557835E+02 F= -.10175016E+03 E0= -.10175564E+03  EK= 0.38517E+01 SP= 0.83E+01 SK= 0.64E-02
 bond charge predicted
 prediction of wavefunctions
       N       E                     dE             d eps       ncg     rms          rms(c)
DAV:   1    -0.101720252123E+03    0.29853E-01   -0.39208E-03   144   0.241E-01    0.985E-03
RMM:   2    -0.101720407456E+03   -0.15533E-03   -0.16183E-03   120   0.118E-01    0.599E-03
RMM:   3    -0.101720427306E+03   -0.19850E-04   -0.20086E-04    77   0.422E-02
     30 T=   563. E= -.89557455E+02 F= -.10172043E+03 E0= -.10172565E+03  EK= 0.38590E+01 SP= 0.83E+01 SK= 0.87E-02
 bond charge predicted
 prediction of wavefunctions
       N       E                     dE             d eps       ncg     rms          rms(c)
DAV:   1    -0.101701838251E+03    0.18569E-01   -0.33649E-03   156   0.212E-01    0.610E-03
RMM:   2    -0.101701908410E+03   -0.70158E-04   -0.72043E-04   120   0.792E-02
     31 T=   567. E= -.89556933E+02 F= -.10170191E+03 E0= -.10170704E+03  EK= 0.38834E+01 SP= 0.83E+01 SK= 0.11E-01
 bond charge predicted
 prediction of wavefunctions
       N       E                     dE             d eps       ncg     rms          rms(c)
DAV:   1    -0.101696191709E+03    0.56465E-02   -0.40784E-03   192   0.245E-01    0.115E-02
RMM:   2    -0.101696355738E+03   -0.16403E-03   -0.17320E-03   120   0.120E-01    0.725E-03
RMM:   3    -0.101696376375E+03   -0.20636E-04   -0.21191E-04    76   0.432E-02
     32 T=   573. E= -.89556403E+02 F= -.10169638E+03 E0= -.10170157E+03  EK= 0.39263E+01 SP= 0.82E+01 SK= 0.14E-01
 bond charge predicted
 prediction of wavefunctions
       N       E                     dE             d eps       ncg     rms          rms(c)
DAV:   1    -0.101704647428E+03   -0.82917E-02   -0.34101E-03   156   0.213E-01    0.697E-03
RMM:   2    -0.101704715312E+03   -0.67884E-04   -0.71030E-04   120   0.798E-02
     33 T=   582. E= -.89555995E+02 F= -.10170472E+03 E0= -.10171015E+03  EK= 0.39877E+01 SP= 0.81E+01 SK= 0.16E-01
 bond charge predicted
 prediction of wavefunctions
       N       E                     dE             d eps       ncg     rms          rms(c)
DAV:   1    -0.101726826670E+03   -0.22179E-01   -0.41616E-03   180   0.250E-01    0.134E-02
RMM:   2    -0.101726990197E+03   -0.16353E-03   -0.17811E-03   120   0.124E-01    0.743E-03
RMM:   3    -0.101727006770E+03   -0.16573E-04   -0.18406E-04    72   0.412E-02
     34 T=   594. E= -.89555661E+02 F= -.10172701E+03 E0= -.10173291E+03  EK= 0.40667E+01 SP= 0.81E+01 SK= 0.17E-01
 bond charge predicted
 prediction of wavefunctions
       N       E                     dE             d eps       ncg     rms          rms(c)
DAV:   1    -0.101762348403E+03   -0.35358E-01   -0.33331E-03   156   0.214E-01    0.902E-03
RMM:   2    -0.101762411838E+03   -0.63435E-04   -0.69229E-04   120   0.767E-02
     35 T=   607. E= -.89555420E+02 F= -.10176241E+03 E0= -.10176903E+03  EK= 0.41608E+01 SP= 0.80E+01 SK= 0.17E-01
 bond charge predicted
 prediction of wavefunctions
       N       E                     dE             d eps       ncg     rms          rms(c)
DAV:   1    -0.101809070311E+03   -0.46722E-01   -0.39532E-03   144   0.250E-01    0.141E-02
RMM:   2    -0.101809229609E+03   -0.15930E-03   -0.17587E-03   120   0.122E-01    0.779E-03
RMM:   3    -0.101809247639E+03   -0.18030E-04   -0.20650E-04    79   0.434E-02
     36 T=   623. E= -.89555196E+02 F= -.10180925E+03 E0= -.10181678E+03  EK= 0.42662E+01 SP= 0.80E+01 SK= 0.15E-01
 bond charge predicted
 prediction of wavefunctions
       N       E                     dE             d eps       ncg     rms          rms(c)
DAV:   1    -0.101865233463E+03   -0.56004E-01   -0.32569E-03   168   0.221E-01    0.107E-02
RMM:   2    -0.101865305945E+03   -0.72482E-04   -0.81334E-04   120   0.840E-02
     37 T=   639. E= -.89555017E+02 F= -.10186531E+03 E0= -.10187387E+03  EK= 0.43780E+01 SP= 0.79E+01 SK= 0.12E-01
 bond charge predicted
 prediction of wavefunctions
       N       E                     dE             d eps       ncg     rms          rms(c)
DAV:   1    -0.101927514554E+03   -0.62281E-01   -0.38622E-03   168   0.258E-01    0.134E-02
RMM:   2    -0.101927702402E+03   -0.18785E-03   -0.20223E-03   120   0.130E-01    0.736E-03
RMM:   3    -0.101927727056E+03   -0.24654E-04   -0.25650E-04    83   0.486E-02
     38 T=   655. E= -.89554804E+02 F= -.10192773E+03 E0= -.10193737E+03  EK= 0.44902E+01 SP= 0.79E+01 SK= 0.86E-02
 bond charge predicted
 prediction of wavefunctions
       N       E                     dE             d eps       ncg     rms          rms(c)
DAV:   1    -0.101993622741E+03   -0.65920E-01   -0.33264E-03   132   0.224E-01    0.106E-02
RMM:   2    -0.101993697904E+03   -0.75163E-04   -0.84128E-04   120   0.869E-02
     39 T=   671. E= -.89554697E+02 F= -.10199370E+03 E0= -.10200431E+03  EK= 0.45965E+01 SP= 0.78E+01 SK= 0.47E-02
 bond charge predicted
 prediction of wavefunctions
       N       E                     dE             d eps       ncg     rms          rms(c)
DAV:   1    -0.102059544475E+03   -0.65922E-01   -0.45722E-03   204   0.262E-01    0.127E-02
RMM:   2    -0.102059728774E+03   -0.18430E-03   -0.19641E-03   120   0.130E-01    0.734E-03
RMM:   3    -0.102059745714E+03   -0.16940E-04   -0.17524E-04    72   0.400E-02
     40 T=   685. E= -.89554484E+02 F= -.10205975E+03 E0= -.10207102E+03  EK= 0.46900E+01 SP= 0.78E+01 SK= 0.15E-02
 bond charge predicted
 prediction of wavefunctions
       N       E                     dE             d eps       ncg     rms          rms(c)
DAV:   1    -0.102122729309E+03   -0.63001E-01   -0.36347E-03   132   0.224E-01    0.955E-03
RMM:   2    -0.102122800853E+03   -0.71544E-04   -0.78360E-04   120   0.832E-02
     41 T=   695. E= -.89554226E+02 F= -.10212280E+03 E0= -.10213437E+03  EK= 0.47644E+01 SP= 0.78E+01 SK= 0.15E-04
 bond charge predicted
 prediction of wavefunctions
       N       E                     dE             d eps       ncg     rms          rms(c)
DAV:   1    -0.102179828623E+03   -0.57099E-01   -0.41995E-03   180   0.265E-01    0.130E-02
RMM:   2    -0.102180014593E+03   -0.18597E-03   -0.19765E-03   120   0.130E-01    0.790E-03
RMM:   3    -0.102180034350E+03   -0.19757E-04   -0.20789E-04    73   0.438E-02
     42 T=   703. E= -.89553827E+02 F= -.10218003E+03 E0= -.10219150E+03  EK= 0.48140E+01 SP= 0.78E+01 SK= 0.12E-02
 bond charge predicted
 prediction of wavefunctions
       N       E                     dE             d eps       ncg     rms          rms(c)
DAV:   1    -0.102229292322E+03   -0.49278E-01   -0.34100E-03   156   0.229E-01    0.828E-03
RMM:   2    -0.102229374674E+03   -0.82353E-04   -0.87087E-04   120   0.893E-02
     43 T=   706. E= -.89553461E+02 F= -.10222937E+03 E0= -.10224042E+03  EK= 0.48350E+01 SP= 0.78E+01 SK= 0.55E-02
 bond charge predicted
 prediction of wavefunctions
       N       E                     dE             d eps       ncg     rms          rms(c)
DAV:   1    -0.102268390017E+03   -0.39098E-01   -0.42176E-03   192   0.266E-01    0.129E-02
RMM:   2    -0.102268577416E+03   -0.18740E-03   -0.19848E-03   120   0.131E-01    0.772E-03
RMM:   3    -0.102268598628E+03   -0.21213E-04   -0.22140E-04    77   0.454E-02
     44 T=   704. E= -.89552926E+02 F= -.10226860E+03 E0= -.10227903E+03  EK= 0.48247E+01 SP= 0.79E+01 SK= 0.13E-01
 bond charge predicted
 prediction of wavefunctions
       N       E                     dE             d eps       ncg     rms          rms(c)
DAV:   1    -0.102296165876E+03   -0.27588E-01   -0.33870E-03   168   0.229E-01    0.857E-03
RMM:   2    -0.102296244239E+03   -0.78364E-04   -0.83905E-04   120   0.883E-02
     45 T=   698. E= -.89552212E+02 F= -.10229624E+03 E0= -.10230600E+03  EK= 0.47823E+01 SP= 0.79E+01 SK= 0.24E-01
 bond charge predicted
 prediction of wavefunctions
       N       E                     dE             d eps       ncg     rms          rms(c)
DAV:   1    -0.102311973175E+03   -0.15807E-01   -0.42233E-03   168   0.261E-01    0.130E-02
RMM:   2    -0.102312156114E+03   -0.18294E-03   -0.19463E-03   120   0.129E-01    0.796E-03
RMM:   3    -0.102312176084E+03   -0.19971E-04   -0.20955E-04    74   0.441E-02
     46 T=   687. E= -.89551522E+02 F= -.10231218E+03 E0= -.10232125E+03  EK= 0.47097E+01 SP= 0.80E+01 SK= 0.36E-01
 bond charge predicted
 prediction of wavefunctions
       N       E                     dE             d eps       ncg     rms          rms(c)
DAV:   1    -0.102316761372E+03   -0.46053E-02   -0.38385E-03   132   0.221E-01    0.882E-03
RMM:   2    -0.102316823371E+03   -0.61999E-04   -0.68017E-04   120   0.781E-02
     47 T=   673. E= -.89550647E+02 F= -.10231682E+03 E0= -.10232529E+03  EK= 0.46105E+01 SP= 0.81E+01 SK= 0.48E-01
 bond charge predicted
 prediction of wavefunctions
       N       E                     dE             d eps       ncg     rms          rms(c)
DAV:   1    -0.102311431752E+03    0.53296E-02   -0.46122E-03   168   0.251E-01    0.119E-02
RMM:   2    -0.102311598272E+03   -0.16652E-03   -0.17625E-03   120   0.122E-01    0.708E-03
RMM:   3    -0.102311618747E+03   -0.20475E-04   -0.20901E-04    74   0.437E-02
     48 T=   655. E= -.89549654E+02 F= -.10231162E+03 E0= -.10231960E+03  EK= 0.44901E+01 SP= 0.82E+01 SK= 0.60E-01
 bond charge predicted
 prediction of wavefunctions
       N       E                     dE             d eps       ncg     rms          rms(c)
DAV:   1    -0.102299024593E+03    0.12574E-01   -0.41953E-03   168   0.215E-01    0.944E-03
RMM:   2    -0.102299084525E+03   -0.59932E-04   -0.67141E-04   120   0.785E-02
     49 T=   636. E= -.89548768E+02 F= -.10229908E+03 E0= -.10230671E+03  EK= 0.43553E+01 SP= 0.83E+01 SK= 0.69E-01
 bond charge predicted
 prediction of wavefunctions
       N       E                     dE             d eps       ncg     rms          rms(c)
DAV:   1    -0.102282444206E+03    0.16580E-01   -0.52088E-03   144   0.242E-01    0.106E-02
RMM:   2    -0.102282597651E+03   -0.15345E-03   -0.16095E-03   120   0.116E-01    0.648E-03
RMM:   3    -0.102282617011E+03   -0.19360E-04   -0.19225E-04    73   0.421E-02
     50 T=   615. E= -.89547901E+02 F= -.10228262E+03 E0= -.10229001E+03  EK= 0.42138E+01 SP= 0.84E+01 SK= 0.74E-01
 bond charge predicted
 prediction of wavefunctions
       N       E                     dE             d eps       ncg     rms          rms(c)
DAV:   1    -0.102265724809E+03    0.16873E-01   -0.50300E-03   156   0.205E-01    0.809E-03
RMM:   2    -0.102265779702E+03   -0.54893E-04   -0.60174E-04   120   0.737E-02
     51 T=   595. E= -.89547258E+02 F= -.10226578E+03 E0= -.10227304E+03  EK= 0.40732E+01 SP= 0.86E+01 SK= 0.75E-01
 bond charge predicted
 prediction of wavefunctions
       N       E                     dE             d eps       ncg     rms          rms(c)
DAV:   1    -0.102251045744E+03    0.14679E-01   -0.58072E-03   156   0.232E-01    0.101E-02
RMM:   2    -0.102251185660E+03   -0.13992E-03   -0.14548E-03   120   0.110E-01    0.678E-03
RMM:   3    -0.102251201969E+03   -0.16309E-04   -0.16370E-04    66   0.383E-02
     52 T=   575. E= -.89546504E+02 F= -.10225120E+03 E0= -.10225841E+03  EK= 0.39398E+01 SP= 0.87E+01 SK= 0.73E-01
 bond charge predicted
 prediction of wavefunctions
       N       E                     dE             d eps       ncg     rms          rms(c)
DAV:   1    -0.102242394825E+03    0.87908E-02   -0.52265E-03   132   0.198E-01    0.686E-03
RMM:   2    -0.102242445087E+03   -0.50262E-04   -0.54035E-04   120   0.704E-02
     53 T=   558. E= -.89546156E+02 F= -.10224245E+03 E0= -.10224964E+03  EK= 0.38195E+01 SP= 0.88E+01 SK= 0.66E-01
 bond charge predicted
 prediction of wavefunctions
       N       E                     dE             d eps       ncg     rms          rms(c)
DAV:   1    -0.102241349469E+03    0.10454E-02   -0.55864E-03   168   0.224E-01    0.942E-03
RMM:   2    -0.102241477916E+03   -0.12845E-03   -0.13303E-03   120   0.105E-01    0.630E-03
RMM:   3    -0.102241494162E+03   -0.16246E-04   -0.16284E-04    63   0.380E-02
     54 T=   543. E= -.89545762E+02 F= -.10224149E+03 E0= -.10224872E+03  EK= 0.37166E+01 SP= 0.89E+01 SK= 0.57E-01
 bond charge predicted
 prediction of wavefunctions
       N       E                     dE             d eps       ncg     rms          rms(c)
DAV:   1    -0.102249921548E+03   -0.84436E-02   -0.47245E-03   144   0.193E-01    0.620E-03
RMM:   2    -0.102249972360E+03   -0.50811E-04   -0.53663E-04   120   0.704E-02
     55 T=   530. E= -.89545408E+02 F= -.10224997E+03 E0= -.10225723E+03  EK= 0.36342E+01 SP= 0.90E+01 SK= 0.46E-01
 bond charge predicted
 prediction of wavefunctions
       N       E                     dE             d eps       ncg     rms          rms(c)
DAV:   1    -0.102268208987E+03   -0.18287E-01   -0.49159E-03   144   0.218E-01    0.101E-02
RMM:   2    -0.102268326276E+03   -0.11729E-03   -0.12198E-03   120   0.102E-01    0.686E-03
RMM:   3    -0.102268341133E+03   -0.14857E-04   -0.15347E-04    61   0.369E-02
     56 T=   522. E= -.89545167E+02 F= -.10226834E+03 E0= -.10227565E+03  EK= 0.35734E+01 SP= 0.91E+01 SK= 0.35E-01
 bond charge predicted
 prediction of wavefunctions
       N       E                     dE             d eps       ncg     rms          rms(c)
DAV:   1    -0.102295799842E+03   -0.27474E-01   -0.41453E-03   144   0.191E-01    0.578E-03
RMM:   2    -0.102295851899E+03   -0.52057E-04   -0.54214E-04   120   0.710E-02
     57 T=   516. E= -.89545030E+02 F= -.10229585E+03 E0= -.10230324E+03  EK= 0.35341E+01 SP= 0.92E+01 SK= 0.25E-01
 bond charge predicted
 prediction of wavefunctions
       N       E                     dE             d eps       ncg     rms          rms(c)
DAV:   1    -0.102330728419E+03   -0.34929E-01   -0.45177E-03   168   0.215E-01    0.111E-02
RMM:   2    -0.102330840001E+03   -0.11158E-03   -0.11776E-03   120   0.994E-02    0.738E-03
RMM:   3    -0.102330854582E+03   -0.14582E-04   -0.15866E-04    63   0.375E-02
     58 T=   513. E= -.89544908E+02 F= -.10233085E+03 E0= -.10233834E+03  EK= 0.35149E+01 SP= 0.93E+01 SK= 0.16E-01
 bond charge predicted
 prediction of wavefunctions
       N       E                     dE             d eps       ncg     rms          rms(c)
DAV:   1    -0.102371302211E+03   -0.40462E-01   -0.39349E-03   120   0.193E-01    0.717E-03
RMM:   2    -0.102371351918E+03   -0.49707E-04   -0.52972E-04   120   0.697E-02
     59 T=   513. E= -.89544780E+02 F= -.10237135E+03 E0= -.10237896E+03  EK= 0.35138E+01 SP= 0.93E+01 SK= 0.85E-02
 bond charge predicted
 prediction of wavefunctions
       N       E                     dE             d eps       ncg     rms          rms(c)
DAV:   1    -0.102415123248E+03   -0.43821E-01   -0.42160E-03   168   0.216E-01    0.123E-02
RMM:   2    -0.102415226758E+03   -0.10351E-03   -0.11139E-03   120   0.981E-02    0.792E-03
RMM:   3    -0.102415239544E+03   -0.12786E-04   -0.14600E-04    62   0.362E-02
     60 T=   515. E= -.89544651E+02 F= -.10241524E+03 E0= -.10242301E+03  EK= 0.35284E+01 SP= 0.93E+01 SK= 0.36E-02
 bond charge predicted
 prediction of wavefunctions
       N       E                     dE             d eps       ncg     rms          rms(c)
DAV:   1    -0.102460067480E+03   -0.44841E-01   -0.36027E-03   144   0.198E-01    0.925E-03
RMM:   2    -0.102460121499E+03   -0.54019E-04   -0.58478E-04   120   0.735E-02
     61 T=   519. E= -.89544437E+02 F= -.10246012E+03 E0= -.10246810E+03  EK= 0.35562E+01 SP= 0.94E+01 SK= 0.85E-03
 bond charge predicted
 prediction of wavefunctions
       N       E                     dE             d eps       ncg     rms          rms(c)
DAV:   1    -0.102503902966E+03   -0.43835E-01   -0.41358E-03   144   0.222E-01    0.126E-02
RMM:   2    -0.102504016966E+03   -0.11400E-03   -0.12226E-03   120   0.101E-01    0.806E-03
RMM:   3    -0.102504031207E+03   -0.14242E-04   -0.16350E-04    65   0.380E-02
     62 T=   525. E= -.89544146E+02 F= -.10250403E+03 E0= -.10251223E+03  EK= 0.35946E+01 SP= 0.94E+01 SK= 0.35E-08
 bond charge predicted
 prediction of wavefunctions
       N       E                     dE             d eps       ncg     rms          rms(c)
DAV:   1    -0.102545461146E+03   -0.41444E-01   -0.37527E-03   132   0.202E-01    0.103E-02
RMM:   2    -0.102545514677E+03   -0.53531E-04   -0.59392E-04   120   0.724E-02
     63 T=   532. E= -.89543999E+02 F= -.10254551E+03 E0= -.10255394E+03  EK= 0.36415E+01 SP= 0.94E+01 SK= 0.71E-03
 bond charge predicted
 prediction of wavefunctions
       N       E                     dE             d eps       ncg     rms          rms(c)
DAV:   1    -0.102582554143E+03   -0.37093E-01   -0.45252E-03   168   0.226E-01    0.111E-02
RMM:   2    -0.102582671855E+03   -0.11771E-03   -0.12430E-03   120   0.102E-01    0.730E-03
RMM:   3    -0.102582686241E+03   -0.14386E-04   -0.15753E-04    62   0.370E-02
     64 T=   539. E= -.89543702E+02 F= -.10258269E+03 E0= -.10259135E+03  EK= 0.36946E+01 SP= 0.93E+01 SK= 0.26E-02
 bond charge predicted
 prediction of wavefunctions
       N       E                     dE             d eps       ncg     rms          rms(c)
DAV:   1    -0.102614679377E+03   -0.32008E-01   -0.42072E-03   132   0.208E-01    0.950E-03
RMM:   2    -0.102614735564E+03   -0.56187E-04   -0.61145E-04   120   0.742E-02
     65 T=   548. E= -.89543454E+02 F= -.10261474E+03 E0= -.10262361E+03  EK= 0.37518E+01 SP= 0.93E+01 SK= 0.51E-02
 bond charge predicted
 prediction of wavefunctions
       N       E                     dE             d eps       ncg     rms          rms(c)
DAV:   1    -0.102640599496E+03   -0.25920E-01   -0.47495E-03   192   0.232E-01    0.120E-02
RMM:   2    -0.102640721245E+03   -0.12175E-03   -0.12883E-03   120   0.105E-01    0.773E-03
RMM:   3    -0.102640736801E+03   -0.15556E-04   -0.17216E-04    66   0.393E-02
     66 T=   556. E= -.89543151E+02 F= -.10264074E+03 E0= -.10264976E+03  EK= 0.38115E+01 SP= 0.93E+01 SK= 0.80E-02
 bond charge predicted
 prediction of wavefunctions
       N       E                     dE             d eps       ncg     rms          rms(c)
DAV:   1    -0.102659836748E+03   -0.19116E-01   -0.42706E-03   156   0.212E-01    0.100E-02
RMM:   2    -0.102659892357E+03   -0.55609E-04   -0.61276E-04   120   0.733E-02
     67 T=   565. E= -.89542874E+02 F= -.10265989E+03 E0= -.10266899E+03  EK= 0.38715E+01 SP= 0.92E+01 SK= 0.11E-01
 bond charge predicted
 prediction of wavefunctions
       N       E                     dE             d eps       ncg     rms          rms(c)
DAV:   1    -0.102671251157E+03   -0.11414E-01   -0.49136E-03   180   0.235E-01    0.111E-02
RMM:   2    -0.102671374720E+03   -0.12356E-03   -0.13000E-03   120   0.107E-01    0.738E-03
RMM:   3    -0.102671386638E+03   -0.11918E-04   -0.13376E-04    65   0.350E-02
     68 T=   574. E= -.89542767E+02 F= -.10267139E+03 E0= -.10268049E+03  EK= 0.39299E+01 SP= 0.92E+01 SK= 0.13E-01
 bond charge predicted
 prediction of wavefunctions
       N       E                     dE             d eps       ncg     rms          rms(c)
DAV:   1    -0.102673937113E+03   -0.25624E-02   -0.42572E-03   132   0.212E-01    0.946E-03
RMM:   2    -0.102673993451E+03   -0.56337E-04   -0.61269E-04   120   0.734E-02
     69 T=   582. E= -.89542579E+02 F= -.10267399E+03 E0= -.10268304E+03  EK= 0.39842E+01 SP= 0.91E+01 SK= 0.15E-01
 bond charge predicted
 prediction of wavefunctions
       N       E                     dE             d eps       ncg     rms          rms(c)
DAV:   1    -0.102666739050E+03    0.71981E-02   -0.47246E-03   192   0.238E-01    0.119E-02
RMM:   2    -0.102666870380E+03   -0.13133E-03   -0.13856E-03   120   0.109E-01    0.751E-03
RMM:   3    -0.102666885822E+03   -0.15442E-04   -0.16781E-04    66   0.384E-02
     70 T=   589. E= -.89542315E+02 F= -.10266689E+03 E0= -.10267583E+03  EK= 0.40325E+01 SP= 0.91E+01 SK= 0.16E-01
 bond charge predicted
 prediction of wavefunctions
       N       E                     dE             d eps       ncg     rms          rms(c)
DAV:   1    -0.102649079009E+03    0.17791E-01   -0.41834E-03   180   0.213E-01    0.955E-03
RMM:   2    -0.102649140545E+03   -0.61537E-04   -0.66503E-04   120   0.777E-02
     71 T=   594. E= -.89542158E+02 F= -.10264914E+03 E0= -.10265797E+03  EK= 0.40723E+01 SP= 0.90E+01 SK= 0.17E-01
 bond charge predicted
 prediction of wavefunctions
       N       E                     dE             d eps       ncg     rms          rms(c)
DAV:   1    -0.102619688484E+03    0.29391E-01   -0.47377E-03   168   0.241E-01    0.127E-02
RMM:   2    -0.102619821363E+03   -0.13288E-03   -0.14059E-03   120   0.113E-01    0.819E-03
RMM:   3    -0.102619835574E+03   -0.14211E-04   -0.16073E-04    65   0.392E-02
     72 T=   599. E= -.89541833E+02 F= -.10261984E+03 E0= -.10262857E+03  EK= 0.41021E+01 SP= 0.90E+01 SK= 0.17E-01
 bond charge predicted
 prediction of wavefunctions
       N       E                     dE             d eps       ncg     rms          rms(c)
DAV:   1    -0.102579259607E+03    0.40562E-01   -0.39711E-03   156   0.213E-01    0.102E-02
RMM:   2    -0.102579324757E+03   -0.65150E-04   -0.70379E-04   120   0.802E-02
     73 T=   602. E= -.89541467E+02 F= -.10257932E+03 E0= -.10258801E+03  EK= 0.41211E+01 SP= 0.89E+01 SK= 0.17E-01
 bond charge predicted
 prediction of wavefunctions
       N       E                     dE             d eps       ncg     rms          rms(c)
DAV:   1    -0.102528076884E+03    0.51183E-01   -0.46380E-03   168   0.246E-01    0.129E-02
RMM:   2    -0.102528234350E+03   -0.15747E-03   -0.16598E-03   120   0.119E-01    0.798E-03
RMM:   3    -0.102528252388E+03   -0.18037E-04   -0.19164E-04    72   0.414E-02
     74 T=   603. E= -.89541140E+02 F= -.10252825E+03 E0= -.10253692E+03  EK= 0.41293E+01 SP= 0.88E+01 SK= 0.17E-01
 bond charge predicted
 prediction of wavefunctions
       N       E                     dE             d eps       ncg     rms          rms(c)
DAV:   1    -0.102467798444E+03    0.60436E-01   -0.40292E-03   132   0.212E-01    0.101E-02
RMM:   2    -0.102467866123E+03   -0.67679E-04   -0.73052E-04   120   0.821E-02
     75 T=   603. E= -.89540647E+02 F= -.10246787E+03 E0= -.10247659E+03  EK= 0.41277E+01 SP= 0.88E+01 SK= 0.16E-01
 bond charge predicted
 prediction of wavefunctions
       N       E                     dE             d eps       ncg     rms          rms(c)
DAV:   1    -0.102399773907E+03    0.68025E-01   -0.47888E-03   192   0.246E-01    0.129E-02
RMM:   2    -0.102399936205E+03   -0.16230E-03   -0.17008E-03   120   0.119E-01    0.860E-03
RMM:   3    -0.102399953981E+03   -0.17776E-04   -0.19157E-04    75   0.417E-02
     76 T=   601. E= -.89540257E+02 F= -.10239995E+03 E0= -.10240883E+03  EK= 0.41178E+01 SP= 0.87E+01 SK= 0.16E-01
 bond charge predicted
 prediction of wavefunctions
       N       E                     dE             d eps       ncg     rms          rms(c)
DAV:   1    -0.102325948415E+03    0.73988E-01   -0.45425E-03   180   0.211E-01    0.102E-02
RMM:   2    -0.102326032720E+03   -0.84305E-04   -0.90057E-04   120   0.845E-02
     77 T=   599. E= -.89539776E+02 F= -.10232603E+03 E0= -.10233519E+03  EK= 0.41015E+01 SP= 0.87E+01 SK= 0.16E-01
Information: wavefunction orthogonal band   60  0.8906
 bond charge predicted
 prediction of wavefunctions
       N       E                     dE             d eps       ncg     rms          rms(c)
DAV:   1    -0.102248052525E+03    0.77896E-01   -0.56950E-03   180   0.250E-01    0.137E-02
RMM:   2    -0.102248220794E+03   -0.16827E-03   -0.17822E-03   120   0.124E-01    0.849E-03
RMM:   3    -0.102248237192E+03   -0.16398E-04   -0.17694E-04    76   0.403E-02
     78 T=   596. E= -.89539280E+02 F= -.10224824E+03 E0= -.10225782E+03  EK= 0.40810E+01 SP= 0.86E+01 SK= 0.16E-01
 bond charge predicted
 prediction of wavefunctions
       N       E                     dE             d eps       ncg     rms          rms(c)
DAV:   1    -0.102168586917E+03    0.79634E-01   -0.57589E-03   204   0.212E-01    0.107E-02
RMM:   2    -0.102168666481E+03   -0.79563E-04   -0.86232E-04   120   0.842E-02
     79 T=   592. E= -.89538924E+02 F= -.10216867E+03 E0= -.10217882E+03  EK= 0.40589E+01 SP= 0.86E+01 SK= 0.17E-01
 bond charge predicted
 prediction of wavefunctions
       N       E                     dE             d eps       ncg     rms          rms(c)
DAV:   1    -0.102088523524E+03    0.80063E-01   -0.57913E-03   192   0.245E-01    0.123E-02
RMM:   2    -0.102088699354E+03   -0.17583E-03   -0.18315E-03   120   0.122E-01    0.787E-03
RMM:   3    -0.102088720299E+03   -0.20945E-04   -0.20838E-04    81   0.438E-02
     80 T=   589. E= -.89538528E+02 F= -.10208872E+03 E0= -.10209953E+03  EK= 0.40372E+01 SP= 0.85E+01 SK= 0.17E-01
 bond charge predicted
 prediction of wavefunctions
       N       E                     dE             d eps       ncg     rms          rms(c)
DAV:   1    -0.102009666919E+03    0.79032E-01   -0.42261E-03   192   0.208E-01    0.992E-03
RMM:   2    -0.102009732593E+03   -0.65675E-04   -0.71614E-04   120   0.805E-02
     81 T=   586. E= -.89537942E+02 F= -.10200973E+03 E0= -.10202114E+03  EK= 0.40180E+01 SP= 0.84E+01 SK= 0.18E-01
 bond charge predicted
 prediction of wavefunctions
       N       E                     dE             d eps       ncg     rms          rms(c)
DAV:   1    -0.101933324977E+03    0.76342E-01   -0.45745E-03   156   0.241E-01    0.113E-02
RMM:   2    -0.101933493529E+03   -0.16855E-03   -0.17413E-03   120   0.119E-01    0.741E-03
RMM:   3    -0.101933512303E+03   -0.18773E-04   -0.18670E-04    74   0.408E-02
     82 T=   584. E= -.89537354E+02 F= -.10193351E+03 E0= -.10194537E+03  EK= 0.40032E+01 SP= 0.84E+01 SK= 0.20E-01
 bond charge predicted
 prediction of wavefunctions
       N       E                     dE             d eps       ncg     rms          rms(c)
DAV:   1    -0.101862146797E+03    0.71347E-01   -0.39375E-03   168   0.204E-01    0.830E-03
RMM:   2    -0.101862206066E+03   -0.59269E-04   -0.63664E-04   120   0.753E-02
     83 T=   583. E= -.89537041E+02 F= -.10186221E+03 E0= -.10187426E+03  EK= 0.39954E+01 SP= 0.83E+01 SK= 0.22E-01
 bond charge predicted
 prediction of wavefunctions
       N       E                     dE             d eps       ncg     rms          rms(c)
DAV:   1    -0.101797910887E+03    0.64236E-01   -0.73148E-03   192   0.240E-01    0.114E-02
RMM:   2    -0.101798065173E+03   -0.15429E-03   -0.15999E-03   120   0.115E-01    0.749E-03
RMM:   3    -0.101798083360E+03   -0.18188E-04   -0.18605E-04    70   0.411E-02
     84 T=   583. E= -.89536741E+02 F= -.10179808E+03 E0= -.10181004E+03  EK= 0.39972E+01 SP= 0.82E+01 SK= 0.23E-01
 bond charge predicted
 prediction of wavefunctions
       N       E                     dE             d eps       ncg     rms          rms(c)
DAV:   1    -0.101743373752E+03    0.54691E-01   -0.58322E-03   180   0.208E-01    0.669E-03
RMM:   2    -0.101743439365E+03   -0.65614E-04   -0.68430E-04   120   0.759E-02
     85 T=   585. E= -.89536359E+02 F= -.10174344E+03 E0= -.10175488E+03  EK= 0.40111E+01 SP= 0.82E+01 SK= 0.25E-01
 bond charge predicted
 prediction of wavefunctions
       N       E                     dE             d eps       ncg     rms          rms(c)
DAV:   1    -0.101700295062E+03    0.43079E-01   -0.64113E-03   144   0.242E-01    0.112E-02
RMM:   2    -0.101700455274E+03   -0.16021E-03   -0.16464E-03   120   0.114E-01    0.749E-03
RMM:   3    -0.101700474613E+03   -0.19340E-04   -0.19186E-04    76   0.408E-02
     86 T=   590. E= -.89535870E+02 F= -.10170047E+03 E0= -.10171102E+03  EK= 0.40395E+01 SP= 0.81E+01 SK= 0.26E-01
 bond charge predicted
 prediction of wavefunctions
       N       E                     dE             d eps       ncg     rms          rms(c)
DAV:   1    -0.101671159998E+03    0.29295E-01   -0.56337E-03   180   0.212E-01    0.822E-03
RMM:   2    -0.101671228070E+03   -0.68072E-04   -0.73117E-04   120   0.779E-02
     87 T=   596. E= -.89535534E+02 F= -.10167123E+03 E0= -.10168074E+03  EK= 0.40835E+01 SP= 0.80E+01 SK= 0.27E-01
 bond charge predicted
 prediction of wavefunctions
       N       E                     dE             d eps       ncg     rms          rms(c)
DAV:   1    -0.101655877863E+03    0.15282E-01   -0.56407E-03   192   0.250E-01    0.143E-02
RMM:   2    -0.101656042129E+03   -0.16427E-03   -0.17755E-03   120   0.121E-01    0.883E-03
RMM:   3    -0.101656058526E+03   -0.16397E-04   -0.18056E-04    74   0.401E-02
     88 T=   605. E= -.89535300E+02 F= -.10165606E+03 E0= -.10166477E+03  EK= 0.41428E+01 SP= 0.80E+01 SK= 0.27E-01
 bond charge predicted
 prediction of wavefunctions
       N       E                     dE             d eps       ncg     rms          rms(c)
DAV:   1    -0.101653397360E+03    0.26448E-02   -0.45619E-03   132   0.217E-01    0.643E-03
RMM:   2    -0.101653474112E+03   -0.76751E-04   -0.79219E-04   120   0.788E-02
     89 T=   615. E= -.89535119E+02 F= -.10165347E+03 E0= -.10166165E+03  EK= 0.42149E+01 SP= 0.79E+01 SK= 0.26E-01
 bond charge predicted
 prediction of wavefunctions
       N       E                     dE             d eps       ncg     rms          rms(c)
DAV:   1    -0.101660735071E+03   -0.73377E-02   -0.57130E-03   204   0.254E-01    0.136E-02
RMM:   2    -0.101660910437E+03   -0.17537E-03   -0.18445E-03   120   0.123E-01    0.929E-03
RMM:   3    -0.101660925239E+03   -0.14803E-04   -0.16268E-04    69   0.381E-02
     90 T=   627. E= -.89535160E+02 F= -.10166093E+03 E0= -.10166873E+03  EK= 0.42952E+01 SP= 0.78E+01 SK= 0.23E-01
 bond charge predicted
 prediction of wavefunctions
       N       E                     dE             d eps       ncg     rms          rms(c)
DAV:   1    -0.101674278391E+03   -0.13368E-01   -0.44356E-03   180   0.227E-01    0.772E-03
RMM:   2    -0.101674365005E+03   -0.86614E-04   -0.90988E-04   120   0.846E-02
     91 T=   639. E= -.89535153E+02 F= -.10167437E+03 E0= -.10168193E+03  EK= 0.43779E+01 SP= 0.77E+01 SK= 0.19E-01
 bond charge predicted
 prediction of wavefunctions
       N       E                     dE             d eps       ncg     rms          rms(c)
DAV:   1    -0.101688953686E+03   -0.14675E-01   -0.52155E-03   204   0.269E-01    0.149E-02
RMM:   2    -0.101689167282E+03   -0.21360E-03   -0.22610E-03   120   0.135E-01    0.952E-03
RMM:   3    -0.101689188475E+03   -0.21193E-04   -0.22456E-04    81   0.447E-02
     92 T=   650. E= -.89535165E+02 F= -.10168919E+03 E0= -.10169662E+03  EK= 0.44559E+01 SP= 0.77E+01 SK= 0.15E-01
 bond charge predicted
 prediction of wavefunctions
       N       E                     dE             d eps       ncg     rms          rms(c)
DAV:   1    -0.101700752556E+03   -0.11585E-01   -0.43451E-03   180   0.235E-01    0.102E-02
RMM:   2    -0.101700862156E+03   -0.10960E-03   -0.11640E-03   120   0.917E-02    0.769E-03
RMM:   3    -0.101700879706E+03   -0.17551E-04   -0.21016E-04    86   0.395E-02
     93 T=   660. E= -.89535231E+02 F= -.10170088E+03 E0= -.10170822E+03  EK= 0.45222E+01 SP= 0.76E+01 SK= 0.10E-01
 bond charge predicted
 prediction of wavefunctions
       N       E                     dE             d eps       ncg     rms          rms(c)
DAV:   1    -0.101706053424E+03   -0.51913E-02   -0.52666E-03   192   0.243E-01    0.938E-03
RMM:   2    -0.101706174277E+03   -0.12085E-03   -0.12546E-03   120   0.104E-01    0.556E-03
RMM:   3    -0.101706190785E+03   -0.16507E-04   -0.16661E-04    69   0.385E-02
     94 T=   667. E= -.89535271E+02 F= -.10170619E+03 E0= -.10171343E+03  EK= 0.45714E+01 SP= 0.76E+01 SK= 0.57E-02
 bond charge predicted
 prediction of wavefunctions
       N       E                     dE             d eps       ncg     rms          rms(c)
DAV:   1    -0.101702791314E+03    0.33830E-02   -0.37728E-03   156   0.242E-01    0.794E-03
RMM:   2    -0.101702902061E+03   -0.11075E-03   -0.11358E-03   120   0.102E-01    0.539E-03
RMM:   3    -0.101702914371E+03   -0.12310E-04   -0.12404E-04    72   0.320E-02
     95 T=   671. E= -.89535069E+02 F= -.10170291E+03 E0= -.10171007E+03  EK= 0.45996E+01 SP= 0.76E+01 SK= 0.24E-02
 bond charge predicted
 prediction of wavefunctions
       N       E                     dE             d eps       ncg     rms          rms(c)
DAV:   1    -0.101690526293E+03    0.12376E-01   -0.37110E-03   180   0.242E-01    0.674E-03
RMM:   2    -0.101690632389E+03   -0.10610E-03   -0.10728E-03   120   0.985E-02    0.465E-03
RMM:   3    -0.101690645130E+03   -0.12741E-04   -0.12283E-04    70   0.321E-02
     96 T=   672. E= -.89534826E+02 F= -.10169065E+03 E0= -.10169775E+03  EK= 0.46052E+01 SP= 0.76E+01 SK= 0.44E-03
 bond charge predicted
 prediction of wavefunctions
       N       E                     dE             d eps       ncg     rms          rms(c)
DAV:   1    -0.101670270697E+03    0.20362E-01   -0.39902E-03   216   0.242E-01    0.677E-03
RMM:   2    -0.101670374048E+03   -0.10335E-03   -0.10388E-03   120   0.101E-01    0.499E-03
RMM:   3    -0.101670385389E+03   -0.11341E-04   -0.11081E-04    65   0.319E-02
     97 T=   670. E= -.89534596E+02 F= -.10167039E+03 E0= -.10167748E+03  EK= 0.45889E+01 SP= 0.75E+01 SK= 0.41E-04
 bond charge predicted
 prediction of wavefunctions
       N       E                     dE             d eps       ncg     rms          rms(c)
DAV:   1    -0.101643755911E+03    0.26618E-01   -0.40240E-03   192   0.242E-01    0.675E-03
RMM:   2    -0.101643862744E+03   -0.10683E-03   -0.10725E-03   120   0.102E-01    0.502E-03
RMM:   3    -0.101643874521E+03   -0.11777E-04   -0.11191E-04    65   0.318E-02
     98 T=   665. E= -.89534123E+02 F= -.10164387E+03 E0= -.10165102E+03  EK= 0.45532E+01 SP= 0.76E+01 SK= 0.10E-02
 bond charge predicted
 prediction of wavefunctions
       N       E                     dE             d eps       ncg     rms          rms(c)
DAV:   1    -0.101613325913E+03    0.30537E-01   -0.40208E-03   168   0.239E-01    0.593E-03
RMM:   2    -0.101613427662E+03   -0.10175E-03   -0.10194E-03   120   0.999E-02    0.440E-03
RMM:   3    -0.101613438867E+03   -0.11206E-04   -0.10666E-04    64   0.313E-02
     99 T=   657. E= -.89533503E+02 F= -.10161344E+03 E0= -.10162069E+03  EK= 0.45014E+01 SP= 0.76E+01 SK= 0.31E-02
 bond charge predicted
 prediction of wavefunctions
       N       E                     dE             d eps       ncg     rms          rms(c)
DAV:   1    -0.101581774372E+03    0.31653E-01   -0.43809E-03   192   0.236E-01    0.631E-03
RMM:   2    -0.101581884093E+03   -0.10972E-03   -0.10972E-03   120   0.100E-01    0.482E-03
RMM:   3    -0.101581897162E+03   -0.13068E-04   -0.12506E-04    64   0.326E-02
    100 T=   648. E= -.89532860E+02 F= -.10158190E+03 E0= -.10158931E+03  EK= 0.44382E+01 SP= 0.76E+01 SK= 0.58E-02
 bond charge predicted
 prediction of wavefunctions
       N       E                     dE             d eps       ncg     rms          rms(c)
DAV:   1    -0.101552324812E+03    0.29559E-01   -0.47419E-03   192   0.233E-01    0.650E-03
RMM:   2    -0.101552428135E+03   -0.10332E-03   -0.10367E-03   120   0.101E-01    0.502E-03
RMM:   3    -0.101552439898E+03   -0.11764E-04   -0.11424E-04    65   0.326E-02
    101 T=   638. E= -.89532387E+02 F= -.10155244E+03 E0= -.10156003E+03  EK= 0.43684E+01 SP= 0.76E+01 SK= 0.86E-02
 bond charge predicted
 prediction of wavefunctions
       N       E                     dE             d eps       ncg     rms          rms(c)
DAV:   1    -0.101527896187E+03    0.24532E-01   -0.46978E-03   192   0.230E-01    0.512E-03
RMM:   2    -0.101527998687E+03   -0.10250E-03   -0.10231E-03   120   0.978E-02    0.392E-03
RMM:   3    -0.101528010692E+03   -0.12005E-04   -0.11302E-04    65   0.311E-02
    102 T=   627. E= -.89531922E+02 F= -.10152801E+03 E0= -.10153576E+03  EK= 0.42973E+01 SP= 0.77E+01 SK= 0.11E-01
 bond charge predicted
 prediction of wavefunctions
       N       E                     dE             d eps       ncg     rms          rms(c)
DAV:   1    -0.101511697945E+03    0.16301E-01   -0.50907E-03   216   0.224E-01    0.635E-03
RMM:   2    -0.101511791648E+03   -0.93704E-04   -0.93689E-04   120   0.946E-02
    103 T=   617. E= -.89531315E+02 F= -.10151179E+03 E0= -.10151962E+03  EK= 0.42303E+01 SP= 0.77E+01 SK= 0.13E-01
 bond charge predicted
 prediction of wavefunctions
       N       E                     dE             d eps       ncg     rms          rms(c)
DAV:   1    -0.101506499943E+03    0.51980E-02   -0.55680E-03   168   0.247E-01    0.861E-03
RMM:   2    -0.101506662385E+03   -0.16244E-03   -0.16314E-03   120   0.120E-01    0.694E-03
RMM:   3    -0.101506683528E+03   -0.21143E-04   -0.19755E-04    73   0.414E-02
    104 T=   609. E= -.89530677E+02 F= -.10150668E+03 E0= -.10151447E+03  EK= 0.41720E+01 SP= 0.78E+01 SK= 0.14E-01
 bond charge predicted
 prediction of wavefunctions
       N       E                     dE             d eps       ncg     rms          rms(c)
DAV:   1    -0.101515368062E+03   -0.87057E-02   -0.49149E-03   132   0.212E-01    0.496E-03
RMM:   2    -0.101515438718E+03   -0.70656E-04   -0.70955E-04   120   0.825E-02
    105 T=   602. E= -.89529921E+02 F= -.10151544E+03 E0= -.10152301E+03  EK= 0.41266E+01 SP= 0.78E+01 SK= 0.15E-01
 bond charge predicted
 prediction of wavefunctions
       N       E                     dE             d eps       ncg     rms          rms(c)
DAV:   1    -0.101539931072E+03   -0.24563E-01   -0.60810E-03   180   0.256E-01    0.875E-03
RMM:   2    -0.101540111596E+03   -0.18052E-03   -0.18198E-03   120   0.123E-01    0.598E-03
RMM:   3    -0.101540127638E+03   -0.16042E-04   -0.13821E-04    66   0.348E-02
    106 T=   598. E= -.89529168E+02 F= -.10154013E+03 E0= -.10154736E+03  EK= 0.40970E+01 SP= 0.79E+01 SK= 0.15E-01
 bond charge predicted
 prediction of wavefunctions
       N       E                     dE             d eps       ncg     rms          rms(c)
DAV:   1    -0.101582180083E+03   -0.42068E-01   -0.51133E-03   156   0.197E-01    0.580E-03
RMM:   2    -0.101582220083E+03   -0.40001E-04   -0.41745E-04   120   0.591E-02
    107 T=   596. E= -.89528689E+02 F= -.10158222E+03 E0= -.10158909E+03  EK= 0.40848E+01 SP= 0.80E+01 SK= 0.15E-01
 bond charge predicted
 prediction of wavefunctions
       N       E                     dE             d eps       ncg     rms          rms(c)
DAV:   1    -0.101642056489E+03   -0.59876E-01   -0.60285E-03   156   0.243E-01    0.680E-03
RMM:   2    -0.101642216341E+03   -0.15985E-03   -0.16130E-03   120   0.115E-01    0.460E-03
RMM:   3    -0.101642235299E+03   -0.18958E-04   -0.17319E-04    73   0.381E-02
    108 T=   597. E= -.89528256E+02 F= -.10164224E+03 E0= -.10164879E+03  EK= 0.40911E+01 SP= 0.80E+01 SK= 0.15E-01
 bond charge predicted
 prediction of wavefunctions
       N       E                     dE             d eps       ncg     rms          rms(c)
DAV:   1    -0.101719818437E+03   -0.77602E-01   -0.51137E-03   180   0.197E-01    0.518E-03
RMM:   2    -0.101719875416E+03   -0.56979E-04   -0.57705E-04   120   0.686E-02
    109 T=   601. E= -.89527816E+02 F= -.10171988E+03 E0= -.10172616E+03  EK= 0.41150E+01 SP= 0.81E+01 SK= 0.14E-01
 bond charge predicted
 prediction of wavefunctions
       N       E                     dE             d eps       ncg     rms          rms(c)
DAV:   1    -0.101813685545E+03   -0.93867E-01   -0.67499E-03   204   0.241E-01    0.738E-03
RMM:   2    -0.101813838452E+03   -0.15291E-03   -0.15405E-03   120   0.115E-01    0.573E-03
RMM:   3    -0.101813855702E+03   -0.17250E-04   -0.15810E-04    68   0.377E-02
    110 T=   606. E= -.89527583E+02 F= -.10181386E+03 E0= -.10181993E+03  EK= 0.41542E+01 SP= 0.81E+01 SK= 0.15E-01
 bond charge predicted
 prediction of wavefunctions
       N       E                     dE             d eps       ncg     rms          rms(c)
DAV:   1    -0.101921746971E+03   -0.10791E+00   -0.53227E-03   168   0.204E-01    0.494E-03
RMM:   2    -0.101921806914E+03   -0.59943E-04   -0.60812E-04   120   0.749E-02
    111 T=   614. E= -.89527493E+02 F= -.10192181E+03 E0= -.10192772E+03  EK= 0.42054E+01 SP= 0.82E+01 SK= 0.16E-01
 bond charge predicted
 prediction of wavefunctions
       N       E                     dE             d eps       ncg     rms          rms(c)
DAV:   1    -0.102039915868E+03   -0.11817E+00   -0.61036E-03   180   0.247E-01    0.686E-03
RMM:   2    -0.102040082377E+03   -0.16651E-03   -0.16762E-03   120   0.120E-01    0.496E-03
RMM:   3    -0.102040099235E+03   -0.16857E-04   -0.15037E-04    68   0.368E-02
    112 T=   622. E= -.89527311E+02 F= -.10204010E+03 E0= -.10204590E+03  EK= 0.42636E+01 SP= 0.82E+01 SK= 0.18E-01
 bond charge predicted
 prediction of wavefunctions
       N       E                     dE             d eps       ncg     rms          rms(c)
DAV:   1    -0.102164076406E+03   -0.12399E+00   -0.51394E-03   156   0.202E-01    0.608E-03
RMM:   2    -0.102164125658E+03   -0.49252E-04   -0.50630E-04   120   0.644E-02
    113 T=   631. E= -.89527221E+02 F= -.10216413E+03 E0= -.10216985E+03  EK= 0.43225E+01 SP= 0.83E+01 SK= 0.21E-01
 bond charge predicted
 prediction of wavefunctions
       N       E                     dE             d eps       ncg     rms          rms(c)
DAV:   1    -0.102288122313E+03   -0.12405E+00   -0.57014E-03   192   0.242E-01    0.646E-03
RMM:   2    -0.102288273784E+03   -0.15147E-03   -0.15301E-03   120   0.114E-01    0.481E-03
RMM:   3    -0.102288292837E+03   -0.19053E-04   -0.18102E-04    69   0.396E-02
    114 T=   639. E= -.89527058E+02 F= -.10228829E+03 E0= -.10229398E+03  EK= 0.43749E+01 SP= 0.84E+01 SK= 0.25E-01
 bond charge predicted
 prediction of wavefunctions
       N       E                     dE             d eps       ncg     rms          rms(c)
DAV:   1    -0.102406363671E+03   -0.11809E+00   -0.45251E-03   180   0.213E-01    0.570E-03
RMM:   2    -0.102406430692E+03   -0.67021E-04   -0.68093E-04   120   0.769E-02
    115 T=   644. E= -.89526849E+02 F= -.10240643E+03 E0= -.10241211E+03  EK= 0.44135E+01 SP= 0.84E+01 SK= 0.30E-01
 bond charge predicted
 prediction of wavefunctions
       N       E                     dE             d eps       ncg     rms          rms(c)
DAV:   1    -0.102512602650E+03   -0.10624E+00   -0.46971E-03   144   0.248E-01    0.763E-03
RMM:   2    -0.102512774285E+03   -0.17163E-03   -0.17429E-03   120   0.119E-01    0.553E-03
RMM:   3    -0.102512796643E+03   -0.22358E-04   -0.21541E-04    82   0.423E-02
    116 T=   647. E= -.89526672E+02 F= -.10251280E+03 E0= -.10251848E+03  EK= 0.44314E+01 SP= 0.85E+01 SK= 0.37E-01
 bond charge predicted
 prediction of wavefunctions
       N       E                     dE             d eps       ncg     rms          rms(c)
DAV:   1    -0.102601977922E+03   -0.89204E-01   -0.34480E-03   180   0.214E-01    0.634E-03
RMM:   2    -0.102602069240E+03   -0.91318E-04   -0.93138E-04   120   0.758E-02
    117 T=   646. E= -.89526318E+02 F= -.10260207E+03 E0= -.10260778E+03  EK= 0.44236E+01 SP= 0.86E+01 SK= 0.44E-01
Information: wavefunction orthogonal band   60  0.8614
 bond charge predicted
 prediction of wavefunctions
       N       E                     dE             d eps       ncg     rms          rms(c)
DAV:   1    -0.102669776645E+03   -0.67799E-01   -0.40659E-03   204   0.247E-01    0.835E-03
RMM:   2    -0.102669926305E+03   -0.14966E-03   -0.15415E-03   120   0.117E-01    0.592E-03
RMM:   3    -0.102669940656E+03   -0.14352E-04   -0.14157E-04    71   0.363E-02
    118 T=   640. E= -.89525908E+02 F= -.10266994E+03 E0= -.10267566E+03  EK= 0.43865E+01 SP= 0.87E+01 SK= 0.51E-01
 bond charge predicted
 prediction of wavefunctions
       N       E                     dE             d eps       ncg     rms          rms(c)
DAV:   1    -0.102713817706E+03   -0.43891E-01   -0.37153E-03   192   0.215E-01    0.635E-03
RMM:   2    -0.102713907613E+03   -0.89907E-04   -0.92564E-04   120   0.783E-02
    119 T=   631. E= -.89525348E+02 F= -.10271391E+03 E0= -.10271963E+03  EK= 0.43195E+01 SP= 0.88E+01 SK= 0.58E-01
 bond charge predicted
 prediction of wavefunctions
       N       E                     dE             d eps       ncg     rms          rms(c)
DAV:   1    -0.102733250843E+03   -0.19433E-01   -0.47670E-03   180   0.243E-01    0.100E-02
RMM:   2    -0.102733417748E+03   -0.16691E-03   -0.17430E-03   120   0.120E-01    0.647E-03
RMM:   3    -0.102733435916E+03   -0.18169E-04   -0.18267E-04    75   0.414E-02
    120 T=   617. E= -.89524619E+02 F= -.10273344E+03 E0= -.10273915E+03  EK= 0.42248E+01 SP= 0.89E+01 SK= 0.62E-01
 bond charge predicted
 prediction of wavefunctions
       N       E                     dE             d eps       ncg     rms          rms(c)
DAV:   1    -0.102729932405E+03    0.34853E-02   -0.27906E-03   168   0.215E-01    0.738E-03
RMM:   2    -0.102730028907E+03   -0.96501E-04   -0.10071E-03   120   0.810E-02    0.536E-03
RMM:   3    -0.102730045185E+03   -0.16278E-04   -0.17434E-04    78   0.359E-02
    121 T=   599. E= -.89524084E+02 F= -.10273005E+03 E0= -.10273575E+03  EK= 0.41068E+01 SP= 0.90E+01 SK= 0.64E-01
 bond charge predicted
 prediction of wavefunctions
       N       E                     dE             d eps       ncg     rms          rms(c)
DAV:   1    -0.102706419131E+03    0.23610E-01   -0.22150E-03   192   0.203E-01    0.666E-03
RMM:   2    -0.102706499132E+03   -0.80001E-04   -0.83075E-04   120   0.816E-02
    122 T=   580. E= -.89523496E+02 F= -.10270650E+03 E0= -.10271221E+03  EK= 0.39723E+01 SP= 0.91E+01 SK= 0.62E-01
 bond charge predicted
 prediction of wavefunctions
       N       E                     dE             d eps       ncg     rms          rms(c)
DAV:   1    -0.102666450383E+03    0.39969E-01   -0.20390E-03   192   0.225E-01    0.788E-03
RMM:   2    -0.102666588697E+03   -0.13831E-03   -0.14163E-03   120   0.113E-01    0.567E-03
RMM:   3    -0.102666608300E+03   -0.19603E-04   -0.19393E-04    72   0.415E-02
    123 T=   559. E= -.89522758E+02 F= -.10266661E+03 E0= -.10267236E+03  EK= 0.38285E+01 SP= 0.93E+01 SK= 0.57E-01
 bond charge predicted
 prediction of wavefunctions
       N       E                     dE             d eps       ncg     rms          rms(c)
DAV:   1    -0.102615664630E+03    0.50924E-01   -0.17469E-03   192   0.189E-01    0.577E-03
RMM:   2    -0.102615706774E+03   -0.42144E-04   -0.44601E-04   117   0.596E-02
    124 T=   538. E= -.89522014E+02 F= -.10261571E+03 E0= -.10262153E+03  EK= 0.36839E+01 SP= 0.94E+01 SK= 0.48E-01
 bond charge predicted
 prediction of wavefunctions
       N       E                     dE             d eps       ncg     rms          rms(c)
DAV:   1    -0.102559563001E+03    0.56102E-01   -0.24145E-03   216   0.207E-01    0.693E-03
RMM:   2    -0.102559673858E+03   -0.11086E-03   -0.11285E-03   120   0.975E-02    0.485E-03
RMM:   3    -0.102559684211E+03   -0.10352E-04   -0.96848E-05    66   0.304E-02
    125 T=   518. E= -.89521439E+02 F= -.10255968E+03 E0= -.10256565E+03  EK= 0.35467E+01 SP= 0.95E+01 SK= 0.37E-01
 bond charge predicted
 prediction of wavefunctions
       N       E                     dE             d eps       ncg     rms          rms(c)
DAV:   1    -0.102503981190E+03    0.55693E-01   -0.18463E-03   144   0.175E-01    0.537E-03
RMM:   2    -0.102504019711E+03   -0.38520E-04   -0.40468E-04   120   0.549E-02
    126 T=   500. E= -.89520996E+02 F= -.10250402E+03 E0= -.10251021E+03  EK= 0.34243E+01 SP= 0.95E+01 SK= 0.25E-01
 bond charge predicted
 prediction of wavefunctions
       N       E                     dE             d eps       ncg     rms          rms(c)
DAV:   1    -0.102453714086E+03    0.50267E-01   -0.27694E-03   168   0.200E-01    0.734E-03
RMM:   2    -0.102453821487E+03   -0.10740E-03   -0.10977E-03   120   0.942E-02    0.536E-03
RMM:   3    -0.102453834769E+03   -0.13282E-04   -0.13461E-04    64   0.335E-02
    127 T=   485. E= -.89520739E+02 F= -.10245383E+03 E0= -.10246033E+03  EK= 0.33232E+01 SP= 0.96E+01 SK= 0.14E-01
 bond charge predicted
 prediction of wavefunctions
       N       E                     dE             d eps       ncg     rms          rms(c)
DAV:   1    -0.102413190167E+03    0.40631E-01   -0.30315E-03   156   0.175E-01    0.507E-03
RMM:   2    -0.102413242482E+03   -0.52314E-04   -0.53932E-04   120   0.656E-02
    128 T=   474. E= -.89520333E+02 F= -.10241324E+03 E0= -.10242013E+03  EK= 0.32486E+01 SP= 0.96E+01 SK= 0.53E-02
 bond charge predicted
 prediction of wavefunctions
       N       E                     dE             d eps       ncg     rms          rms(c)
DAV:   1    -0.102385852342E+03    0.27338E-01   -0.34556E-03   168   0.200E-01    0.951E-03
RMM:   2    -0.102385964349E+03   -0.11201E-03   -0.11864E-03   120   0.980E-02    0.583E-03
RMM:   3    -0.102385981603E+03   -0.17254E-04   -0.17939E-04    72   0.394E-02
    129 T=   468. E= -.89519874E+02 F= -.10238598E+03 E0= -.10239336E+03  EK= 0.32045E+01 SP= 0.97E+01 SK= 0.61E-03
 bond charge predicted
 prediction of wavefunctions
       N       E                     dE             d eps       ncg     rms          rms(c)
DAV:   1    -0.102374927618E+03    0.11037E-01   -0.27217E-03   156   0.172E-01    0.609E-03
RMM:   2    -0.102374973952E+03   -0.46333E-04   -0.48800E-04   119   0.598E-02
    130 T=   466. E= -.89519556E+02 F= -.10237497E+03 E0= -.10238295E+03  EK= 0.31940E+01 SP= 0.97E+01 SK= 0.65E-03
 bond charge predicted
 prediction of wavefunctions
       N       E                     dE             d eps       ncg     rms          rms(c)
DAV:   1    -0.102381631111E+03   -0.67035E-02   -0.30515E-03   180   0.196E-01    0.115E-02
RMM:   2    -0.102381726772E+03   -0.95661E-04   -0.10689E-03   120   0.917E-02    0.713E-03
RMM:   3    -0.102381736712E+03   -0.99406E-05   -0.13408E-04    66   0.338E-02
    131 T=   470. E= -.89519280E+02 F= -.10238174E+03 E0= -.10239035E+03  EK= 0.32186E+01 SP= 0.96E+01 SK= 0.56E-02
 bond charge predicted
 prediction of wavefunctions
       N       E                     dE             d eps       ncg     rms          rms(c)
DAV:   1    -0.102406665337E+03   -0.24939E-01   -0.23776E-03   156   0.178E-01    0.942E-03
RMM:   2    -0.102406709492E+03   -0.44155E-04   -0.51038E-04   120   0.639E-02
    132 T=   479. E= -.89519080E+02 F= -.10240671E+03 E0= -.10241595E+03  EK= 0.32789E+01 SP= 0.96E+01 SK= 0.15E-01
 bond charge predicted
 prediction of wavefunctions
       N       E                     dE             d eps       ncg     rms          rms(c)
DAV:   1    -0.102448659193E+03   -0.41994E-01   -0.25094E-03   168   0.204E-01    0.106E-02
RMM:   2    -0.102448768304E+03   -0.10911E-03   -0.11867E-03   120   0.973E-02    0.586E-03
RMM:   3    -0.102448783905E+03   -0.15600E-04   -0.16938E-04    68   0.379E-02
    133 T=   492. E= -.89518871E+02 F= -.10244878E+03 E0= -.10245855E+03  EK= 0.33736E+01 SP= 0.95E+01 SK= 0.27E-01
 bond charge predicted
 prediction of wavefunctions
       N       E                     dE             d eps       ncg     rms          rms(c)
DAV:   1    -0.102505666002E+03   -0.56898E-01   -0.19440E-03   156   0.185E-01    0.920E-03
RMM:   2    -0.102505711232E+03   -0.45230E-04   -0.51600E-04   119   0.655E-02
    134 T=   511. E= -.89518675E+02 F= -.10250571E+03 E0= -.10251571E+03  EK= 0.34999E+01 SP= 0.94E+01 SK= 0.41E-01
 bond charge predicted
 prediction of wavefunctions
       N       E                     dE             d eps       ncg     rms          rms(c)
DAV:   1    -0.102573952088E+03   -0.68286E-01   -0.22948E-03   144   0.214E-01    0.102E-02
RMM:   2    -0.102574067387E+03   -0.11530E-03   -0.12387E-03   120   0.999E-02    0.617E-03
RMM:   3    -0.102574082525E+03   -0.15138E-04   -0.16468E-04    66   0.378E-02
    135 T=   533. E= -.89518637E+02 F= -.10257408E+03 E0= -.10258382E+03  EK= 0.36534E+01 SP= 0.93E+01 SK= 0.54E-01
 bond charge predicted
 prediction of wavefunctions
       N       E                     dE             d eps       ncg     rms          rms(c)
DAV:   1    -0.102649565286E+03   -0.75498E-01   -0.17451E-03   156   0.197E-01    0.882E-03
RMM:   2    -0.102649617280E+03   -0.51994E-04   -0.58692E-04   120   0.706E-02
    136 T=   559. E= -.89518609E+02 F= -.10264962E+03 E0= -.10265866E+03  EK= 0.38280E+01 SP= 0.92E+01 SK= 0.63E-01
 bond charge predicted
 prediction of wavefunctions
       N       E                     dE             d eps       ncg     rms          rms(c)
DAV:   1    -0.102727682683E+03   -0.78117E-01   -0.26931E-03   168   0.227E-01    0.129E-02
RMM:   2    -0.102727810255E+03   -0.12757E-03   -0.14236E-03   120   0.107E-01    0.731E-03
RMM:   3    -0.102727827208E+03   -0.16953E-04   -0.19421E-04    68   0.408E-02
    137 T=   586. E= -.89518670E+02 F= -.10272783E+03 E0= -.10273618E+03  EK= 0.40165E+01 SP= 0.91E+01 SK= 0.68E-01
 bond charge predicted
 prediction of wavefunctions
       N       E                     dE             d eps       ncg     rms          rms(c)
DAV:   1    -0.102803058838E+03   -0.75249E-01   -0.27199E-03   120   0.202E-01    0.715E-03
RMM:   2    -0.102803119885E+03   -0.61047E-04   -0.64588E-04   120   0.761E-02
    138 T=   615. E= -.89518622E+02 F= -.10280312E+03 E0= -.10281084E+03  EK= 0.42098E+01 SP= 0.90E+01 SK= 0.68E-01
 bond charge predicted
 prediction of wavefunctions
       N       E                     dE             d eps       ncg     rms          rms(c)
DAV:   1    -0.102870075029E+03   -0.67016E-01   -0.38621E-03   168   0.236E-01    0.111E-02
RMM:   2    -0.102870214490E+03   -0.13946E-03   -0.14840E-03   120   0.111E-01    0.680E-03
RMM:   3    -0.102870231714E+03   -0.17224E-04   -0.18284E-04    68   0.404E-02
    139 T=   642. E= -.89518888E+02 F= -.10287023E+03 E0= -.10287734E+03  EK= 0.43974E+01 SP= 0.89E+01 SK= 0.62E-01
 bond charge predicted
 prediction of wavefunctions
       N       E                     dE             d eps       ncg     rms          rms(c)
DAV:   1    -0.102923114477E+03   -0.52900E-01   -0.36335E-03   144   0.209E-01    0.795E-03
RMM:   2    -0.102923179451E+03   -0.64974E-04   -0.69700E-04   120   0.790E-02
    140 T=   667. E= -.89519050E+02 F= -.10292318E+03 E0= -.10292971E+03  EK= 0.45682E+01 SP= 0.88E+01 SK= 0.52E-01
 bond charge predicted
 prediction of wavefunctions
       N       E                     dE             d eps       ncg     rms          rms(c)
DAV:   1    -0.102957410622E+03   -0.34296E-01   -0.47251E-03   168   0.244E-01    0.123E-02
RMM:   2    -0.102957569112E+03   -0.15849E-03   -0.16953E-03   120   0.121E-01    0.753E-03
RMM:   3    -0.102957589256E+03   -0.20143E-04   -0.21638E-04    81   0.449E-02
    141 T=   688. E= -.89519398E+02 F= -.10295759E+03 E0= -.10296363E+03  EK= 0.47114E+01 SP= 0.87E+01 SK= 0.40E-01
 bond charge predicted
 prediction of wavefunctions
       N       E                     dE             d eps       ncg     rms          rms(c)
DAV:   1    -0.102969185739E+03   -0.11617E-01   -0.47284E-03   168   0.213E-01    0.949E-03
RMM:   2    -0.102969250786E+03   -0.65047E-04   -0.71642E-04   120   0.818E-02
    142 T=   703. E= -.89519347E+02 F= -.10296925E+03 E0= -.10297490E+03  EK= 0.48178E+01 SP= 0.86E+01 SK= 0.26E-01
 bond charge predicted
 prediction of wavefunctions
       N       E                     dE             d eps       ncg     rms          rms(c)
DAV:   1    -0.102955629264E+03    0.13556E-01   -0.59680E-03   144   0.250E-01    0.115E-02
RMM:   2    -0.102955801014E+03   -0.17175E-03   -0.18106E-03   120   0.124E-01    0.655E-03
RMM:   3    -0.102955820062E+03   -0.19048E-04   -0.18514E-04    70   0.410E-02
    143 T=   712. E= -.89519167E+02 F= -.10295582E+03 E0= -.10296119E+03  EK= 0.48801E+01 SP= 0.85E+01 SK= 0.15E-01
 bond charge predicted
 prediction of wavefunctions
       N       E                     dE             d eps       ncg     rms          rms(c)
DAV:   1    -0.102916956366E+03    0.38845E-01   -0.55429E-03   168   0.213E-01    0.905E-03
RMM:   2    -0.102917019754E+03   -0.63388E-04   -0.69218E-04   120   0.812E-02
    144 T=   715. E= -.89518794E+02 F= -.10291702E+03 E0= -.10292221E+03  EK= 0.48950E+01 SP= 0.85E+01 SK= 0.60E-02
 bond charge predicted
 prediction of wavefunctions
       N       E                     dE             d eps       ncg     rms          rms(c)
DAV:   1    -0.102853907316E+03    0.63049E-01   -0.65496E-03   180   0.257E-01    0.102E-02
RMM:   2    -0.102854089244E+03   -0.18193E-03   -0.18786E-03   120   0.129E-01    0.637E-03
RMM:   3    -0.102854110246E+03   -0.21002E-04   -0.19988E-04    73   0.436E-02
    145 T=   710. E= -.89518012E+02 F= -.10285411E+03 E0= -.10285920E+03  EK= 0.48628E+01 SP= 0.85E+01 SK= 0.12E-02
 bond charge predicted
 prediction of wavefunctions
       N       E                     dE             d eps       ncg     rms          rms(c)
DAV:   1    -0.102770760000E+03    0.83329E-01   -0.54968E-03   132   0.213E-01    0.785E-03
RMM:   2    -0.102770833569E+03   -0.73569E-04   -0.77479E-04   120   0.857E-02
    146 T=   699. E= -.89517036E+02 F= -.10277083E+03 E0= -.10277590E+03  EK= 0.47881E+01 SP= 0.85E+01 SK= 0.33E-04
 bond charge predicted
 prediction of wavefunctions
       N       E                     dE             d eps       ncg     rms          rms(c)
DAV:   1    -0.102672636195E+03    0.98124E-01   -0.65545E-03   168   0.261E-01    0.102E-02
RMM:   2    -0.102672828177E+03   -0.19198E-03   -0.19666E-03   120   0.130E-01    0.667E-03
RMM:   3    -0.102672848435E+03   -0.20257E-04   -0.18788E-04    68   0.413E-02
    147 T=   683. E= -.89515972E+02 F= -.10267285E+03 E0= -.10267792E+03  EK= 0.46792E+01 SP= 0.85E+01 SK= 0.17E-02
 bond charge predicted
 prediction of wavefunctions
       N       E                     dE             d eps       ncg     rms          rms(c)
DAV:   1    -0.102566748348E+03    0.10608E+00   -0.52089E-03   156   0.210E-01    0.657E-03
RMM:   2    -0.102566822142E+03   -0.73794E-04   -0.75851E-04   120   0.858E-02
    148 T=   664. E= -.89514899E+02 F= -.10256682E+03 E0= -.10257193E+03  EK= 0.45465E+01 SP= 0.85E+01 SK= 0.47E-02
 bond charge predicted
 prediction of wavefunctions
       N       E                     dE             d eps       ncg     rms          rms(c)
DAV:   1    -0.102459285476E+03    0.10746E+00   -0.60793E-03   144   0.259E-01    0.114E-02
RMM:   2    -0.102459478963E+03   -0.19349E-03   -0.19926E-03   120   0.131E-01    0.735E-03
RMM:   3    -0.102459501101E+03   -0.22138E-04   -0.20980E-04    79   0.440E-02
    149 T=   642. E= -.89513870E+02 F= -.10245950E+03 E0= -.10246467E+03  EK= 0.44013E+01 SP= 0.85E+01 SK= 0.80E-02
 bond charge predicted
 prediction of wavefunctions
       N       E                     dE             d eps       ncg     rms          rms(c)
DAV:   1    -0.102356879468E+03    0.10260E+00   -0.45103E-03   168   0.206E-01    0.625E-03
RMM:   2    -0.102356952872E+03   -0.73404E-04   -0.75665E-04   120   0.834E-02
    150 T=   621. E= -.89513059E+02 F= -.10235695E+03 E0= -.10236221E+03  EK= 0.42543E+01 SP= 0.86E+01 SK= 0.10E-01
 bond charge predicted
 prediction of wavefunctions
       N       E                     dE             d eps       ncg     rms          rms(c)
DAV:   1    -0.102263639577E+03    0.93240E-01   -0.50417E-03   144   0.248E-01    0.121E-02
RMM:   2    -0.102263821008E+03   -0.18143E-03   -0.19035E-03   120   0.125E-01    0.744E-03
RMM:   3    -0.102263841564E+03   -0.20556E-04   -0.20423E-04    79   0.428E-02
    151 T=   601. E= -.89512299E+02 F= -.10226384E+03 E0= -.10226919E+03  EK= 0.41143E+01 SP= 0.86E+01 SK= 0.11E-01
 bond charge predicted
 prediction of wavefunctions
       N       E                     dE             d eps       ncg     rms          rms(c)
DAV:   1    -0.102183932086E+03    0.79889E-01   -0.38720E-03   192   0.201E-01    0.709E-03
RMM:   2    -0.102184004764E+03   -0.72679E-04   -0.76155E-04   120   0.823E-02
    152 T=   582. E= -.89511874E+02 F= -.10218400E+03 E0= -.10218945E+03  EK= 0.39884E+01 SP= 0.87E+01 SK= 0.11E-01
 bond charge predicted
 prediction of wavefunctions
       N       E                     dE             d eps       ncg     rms          rms(c)
DAV:   1    -0.102118768609E+03    0.65163E-01   -0.46901E-03   204   0.239E-01    0.120E-02
RMM:   2    -0.102118931868E+03   -0.16326E-03   -0.17256E-03   120   0.120E-01    0.710E-03
RMM:   3    -0.102118948699E+03   -0.16831E-04   -0.16930E-04    68   0.396E-02
    153 T=   567. E= -.89511583E+02 F= -.10211895E+03 E0= -.10212447E+03  EK= 0.38813E+01 SP= 0.87E+01 SK= 0.88E-02
 bond charge predicted
 prediction of wavefunctions
       N       E                     dE             d eps       ncg     rms          rms(c)
DAV:   1    -0.102068335377E+03    0.50596E-01   -0.31409E-03   180   0.198E-01    0.876E-03
RMM:   2    -0.102068404918E+03   -0.69540E-04   -0.75014E-04   120   0.799E-02
    154 T=   554. E= -.89511358E+02 F= -.10206840E+03 E0= -.10207400E+03  EK= 0.37947E+01 SP= 0.88E+01 SK= 0.62E-02
 bond charge predicted
 prediction of wavefunctions
       N       E                     dE             d eps       ncg     rms          rms(c)
DAV:   1    -0.102031105952E+03    0.37229E-01   -0.38436E-03   168   0.235E-01    0.124E-02
RMM:   2    -0.102031276197E+03   -0.17024E-03   -0.18072E-03   120   0.118E-01    0.745E-03
RMM:   3    -0.102031296187E+03   -0.19990E-04   -0.20370E-04    75   0.421E-02
    155 T=   544. E= -.89511311E+02 F= -.10203130E+03 E0= -.10203697E+03  EK= 0.37290E+01 SP= 0.88E+01 SK= 0.36E-02
 bond charge predicted
 prediction of wavefunctions
       N       E                     dE             d eps       ncg     rms          rms(c)
DAV:   1    -0.102004652327E+03    0.26624E-01   -0.29010E-03   180   0.195E-01    0.948E-03
RMM:   2    -0.102004718510E+03   -0.66183E-04   -0.73081E-04   120   0.787E-02
    156 T=   538. E= -.89511160E+02 F= -.10200472E+03 E0= -.10201053E+03  EK= 0.36827E+01 SP= 0.88E+01 SK= 0.14E-02
 bond charge predicted
 prediction of wavefunctions
       N       E                     dE             d eps       ncg     rms          rms(c)
DAV:   1    -0.101985599278E+03    0.19053E-01   -0.39291E-03   180   0.228E-01    0.109E-02
RMM:   2    -0.101985757143E+03   -0.15787E-03   -0.16564E-03   120   0.115E-01    0.664E-03
RMM:   3    -0.101985774293E+03   -0.17150E-04   -0.16527E-04    65   0.389E-02
    157 T=   533. E= -.89511126E+02 F= -.10198577E+03 E0= -.10199183E+03  EK= 0.36533E+01 SP= 0.88E+01 SK= 0.19E-03
 bond charge predicted
 prediction of wavefunctions
       N       E                     dE             d eps       ncg     rms          rms(c)
DAV:   1    -0.101971604526E+03    0.14153E-01   -0.28461E-03   156   0.194E-01    0.864E-03
RMM:   2    -0.101971672017E+03   -0.67491E-04   -0.73175E-04   120   0.784E-02
    158 T=   531. E= -.89511145E+02 F= -.10197167E+03 E0= -.10197808E+03  EK= 0.36386E+01 SP= 0.88E+01 SK= 0.13E-03
 bond charge predicted
 prediction of wavefunctions
       N       E                     dE             d eps       ncg     rms          rms(c)
DAV:   1    -0.101959206769E+03    0.12398E-01   -0.35544E-03   192   0.227E-01    0.109E-02
RMM:   2    -0.101959356117E+03   -0.14935E-03   -0.15666E-03   120   0.113E-01    0.723E-03
RMM:   3    -0.101959372868E+03   -0.16750E-04   -0.16819E-04    70   0.390E-02
    159 T=   531. E= -.89511106E+02 F= -.10195937E+03 E0= -.10196617E+03  EK= 0.36360E+01 SP= 0.88E+01 SK= 0.14E-02
 bond charge predicted
 prediction of wavefunctions
       N       E                     dE             d eps       ncg     rms          rms(c)
DAV:   1    -0.101946532543E+03    0.12824E-01   -0.26529E-03   156   0.193E-01    0.867E-03
RMM:   2    -0.101946602269E+03   -0.69726E-04   -0.75664E-04   120   0.786E-02
    160 T=   532. E= -.89510876E+02 F= -.10194660E+03 E0= -.10195371E+03  EK= 0.36432E+01 SP= 0.88E+01 SK= 0.39E-02
 bond charge predicted
 prediction of wavefunctions
       N       E                     dE             d eps       ncg     rms          rms(c)
DAV:   1    -0.101932077883E+03    0.14455E-01   -0.41084E-03   216   0.221E-01    0.137E-02
RMM:   2    -0.101932218451E+03   -0.14057E-03   -0.15224E-03   120   0.110E-01    0.827E-03
RMM:   3    -0.101932231902E+03   -0.13451E-04   -0.14616E-04    67   0.363E-02
    161 T=   534. E= -.89510647E+02 F= -.10193223E+03 E0= -.10193947E+03  EK= 0.36591E+01 SP= 0.88E+01 SK= 0.76E-02
 bond charge predicted
 prediction of wavefunctions
       N       E                     dE             d eps       ncg     rms          rms(c)
DAV:   1    -0.101915546813E+03    0.16672E-01   -0.41001E-03   180   0.189E-01    0.803E-03
RMM:   2    -0.101915618373E+03   -0.71560E-04   -0.76746E-04   120   0.803E-02
    162 T=   538. E= -.89510352E+02 F= -.10191562E+03 E0= -.10192290E+03  EK= 0.36826E+01 SP= 0.87E+01 SK= 0.12E-01
 bond charge predicted
 prediction of wavefunctions
       N       E                     dE             d eps       ncg     rms          rms(c)
DAV:   1    -0.101897739891E+03    0.17807E-01   -0.56680E-03   192   0.218E-01    0.121E-02
RMM:   2    -0.101897878742E+03   -0.13885E-03   -0.14718E-03   120   0.109E-01    0.793E-03
RMM:   3    -0.101897893559E+03   -0.14816E-04   -0.15218E-04    70   0.375E-02
    163 T=   542. E= -.89510260E+02 F= -.10189789E+03 E0= -.10190527E+03  EK= 0.37145E+01 SP= 0.87E+01 SK= 0.18E-01
 bond charge predicted
 prediction of wavefunctions
       N       E                     dE             d eps       ncg     rms          rms(c)
DAV:   1    -0.101879773779E+03    0.18105E-01   -0.45175E-03   180   0.188E-01    0.872E-03
RMM:   2    -0.101879847312E+03   -0.73533E-04   -0.79327E-04   120   0.817E-02
    164 T=   548. E= -.89509942E+02 F= -.10187985E+03 E0= -.10188742E+03  EK= 0.37555E+01 SP= 0.86E+01 SK= 0.24E-01
 bond charge predicted
 prediction of wavefunctions
       N       E                     dE             d eps       ncg     rms          rms(c)
DAV:   1    -0.101862588680E+03    0.17185E-01   -0.47293E-03   168   0.218E-01    0.142E-02
RMM:   2    -0.101862738321E+03   -0.14964E-03   -0.16223E-03   120   0.111E-01    0.906E-03
RMM:   3    -0.101862755325E+03   -0.17004E-04   -0.19061E-04    73   0.406E-02
    165 T=   556. E= -.89509816E+02 F= -.10186276E+03 E0= -.10187049E+03  EK= 0.38059E+01 SP= 0.85E+01 SK= 0.29E-01
 bond charge predicted
 prediction of wavefunctions
       N       E                     dE             d eps       ncg     rms          rms(c)
DAV:   1    -0.101846685522E+03    0.16053E-01   -0.42856E-03   192   0.191E-01    0.106E-02
RMM:   2    -0.101846747050E+03   -0.61528E-04   -0.69819E-04   120   0.788E-02
    166 T=   564. E= -.89509638E+02 F= -.10184675E+03 E0= -.10185423E+03  EK= 0.38652E+01 SP= 0.84E+01 SK= 0.35E-01
 bond charge predicted
 prediction of wavefunctions
       N       E                     dE             d eps       ncg     rms          rms(c)
DAV:   1    -0.101831646292E+03    0.15039E-01   -0.49674E-03   168   0.223E-01    0.142E-02
RMM:   2    -0.101831789448E+03   -0.14316E-03   -0.15447E-03   120   0.111E-01    0.955E-03
RMM:   3    -0.101831805256E+03   -0.15808E-04   -0.18527E-04    74   0.406E-02
    167 T=   574. E= -.89509533E+02 F= -.10183181E+03 E0= -.10183818E+03  EK= 0.39323E+01 SP= 0.84E+01 SK= 0.39E-01
 bond charge predicted
 prediction of wavefunctions
       N       E                     dE             d eps       ncg     rms          rms(c)
DAV:   1    -0.101817324733E+03    0.14465E-01   -0.50425E-03   144   0.201E-01    0.162E-02
RMM:   2    -0.101817370243E+03   -0.45510E-04   -0.68393E-04   120   0.770E-02
    168 T=   585. E= -.89509345E+02 F= -.10181737E+03 E0= -.10182220E+03  EK= 0.40056E+01 SP= 0.83E+01 SK= 0.42E-01
 bond charge predicted
 prediction of wavefunctions
       N       E                     dE             d eps       ncg     rms          rms(c)
DAV:   1    -0.101802657809E+03    0.14667E-01   -0.66878E-03   192   0.236E-01    0.243E-02
RMM:   2    -0.101802807796E+03   -0.14999E-03   -0.19290E-03   120   0.117E-01    0.136E-02
RMM:   3    -0.101802821165E+03   -0.13369E-04   -0.22538E-04    81   0.430E-02
    169 T=   596. E= -.89508870E+02 F= -.10180282E+03 E0= -.10180674E+03  EK= 0.40830E+01 SP= 0.82E+01 SK= 0.43E-01
 bond charge predicted
 prediction of wavefunctions
       N       E                     dE             d eps       ncg     rms          rms(c)
DAV:   1    -0.101788429833E+03    0.14378E-01   -0.59521E-03   204   0.203E-01    0.125E-02
RMM:   2    -0.101788529195E+03   -0.99362E-04   -0.11288E-03   120   0.819E-02    0.744E-03
RMM:   3    -0.101788545324E+03   -0.16129E-04   -0.19467E-04    87   0.360E-02
    170 T=   608. E= -.89508824E+02 F= -.10178855E+03 E0= -.10179202E+03  EK= 0.41625E+01 SP= 0.81E+01 SK= 0.43E-01
Information: wavefunction orthogonal band   60  0.8354
 bond charge predicted
 prediction of wavefunctions
       N       E                     dE             d eps       ncg     rms          rms(c)
DAV:   1    -0.101773218674E+03    0.15311E-01   -0.58397E-03   204   0.217E-01    0.110E-02
RMM:   2    -0.101773361880E+03   -0.14321E-03   -0.14873E-03   120   0.920E-02    0.663E-03
RMM:   3    -0.101773383415E+03   -0.21535E-04   -0.22019E-04    90   0.377E-02
    171 T=   619. E= -.89508838E+02 F= -.10177338E+03 E0= -.10177668E+03  EK= 0.42413E+01 SP= 0.80E+01 SK= 0.40E-01
Information: wavefunction orthogonal band   59  0.8892
 bond charge predicted
 prediction of wavefunctions
       N       E                     dE             d eps       ncg     rms          rms(c)
DAV:   1    -0.101756009535E+03    0.17352E-01   -0.59190E-03   192   0.223E-01    0.654E-03
RMM:   2    -0.101756121966E+03   -0.11243E-03   -0.11424E-03   120   0.961E-02    0.462E-03
RMM:   3    -0.101756137093E+03   -0.15126E-04   -0.14356E-04    74   0.347E-02
    172 T=   630. E= -.89508949E+02 F= -.10175614E+03 E0= -.10175946E+03  EK= 0.43162E+01 SP= 0.79E+01 SK= 0.37E-01
 bond charge predicted
 prediction of wavefunctions
       N       E                     dE             d eps       ncg     rms          rms(c)
DAV:   1    -0.101735438833E+03    0.20683E-01   -0.55558E-03   180   0.229E-01    0.713E-03
RMM:   2    -0.101735540117E+03   -0.10128E-03   -0.10325E-03   120   0.919E-02    0.499E-03
RMM:   3    -0.101735553503E+03   -0.13386E-04   -0.13142E-04    72   0.341E-02
    173 T=   640. E= -.89508899E+02 F= -.10173555E+03 E0= -.10173905E+03  EK= 0.43837E+01 SP= 0.78E+01 SK= 0.32E-01
 bond charge predicted
 prediction of wavefunctions
       N       E                     dE             d eps       ncg     rms          rms(c)
DAV:   1    -0.101710912612E+03    0.24628E-01   -0.45311E-03   216   0.234E-01    0.576E-03
RMM:   2    -0.101711006766E+03   -0.94153E-04   -0.94866E-04   120   0.937E-02
    174 T=   648. E= -.89508602E+02 F= -.10171101E+03 E0= -.10171477E+03  EK= 0.44414E+01 SP= 0.77E+01 SK= 0.26E-01
 bond charge predicted
 prediction of wavefunctions
       N       E                     dE             d eps       ncg     rms          rms(c)
DAV:   1    -0.101682324385E+03    0.28588E-01   -0.48863E-03   204   0.269E-01    0.948E-03
RMM:   2    -0.101682514226E+03   -0.18984E-03   -0.19217E-03   120   0.132E-01    0.699E-03
RMM:   3    -0.101682535755E+03   -0.21529E-04   -0.20361E-04    77   0.433E-02
    175 T=   655. E= -.89508281E+02 F= -.10168254E+03 E0= -.10168664E+03  EK= 0.44870E+01 SP= 0.77E+01 SK= 0.20E-01
 bond charge predicted
 prediction of wavefunctions
       N       E                     dE             d eps       ncg     rms          rms(c)
DAV:   1    -0.101650646217E+03    0.31868E-01   -0.41243E-03   168   0.239E-01    0.569E-03
RMM:   2    -0.101650724754E+03   -0.78537E-04   -0.79678E-04   120   0.843E-02
    176 T=   660. E= -.89507732E+02 F= -.10165072E+03 E0= -.10165521E+03  EK= 0.45197E+01 SP= 0.76E+01 SK= 0.14E-01
 bond charge predicted
 prediction of wavefunctions
       N       E                     dE             d eps       ncg     rms          rms(c)
DAV:   1    -0.101617119982E+03    0.33526E-01   -0.51007E-03   192   0.288E-01    0.942E-03
RMM:   2    -0.101617355139E+03   -0.23516E-03   -0.23691E-03   120   0.142E-01    0.664E-03
RMM:   3    -0.101617375479E+03   -0.20340E-04   -0.18208E-04    72   0.407E-02
    177 T=   663. E= -.89507200E+02 F= -.10161738E+03 E0= -.10162226E+03  EK= 0.45398E+01 SP= 0.76E+01 SK= 0.89E-02
 bond charge predicted
 prediction of wavefunctions
       N       E                     dE             d eps       ncg     rms          rms(c)
DAV:   1    -0.101584731497E+03    0.32624E-01   -0.41100E-03   156   0.234E-01    0.605E-03
RMM:   2    -0.101584787766E+03   -0.56269E-04   -0.57726E-04   120   0.692E-02
    178 T=   664. E= -.89506675E+02 F= -.10158479E+03 E0= -.10159007E+03  EK= 0.45488E+01 SP= 0.75E+01 SK= 0.49E-02
 bond charge predicted
 prediction of wavefunctions
       N       E                     dE             d eps       ncg     rms          rms(c)
DAV:   1    -0.101555086111E+03    0.29645E-01   -0.51611E-03   192   0.284E-01    0.915E-03
RMM:   2    -0.101555298971E+03   -0.21286E-03   -0.21534E-03   120   0.139E-01    0.625E-03
RMM:   3    -0.101555322260E+03   -0.23290E-04   -0.22089E-04    82   0.445E-02
    179 T=   664. E= -.89506096E+02 F= -.10155532E+03 E0= -.10156095E+03  EK= 0.45488E+01 SP= 0.75E+01 SK= 0.21E-02
 bond charge predicted
 prediction of wavefunctions
       N       E                     dE             d eps       ncg     rms          rms(c)
DAV:   1    -0.101531608035E+03    0.23691E-01   -0.46738E-03   204   0.243E-01    0.570E-03
RMM:   2    -0.101531692211E+03   -0.84175E-04   -0.85549E-04   120   0.868E-02
    180 T=   663. E= -.89505554E+02 F= -.10153169E+03 E0= -.10153758E+03  EK= 0.45423E+01 SP= 0.75E+01 SK= 0.44E-03
 bond charge predicted
 prediction of wavefunctions
       N       E                     dE             d eps       ncg     rms          rms(c)
DAV:   1    -0.101516414212E+03    0.15194E-01   -0.52292E-03   168   0.276E-01    0.946E-03
RMM:   2    -0.101516611910E+03   -0.19770E-03   -0.20096E-03   120   0.132E-01    0.708E-03
RMM:   3    -0.101516634604E+03   -0.22694E-04   -0.22078E-04    81   0.439E-02
    181 T=   662. E= -.89504884E+02 F= -.10151663E+03 E0= -.10152265E+03  EK= 0.45324E+01 SP= 0.75E+01 SK= 0.87E-05
 bond charge predicted
 prediction of wavefunctions
       N       E                     dE             d eps       ncg     rms          rms(c)
DAV:   1    -0.101511940811E+03    0.46711E-02   -0.46674E-03   180   0.238E-01    0.540E-03
RMM:   2    -0.101512020631E+03   -0.79820E-04   -0.80998E-04   120   0.863E-02
    182 T=   660. E= -.89504253E+02 F= -.10151202E+03 E0= -.10151802E+03  EK= 0.45212E+01 SP= 0.75E+01 SK= 0.69E-03
 bond charge predicted
 prediction of wavefunctions
       N       E                     dE             d eps       ncg     rms          rms(c)
DAV:   1    -0.101517905580E+03   -0.59648E-02   -0.54100E-03   156   0.275E-01    0.855E-03
RMM:   2    -0.101518118986E+03   -0.21341E-03   -0.21594E-03   120   0.135E-01    0.639E-03
RMM:   3    -0.101518139195E+03   -0.20209E-04   -0.18415E-04    77   0.403E-02
    183 T=   658. E= -.89503819E+02 F= -.10151814E+03 E0= -.10152401E+03  EK= 0.45090E+01 SP= 0.75E+01 SK= 0.24E-02
 bond charge predicted
 prediction of wavefunctions
       N       E                     dE             d eps       ncg     rms          rms(c)
DAV:   1    -0.101534008217E+03   -0.15889E-01   -0.38822E-03   180   0.226E-01    0.687E-03
RMM:   2    -0.101534072223E+03   -0.64006E-04   -0.65748E-04   120   0.750E-02
    184 T=   656. E= -.89503436E+02 F= -.10153407E+03 E0= -.10153973E+03  EK= 0.44956E+01 SP= 0.75E+01 SK= 0.51E-02
 bond charge predicted
 prediction of wavefunctions
       N       E                     dE             d eps       ncg     rms          rms(c)
DAV:   1    -0.101558563146E+03   -0.24555E-01   -0.42695E-03   204   0.264E-01    0.879E-03
RMM:   2    -0.101558761360E+03   -0.19821E-03   -0.20163E-03   120   0.127E-01    0.625E-03
RMM:   3    -0.101558782297E+03   -0.20937E-04   -0.19930E-04    78   0.408E-02
    185 T=   654. E= -.89503176E+02 F= -.10155878E+03 E0= -.10156421E+03  EK= 0.44803E+01 SP= 0.76E+01 SK= 0.85E-02
 bond charge predicted
 prediction of wavefunctions
       N       E                     dE             d eps       ncg     rms          rms(c)
DAV:   1    -0.101590478082E+03   -0.31717E-01   -0.40072E-03   204   0.220E-01    0.601E-03
RMM:   2    -0.101590576544E+03   -0.98463E-04   -0.99852E-04   120   0.817E-02
    186 T=   651. E= -.89502763E+02 F= -.10159058E+03 E0= -.10159579E+03  EK= 0.44622E+01 SP= 0.76E+01 SK= 0.13E-01
Information: wavefunction orthogonal band   60  0.8141
 bond charge predicted
 prediction of wavefunctions
       N       E                     dE             d eps       ncg     rms          rms(c)
DAV:   1    -0.101628365598E+03   -0.37888E-01   -0.44116E-03   192   0.257E-01    0.926E-03
RMM:   2    -0.101628557168E+03   -0.19157E-03   -0.19512E-03   120   0.128E-01    0.691E-03
RMM:   3    -0.101628576567E+03   -0.19400E-04   -0.18028E-04    77   0.410E-02
    187 T=   648. E= -.89502517E+02 F= -.10162858E+03 E0= -.10163363E+03  EK= 0.44406E+01 SP= 0.77E+01 SK= 0.17E-01
 bond charge predicted
 prediction of wavefunctions
       N       E                     dE             d eps       ncg     rms          rms(c)
DAV:   1    -0.101671806476E+03   -0.43249E-01   -0.47370E-03   168   0.221E-01    0.586E-03
RMM:   2    -0.101671907109E+03   -0.10063E-03   -0.10270E-03   120   0.873E-02    0.389E-03
RMM:   3    -0.101671927704E+03   -0.20595E-04   -0.20258E-04    85   0.392E-02
    188 T=   645. E= -.89502277E+02 F= -.10167193E+03 E0= -.10167691E+03  EK= 0.44156E+01 SP= 0.77E+01 SK= 0.22E-01
 bond charge predicted
 prediction of wavefunctions
       N       E                     dE             d eps       ncg     rms          rms(c)
DAV:   1    -0.101719911621E+03   -0.48005E-01   -0.38589E-03   180   0.219E-01    0.788E-03
RMM:   2    -0.101720004096E+03   -0.92475E-04   -0.96226E-04   120   0.899E-02
    189 T=   640. E= -.89501734E+02 F= -.10172000E+03 E0= -.10172500E+03  EK= 0.43878E+01 SP= 0.78E+01 SK= 0.28E-01
 bond charge predicted
 prediction of wavefunctions
       N       E                     dE             d eps       ncg     rms          rms(c)
DAV:   1    -0.101772235936E+03   -0.52324E-01   -0.42151E-03   168   0.248E-01    0.809E-03
RMM:   2    -0.101772424884E+03   -0.18895E-03   -0.19112E-03   120   0.126E-01    0.696E-03
RMM:   3    -0.101772449814E+03   -0.24930E-04   -0.23441E-04    89   0.454E-02
    190 T=   636. E= -.89501228E+02 F= -.10177245E+03 E0= -.10177758E+03  EK= 0.43572E+01 SP= 0.79E+01 SK= 0.33E-01
 bond charge predicted
 prediction of wavefunctions
       N       E                     dE             d eps       ncg     rms          rms(c)
DAV:   1    -0.101829038512E+03   -0.56614E-01   -0.35285E-03   144   0.208E-01    0.822E-03
RMM:   2    -0.101829101925E+03   -0.63413E-04   -0.67344E-04   120   0.747E-02
    191 T=   631. E= -.89500674E+02 F= -.10182910E+03 E0= -.10183455E+03  EK= 0.43248E+01 SP= 0.80E+01 SK= 0.38E-01
 bond charge predicted
 prediction of wavefunctions
       N       E                     dE             d eps       ncg     rms          rms(c)
DAV:   1    -0.101889468762E+03   -0.60430E-01   -0.44762E-03   216   0.247E-01    0.780E-03
RMM:   2    -0.101889633144E+03   -0.16438E-03   -0.16583E-03   120   0.119E-01    0.581E-03
RMM:   3    -0.101889645266E+03   -0.12121E-04   -0.10560E-04    68   0.315E-02
    192 T=   626. E= -.89500276E+02 F= -.10188965E+03 E0= -.10189568E+03  EK= 0.42910E+01 SP= 0.81E+01 SK= 0.42E-01
 bond charge predicted
 prediction of wavefunctions
       N       E                     dE             d eps       ncg     rms          rms(c)
DAV:   1    -0.101952684673E+03   -0.63052E-01   -0.34589E-03   180   0.209E-01    0.689E-03
RMM:   2    -0.101952734744E+03   -0.50071E-04   -0.52513E-04   120   0.616E-02
    193 T=   621. E= -.89499939E+02 F= -.10195273E+03 E0= -.10195964E+03  EK= 0.42556E+01 SP= 0.82E+01 SK= 0.46E-01
 bond charge predicted
 prediction of wavefunctions
       N       E                     dE             d eps       ncg     rms          rms(c)
DAV:   1    -0.102016915784E+03   -0.64231E-01   -0.36287E-03   168   0.250E-01    0.882E-03
RMM:   2    -0.102017086099E+03   -0.17031E-03   -0.17352E-03   120   0.118E-01    0.652E-03
RMM:   3    -0.102017106116E+03   -0.20018E-04   -0.19810E-04    76   0.410E-02
    194 T=   616. E= -.89499751E+02 F= -.10201711E+03 E0= -.10202503E+03  EK= 0.42183E+01 SP= 0.82E+01 SK= 0.50E-01
 bond charge predicted
 prediction of wavefunctions
       N       E                     dE             d eps       ncg     rms          rms(c)
DAV:   1    -0.102080272459E+03   -0.63186E-01   -0.42661E-03   180   0.223E-01    0.123E-02
RMM:   2    -0.102080339231E+03   -0.66772E-04   -0.78496E-04   120   0.802E-02
    195 T=   610. E= -.89499281E+02 F= -.10208034E+03 E0= -.10208903E+03  EK= 0.41781E+01 SP= 0.84E+01 SK= 0.52E-01
 bond charge predicted
 prediction of wavefunctions
       N       E                     dE             d eps       ncg     rms          rms(c)
DAV:   1    -0.102139957305E+03   -0.59685E-01   -0.61580E-03   180   0.256E-01    0.139E-02
RMM:   2    -0.102140126647E+03   -0.16934E-03   -0.18185E-03   120   0.123E-01    0.838E-03
RMM:   3    -0.102140148085E+03   -0.21438E-04   -0.22700E-04    80   0.440E-02
    196 T=   603. E= -.89498848E+02 F= -.10214015E+03 E0= -.10214921E+03  EK= 0.41336E+01 SP= 0.85E+01 SK= 0.53E-01
 bond charge predicted
 prediction of wavefunctions
       N       E                     dE             d eps       ncg     rms          rms(c)
DAV:   1    -0.102194026336E+03   -0.53900E-01   -0.57197E-03   156   0.222E-01    0.124E-02
RMM:   2    -0.102194084752E+03   -0.58417E-04   -0.69097E-04   120   0.753E-02
    197 T=   596. E= -.89498492E+02 F= -.10219408E+03 E0= -.10220328E+03  EK= 0.40835E+01 SP= 0.86E+01 SK= 0.54E-01
 bond charge predicted
 prediction of wavefunctions
       N       E                     dE             d eps       ncg     rms          rms(c)
DAV:   1    -0.102239499903E+03   -0.45474E-01   -0.73589E-03   216   0.255E-01    0.138E-02
RMM:   2    -0.102239656064E+03   -0.15616E-03   -0.16636E-03   120   0.119E-01    0.812E-03
RMM:   3    -0.102239669537E+03   -0.13473E-04   -0.14048E-04    66   0.353E-02
    198 T=   588. E= -.89498343E+02 F= -.10223967E+03 E0= -.10224882E+03  EK= 0.40268E+01 SP= 0.87E+01 SK= 0.52E-01
 bond charge predicted
 prediction of wavefunctions
       N       E                     dE             d eps       ncg     rms          rms(c)
DAV:   1    -0.102273906187E+03   -0.34250E-01   -0.54233E-03   180   0.225E-01    0.593E-03
RMM:   2    -0.102273969671E+03   -0.63483E-04   -0.65975E-04   120   0.704E-02
    199 T=   578. E= -.89498211E+02 F= -.10227397E+03 E0= -.10228298E+03  EK= 0.39621E+01 SP= 0.88E+01 SK= 0.50E-01
 bond charge predicted
 prediction of wavefunctions
       N       E                     dE             d eps       ncg     rms          rms(c)
DAV:   1    -0.102294582523E+03   -0.20676E-01   -0.58225E-03   144   0.254E-01    0.129E-02
RMM:   2    -0.102294727188E+03   -0.14467E-03   -0.15982E-03   120   0.115E-01    0.851E-03
RMM:   3    -0.102294740376E+03   -0.13187E-04   -0.18722E-04    74   0.400E-02
    200 T=   568. E= -.89497892E+02 F= -.10229474E+03 E0= -.10230343E+03  EK= 0.38891E+01 SP= 0.89E+01 SK= 0.46E-01
 bond charge predicted
 prediction of wavefunctions
       N       E                     dE             d eps       ncg     rms          rms(c)
DAV:   1    -0.102300875527E+03   -0.61483E-02   -0.51229E-03   168   0.229E-01    0.685E-03
RMM:   2    -0.102300942180E+03   -0.66653E-04   -0.70629E-04   120   0.755E-02
    201 T=   556. E= -.89497578E+02 F= -.10230094E+03 E0= -.10230908E+03  EK= 0.38084E+01 SP= 0.90E+01 SK= 0.40E-01
 bond charge predicted
 prediction of wavefunctions
       N       E                     dE             d eps       ncg     rms          rms(c)
DAV:   1    -0.102291769723E+03    0.91058E-02   -0.54099E-03   168   0.251E-01    0.128E-02
RMM:   2    -0.102291919435E+03   -0.14971E-03   -0.16269E-03   120   0.115E-01    0.812E-03
RMM:   3    -0.102291939158E+03   -0.19724E-04   -0.22358E-04    82   0.440E-02
    202 T=   543. E= -.89497142E+02 F= -.10229194E+03 E0= -.10229946E+03  EK= 0.37211E+01 SP= 0.90E+01 SK= 0.33E-01
 bond charge predicted
 prediction of wavefunctions
       N       E                     dE             d eps       ncg     rms          rms(c)
DAV:   1    -0.102268301564E+03    0.23618E-01   -0.47294E-03   156   0.225E-01    0.965E-03
RMM:   2    -0.102268362743E+03   -0.61179E-04   -0.68097E-04   120   0.744E-02
    203 T=   530. E= -.89496671E+02 F= -.10226836E+03 E0= -.10227535E+03  EK= 0.36297E+01 SP= 0.91E+01 SK= 0.25E-01
 bond charge predicted
 prediction of wavefunctions
       N       E                     dE             d eps       ncg     rms          rms(c)
DAV:   1    -0.102231299517E+03    0.37002E-01   -0.51307E-03   156   0.243E-01    0.122E-02
RMM:   2    -0.102231428280E+03   -0.12876E-03   -0.14110E-03   120   0.110E-01    0.737E-03
RMM:   3    -0.102231441535E+03   -0.13255E-04   -0.15725E-04    73   0.376E-02
    204 T=   516. E= -.89496299E+02 F= -.10223144E+03 E0= -.10223807E+03  EK= 0.35368E+01 SP= 0.92E+01 SK= 0.17E-01
 bond charge predicted
 prediction of wavefunctions
       N       E                     dE             d eps       ncg     rms          rms(c)
DAV:   1    -0.102182844146E+03    0.48584E-01   -0.46185E-03   156   0.216E-01    0.976E-03
RMM:   2    -0.102182893315E+03   -0.49169E-04   -0.56336E-04   119   0.676E-02
    205 T=   503. E= -.89495905E+02 F= -.10218289E+03 E0= -.10218936E+03  EK= 0.34456E+01 SP= 0.92E+01 SK= 0.91E-02
 bond charge predicted
 prediction of wavefunctions
       N       E                     dE             d eps       ncg     rms          rms(c)
DAV:   1    -0.102125598044E+03    0.57246E-01   -0.53084E-03   168   0.236E-01    0.103E-02
RMM:   2    -0.102125733273E+03   -0.13523E-03   -0.14387E-03   120   0.106E-01    0.584E-03
RMM:   3    -0.102125752028E+03   -0.18755E-04   -0.19151E-04    73   0.405E-02
    206 T=   491. E= -.89495456E+02 F= -.10212575E+03 E0= -.10213221E+03  EK= 0.33604E+01 SP= 0.93E+01 SK= 0.32E-02
 bond charge predicted
 prediction of wavefunctions
       N       E                     dE             d eps       ncg     rms          rms(c)
DAV:   1    -0.102064195500E+03    0.61538E-01   -0.54913E-03   132   0.212E-01    0.869E-03
RMM:   2    -0.102064255939E+03   -0.60439E-04   -0.66362E-04   120   0.751E-02
    207 T=   480. E= -.89495047E+02 F= -.10206426E+03 E0= -.10207084E+03  EK= 0.32864E+01 SP= 0.93E+01 SK= 0.20E-03
 bond charge predicted
 prediction of wavefunctions
       N       E                     dE             d eps       ncg     rms          rms(c)
DAV:   1    -0.102002464253E+03    0.61731E-01   -0.68011E-03   192   0.235E-01    0.940E-03
RMM:   2    -0.102002597268E+03   -0.13301E-03   -0.13939E-03   120   0.109E-01    0.634E-03
RMM:   3    -0.102002612517E+03   -0.15250E-04   -0.15854E-04    71   0.378E-02
    208 T=   471. E= -.89494593E+02 F= -.10200261E+03 E0= -.10200940E+03  EK= 0.32285E+01 SP= 0.93E+01 SK= 0.11E-02
 bond charge predicted
 prediction of wavefunctions
       N       E                     dE             d eps       ncg     rms          rms(c)
DAV:   1    -0.101945564728E+03    0.57033E-01   -0.59075E-03   156   0.209E-01    0.745E-03
RMM:   2    -0.101945622711E+03   -0.57983E-04   -0.62209E-04   120   0.725E-02
    209 T=   466. E= -.89494201E+02 F= -.10194562E+03 E0= -.10195270E+03  EK= 0.31919E+01 SP= 0.93E+01 SK= 0.67E-02
 bond charge predicted
 prediction of wavefunctions
       N       E                     dE             d eps       ncg     rms          rms(c)
DAV:   1    -0.101897986355E+03    0.47578E-01   -0.60229E-03   168   0.235E-01    0.112E-02
RMM:   2    -0.101898122116E+03   -0.13576E-03   -0.14545E-03   120   0.110E-01    0.636E-03
RMM:   3    -0.101898139439E+03   -0.17323E-04   -0.18057E-04    70   0.405E-02
    210 T=   465. E= -.89493736E+02 F= -.10189814E+03 E0= -.10190559E+03  EK= 0.31823E+01 SP= 0.92E+01 SK= 0.17E-01
 bond charge predicted
 prediction of wavefunctions
       N       E                     dE             d eps       ncg     rms          rms(c)
DAV:   1    -0.101864477431E+03    0.33645E-01   -0.53635E-03   192   0.213E-01    0.808E-03
RMM:   2    -0.101864532610E+03   -0.55179E-04   -0.60480E-04   120   0.740E-02
    211 T=   468. E= -.89493342E+02 F= -.10186453E+03 E0= -.10187248E+03  EK= 0.32041E+01 SP= 0.91E+01 SK= 0.33E-01
 bond charge predicted
 prediction of wavefunctions
       N       E                     dE             d eps       ncg     rms          rms(c)
DAV:   1    -0.101847434742E+03    0.17043E-01   -0.53013E-03   168   0.238E-01    0.107E-02
RMM:   2    -0.101847559449E+03   -0.12471E-03   -0.13316E-03   120   0.108E-01    0.660E-03
RMM:   3    -0.101847577192E+03   -0.17743E-04   -0.19024E-04    73   0.417E-02
    212 T=   476. E= -.89493041E+02 F= -.10184758E+03 E0= -.10185608E+03  EK= 0.32606E+01 SP= 0.90E+01 SK= 0.53E-01
 bond charge predicted
 prediction of wavefunctions
       N       E                     dE             d eps       ncg     rms          rms(c)
DAV:   1    -0.101847634407E+03   -0.74957E-04   -0.46746E-03   144   0.222E-01    0.813E-03
RMM:   2    -0.101847696811E+03   -0.62404E-04   -0.67372E-04   120   0.803E-02
    213 T=   489. E= -.89492672E+02 F= -.10184770E+03 E0= -.10185674E+03  EK= 0.33526E+01 SP= 0.89E+01 SK= 0.75E-01
 bond charge predicted
 prediction of wavefunctions
       N       E                     dE             d eps       ncg     rms          rms(c)
DAV:   1    -0.101863229622E+03   -0.15595E-01   -0.53339E-03   168   0.253E-01    0.118E-02
RMM:   2    -0.101863378434E+03   -0.14881E-03   -0.15824E-03   120   0.116E-01    0.671E-03
RMM:   3    -0.101863397625E+03   -0.19191E-04   -0.19335E-04    74   0.415E-02
    214 T=   508. E= -.89492474E+02 F= -.10186340E+03 E0= -.10187287E+03  EK= 0.34784E+01 SP= 0.88E+01 SK= 0.98E-01
 bond charge predicted
 prediction of wavefunctions
       N       E                     dE             d eps       ncg     rms          rms(c)
DAV:   1    -0.101890803101E+03   -0.27425E-01   -0.47659E-03   168   0.232E-01    0.787E-03
RMM:   2    -0.101890863491E+03   -0.60390E-04   -0.64792E-04   120   0.781E-02
    215 T=   530. E= -.89492499E+02 F= -.10189086E+03 E0= -.10190063E+03  EK= 0.36337E+01 SP= 0.86E+01 SK= 0.12E+00
 bond charge predicted
 prediction of wavefunctions
       N       E                     dE             d eps       ncg     rms          rms(c)
DAV:   1    -0.101924017554E+03   -0.33214E-01   -0.52792E-03   168   0.265E-01    0.109E-02
RMM:   2    -0.101924168823E+03   -0.15127E-03   -0.15841E-03   120   0.118E-01    0.685E-03
RMM:   3    -0.101924188422E+03   -0.19599E-04   -0.20104E-04    72   0.421E-02
    216 T=   556. E= -.89492642E+02 F= -.10192419E+03 E0= -.10193414E+03  EK= 0.38111E+01 SP= 0.85E+01 SK= 0.13E+00
 bond charge predicted
 prediction of wavefunctions
       N       E                     dE             d eps       ncg     rms          rms(c)
DAV:   1    -0.101955813578E+03   -0.31645E-01   -0.46235E-03   120   0.248E-01    0.819E-03
RMM:   2    -0.101955888599E+03   -0.75021E-04   -0.79785E-04   120   0.876E-02
    217 T=   584. E= -.89492804E+02 F= -.10195589E+03 E0= -.10196602E+03  EK= 0.40010E+01 SP= 0.83E+01 SK= 0.14E+00
 bond charge predicted
 prediction of wavefunctions
       N       E                     dE             d eps       ncg     rms          rms(c)
DAV:   1    -0.101977936098E+03   -0.22123E-01   -0.57964E-03   156   0.285E-01    0.132E-02
RMM:   2    -0.101978118097E+03   -0.18200E-03   -0.19269E-03   120   0.129E-01    0.821E-03
RMM:   3    -0.101978139296E+03   -0.21199E-04   -0.22669E-04    84   0.454E-02
    218 T=   612. E= -.89493191E+02 F= -.10197814E+03 E0= -.10198844E+03  EK= 0.41915E+01 SP= 0.82E+01 SK= 0.14E+00
 bond charge predicted
 prediction of wavefunctions
       N       E                     dE             d eps       ncg     rms          rms(c)
DAV:   1    -0.101983008545E+03   -0.48904E-02   -0.36442E-03   144   0.262E-01    0.858E-03
RMM:   2    -0.101983111654E+03   -0.10311E-03   -0.10817E-03   120   0.920E-02    0.579E-03
RMM:   3    -0.101983129713E+03   -0.18060E-04   -0.19610E-04    85   0.384E-02
    219 T=   638. E= -.89493719E+02 F= -.10198313E+03 E0= -.10199346E+03  EK= 0.43700E+01 SP= 0.80E+01 SK= 0.13E+00
 bond charge predicted
 prediction of wavefunctions
       N       E                     dE             d eps       ncg     rms          rms(c)
DAV:   1    -0.101964248249E+03    0.18863E-01   -0.53324E-03   168   0.269E-01    0.113E-02
RMM:   2    -0.101964378038E+03   -0.12979E-03   -0.13728E-03   120   0.101E-01    0.693E-03
RMM:   3    -0.101964397694E+03   -0.19656E-04   -0.21209E-04    85   0.406E-02
    220 T=   660. E= -.89494135E+02 F= -.10196440E+03 E0= -.10197432E+03  EK= 0.45246E+01 SP= 0.78E+01 SK= 0.12E+00
Information: wavefunction orthogonal band   60  0.6830
 bond charge predicted
 prediction of wavefunctions
       N       E                     dE             d eps       ncg     rms          rms(c)
DAV:   1    -0.101918018903E+03    0.46359E-01   -0.54057E-03   156   0.284E-01    0.749E-03
RMM:   2    -0.101918164763E+03   -0.14586E-03   -0.14914E-03   120   0.109E-01    0.568E-03
RMM:   3    -0.101918180353E+03   -0.15590E-04   -0.15355E-04    77   0.355E-02
    221 T=   678. E= -.89494370E+02 F= -.10191818E+03 E0= -.10192717E+03  EK= 0.46456E+01 SP= 0.77E+01 SK= 0.10E+00
 bond charge predicted
 prediction of wavefunctions
       N       E                     dE             d eps       ncg     rms          rms(c)
DAV:   1    -0.101844115077E+03    0.74050E-01   -0.60278E-03   192   0.282E-01    0.135E-02
RMM:   2    -0.101844242897E+03   -0.12782E-03   -0.14118E-03   120   0.103E-01    0.814E-03
RMM:   3    -0.101844257691E+03   -0.14794E-04   -0.17508E-04    86   0.363E-02
    222 T=   690. E= -.89494463E+02 F= -.10184426E+03 E0= -.10185221E+03  EK= 0.47275E+01 SP= 0.75E+01 SK= 0.82E-01
 bond charge predicted
 prediction of wavefunctions
       N       E                     dE             d eps       ncg     rms          rms(c)
DAV:   1    -0.101745629999E+03    0.98613E-01   -0.58493E-03   192   0.280E-01    0.943E-03
RMM:   2    -0.101745752409E+03   -0.12241E-03   -0.12709E-03   120   0.107E-01    0.590E-03
RMM:   3    -0.101745768607E+03   -0.16198E-04   -0.16414E-04    77   0.379E-02
    223 T=   696. E= -.89494124E+02 F= -.10174577E+03 E0= -.10175294E+03  EK= 0.47694E+01 SP= 0.74E+01 SK= 0.63E-01
 bond charge predicted
 prediction of wavefunctions
       N       E                     dE             d eps       ncg     rms          rms(c)
DAV:   1    -0.101628761318E+03    0.11699E+00   -0.46327E-03   204   0.276E-01    0.749E-03
RMM:   2    -0.101628874085E+03   -0.11277E-03   -0.11451E-03   120   0.105E-01    0.539E-03
RMM:   3    -0.101628886290E+03   -0.12205E-04   -0.12363E-04    66   0.336E-02
    224 T=   697. E= -.89493514E+02 F= -.10162889E+03 E0= -.10163554E+03  EK= 0.47746E+01 SP= 0.73E+01 SK= 0.45E-01
 bond charge predicted
 prediction of wavefunctions
       N       E                     dE             d eps       ncg     rms          rms(c)
DAV:   1    -0.101501496834E+03    0.12738E+00   -0.40865E-03   168   0.271E-01    0.943E-03
RMM:   2    -0.101501604431E+03   -0.10760E-03   -0.11141E-03   120   0.101E-01    0.652E-03
RMM:   3    -0.101501617792E+03   -0.13362E-04   -0.14477E-04    72   0.346E-02
    225 T=   693. E= -.89492869E+02 F= -.10150162E+03 E0= -.10150782E+03  EK= 0.47499E+01 SP= 0.72E+01 SK= 0.31E-01
 bond charge predicted
 prediction of wavefunctions
       N       E                     dE             d eps       ncg     rms          rms(c)
DAV:   1    -0.101372527655E+03    0.12908E+00   -0.40673E-03   204   0.270E-01    0.686E-03
RMM:   2    -0.101372648415E+03   -0.12076E-03   -0.12249E-03   120   0.106E-01    0.476E-03
RMM:   3    -0.101372662262E+03   -0.13847E-04   -0.13711E-04    69   0.341E-02
    226 T=   687. E= -.89492159E+02 F= -.10137266E+03 E0= -.10137826E+03  EK= 0.47043E+01 SP= 0.72E+01 SK= 0.20E-01
 bond charge predicted
 prediction of wavefunctions
       N       E                     dE             d eps       ncg     rms          rms(c)
DAV:   1    -0.101249899527E+03    0.12275E+00   -0.47452E-03   192   0.266E-01    0.772E-03
RMM:   2    -0.101250026964E+03   -0.12744E-03   -0.12976E-03   120   0.107E-01    0.547E-03
RMM:   3    -0.101250043069E+03   -0.16105E-04   -0.15862E-04    69   0.372E-02
    227 T=   678. E= -.89491406E+02 F= -.10125004E+03 E0= -.10125480E+03  EK= 0.46471E+01 SP= 0.71E+01 SK= 0.12E-01
 bond charge predicted
 prediction of wavefunctions
       N       E                     dE             d eps       ncg     rms          rms(c)
DAV:   1    -0.101141515997E+03    0.10851E+00   -0.50713E-03   204   0.263E-01    0.109E-02
RMM:   2    -0.101141649079E+03   -0.13308E-03   -0.14176E-03   120   0.110E-01    0.707E-03
RMM:   3    -0.101141664368E+03   -0.15289E-04   -0.16553E-04    82   0.380E-02
    228 T=   670. E= -.89490721E+02 F= -.10114166E+03 E0= -.10114558E+03  EK= 0.45881E+01 SP= 0.71E+01 SK= 0.67E-02
 bond charge predicted
 prediction of wavefunctions
       N       E                     dE             d eps       ncg     rms          rms(c)
DAV:   1    -0.101054589891E+03    0.87059E-01   -0.51839E-03   216   0.256E-01    0.914E-03
RMM:   2    -0.101054726826E+03   -0.13694E-03   -0.14167E-03   120   0.106E-01    0.563E-03
RMM:   3    -0.101054742646E+03   -0.15819E-04   -0.15484E-04    72   0.363E-02
    229 T=   662. E= -.89490134E+02 F= -.10105474E+03 E0= -.10105804E+03  EK= 0.45364E+01 SP= 0.70E+01 SK= 0.32E-02
 bond charge predicted
 prediction of wavefunctions
       N       E                     dE             d eps       ncg     rms          rms(c)
DAV:   1    -0.100993986314E+03    0.60741E-01   -0.55917E-03   216   0.246E-01    0.626E-03
RMM:   2    -0.100994112113E+03   -0.12580E-03   -0.12643E-03   120   0.103E-01    0.495E-03
RMM:   3    -0.100994127510E+03   -0.15397E-04   -0.14565E-04    71   0.358E-02
    230 T=   657. E= -.89489534E+02 F= -.10099413E+03 E0= -.10099703E+03  EK= 0.44988E+01 SP= 0.70E+01 SK= 0.11E-02
 bond charge predicted
 prediction of wavefunctions
       N       E                     dE             d eps       ncg     rms          rms(c)
DAV:   1    -0.100963319250E+03    0.30793E-01   -0.61889E-03   204   0.242E-01    0.833E-03
RMM:   2    -0.100963444280E+03   -0.12503E-03   -0.12668E-03   120   0.104E-01    0.637E-03
RMM:   3    -0.100963459508E+03   -0.15227E-04   -0.14946E-04    69   0.361E-02
    231 T=   654. E= -.89489250E+02 F= -.10096346E+03 E0= -.10096611E+03  EK= 0.44798E+01 SP= 0.70E+01 SK= 0.16E-03
 bond charge predicted
 prediction of wavefunctions
       N       E                     dE             d eps       ncg     rms          rms(c)
DAV:   1    -0.100963838227E+03   -0.39395E-03   -0.74041E-03   204   0.243E-01    0.579E-03
RMM:   2    -0.100963981323E+03   -0.14310E-03   -0.14350E-03   120   0.105E-01    0.378E-03
RMM:   3    -0.100964001560E+03   -0.20237E-04   -0.18244E-04    75   0.383E-02
    232 T=   654. E= -.89489057E+02 F= -.10096400E+03 E0= -.10096649E+03  EK= 0.44817E+01 SP= 0.70E+01 SK= 0.65E-04
Information: wavefunction orthogonal band   60  0.8574
 bond charge predicted
 prediction of wavefunctions
       N       E                     dE             d eps       ncg     rms          rms(c)
DAV:   1    -0.100994767751E+03   -0.30786E-01   -0.68236E-03   168   0.244E-01    0.698E-03
RMM:   2    -0.100994890404E+03   -0.12265E-03   -0.12238E-03   120   0.100E-01    0.556E-03
RMM:   3    -0.100994904999E+03   -0.14595E-04   -0.13711E-04    75   0.340E-02
    233 T=   657. E= -.89488930E+02 F= -.10099490E+03 E0= -.10099730E+03  EK= 0.45035E+01 SP= 0.70E+01 SK= 0.86E-03
 bond charge predicted
 prediction of wavefunctions
       N       E                     dE             d eps       ncg     rms          rms(c)
DAV:   1    -0.101053654014E+03   -0.58764E-01   -0.10445E-02   204   0.240E-01    0.730E-03
RMM:   2    -0.101053767333E+03   -0.11332E-03   -0.11425E-03   120   0.975E-02    0.571E-03
RMM:   3    -0.101053782240E+03   -0.14907E-04   -0.14513E-04    75   0.346E-02
    234 T=   663. E= -.89488885E+02 F= -.10105378E+03 E0= -.10105613E+03  EK= 0.45421E+01 SP= 0.70E+01 SK= 0.28E-02
 bond charge predicted
 prediction of wavefunctions
       N       E                     dE             d eps       ncg     rms          rms(c)
DAV:   1    -0.101136669494E+03   -0.82902E-01   -0.12038E-02   192   0.242E-01    0.586E-03
RMM:   2    -0.101136788563E+03   -0.11907E-03   -0.11935E-03   120   0.102E-01    0.392E-03
RMM:   3    -0.101136802318E+03   -0.13755E-04   -0.12508E-04    68   0.337E-02
    235 T=   670. E= -.89488854E+02 F= -.10113680E+03 E0= -.10113916E+03  EK= 0.45925E+01 SP= 0.70E+01 SK= 0.61E-02
 bond charge predicted
 prediction of wavefunctions
       N       E                     dE             d eps       ncg     rms          rms(c)
DAV:   1    -0.101238559704E+03   -0.10177E+00   -0.12842E-02   180   0.247E-01    0.604E-03
RMM:   2    -0.101238684254E+03   -0.12455E-03   -0.12440E-03   120   0.104E-01    0.444E-03
RMM:   3    -0.101238700823E+03   -0.16569E-04   -0.15198E-04    75   0.366E-02
    236 T=   678. E= -.89488944E+02 F= -.10123870E+03 E0= -.10124113E+03  EK= 0.46475E+01 SP= 0.71E+01 SK= 0.11E-01
 bond charge predicted
 prediction of wavefunctions
       N       E                     dE             d eps       ncg     rms          rms(c)
DAV:   1    -0.101352819381E+03   -0.11414E+00   -0.13042E-02   192   0.253E-01    0.706E-03
RMM:   2    -0.101352962326E+03   -0.14295E-03   -0.14346E-03   120   0.105E-01    0.541E-03
RMM:   3    -0.101352980623E+03   -0.18297E-04   -0.17142E-04    79   0.366E-02
    237 T=   686. E= -.89489205E+02 F= -.10135298E+03 E0= -.10135559E+03  EK= 0.46987E+01 SP= 0.71E+01 SK= 0.19E-01
 bond charge predicted
 prediction of wavefunctions
       N       E                     dE             d eps       ncg     rms          rms(c)
DAV:   1    -0.101472094360E+03   -0.11913E+00   -0.13880E-02   192   0.257E-01    0.654E-03
RMM:   2    -0.101472217977E+03   -0.12362E-03   -0.12447E-03   120   0.103E-01    0.518E-03
RMM:   3    -0.101472234478E+03   -0.16501E-04   -0.15716E-04    74   0.371E-02
    238 T=   692. E= -.89489232E+02 F= -.10147223E+03 E0= -.10147523E+03  EK= 0.47375E+01 SP= 0.72E+01 SK= 0.30E-01
 bond charge predicted
 prediction of wavefunctions
       N       E                     dE             d eps       ncg     rms          rms(c)
DAV:   1    -0.101589447286E+03   -0.11723E+00   -0.12166E-02   180   0.258E-01    0.666E-03
RMM:   2    -0.101589566832E+03   -0.11955E-03   -0.12089E-03   120   0.102E-01    0.475E-03
RMM:   3    -0.101589581636E+03   -0.14804E-04   -0.14122E-04    73   0.351E-02
    239 T=   694. E= -.89489090E+02 F= -.10158958E+03 E0= -.10159332E+03  EK= 0.47559E+01 SP= 0.73E+01 SK= 0.43E-01
 bond charge predicted
 prediction of wavefunctions
       N       E                     dE             d eps       ncg     rms          rms(c)
DAV:   1    -0.101698849885E+03   -0.10928E+00   -0.12020E-02   192   0.260E-01    0.695E-03
RMM:   2    -0.101698954357E+03   -0.10447E-03   -0.10577E-03   120   0.972E-02    0.509E-03
RMM:   3    -0.101698966509E+03   -0.12152E-04   -0.12069E-04    69   0.321E-02
    240 T=   693. E= -.89488791E+02 F= -.10169897E+03 E0= -.10170387E+03  EK= 0.47476E+01 SP= 0.74E+01 SK= 0.59E-01
 bond charge predicted
 prediction of wavefunctions
       N       E                     dE             d eps       ncg     rms          rms(c)
DAV:   1    -0.101795791180E+03   -0.96837E-01   -0.12251E-02   192   0.262E-01    0.145E-02
RMM:   2    -0.101795876512E+03   -0.85332E-04   -0.10508E-03   120   0.947E-02    0.890E-03
RMM:   3    -0.101795883751E+03   -0.72395E-05   -0.13821E-04    73   0.320E-02
    241 T=   687. E= -.89488131E+02 F= -.10179588E+03 E0= -.10180175E+03  EK= 0.47094E+01 SP= 0.75E+01 SK= 0.78E-01
 bond charge predicted
 prediction of wavefunctions
       N       E                     dE             d eps       ncg     rms          rms(c)
DAV:   1    -0.101878477323E+03   -0.82601E-01   -0.13849E-02   204   0.260E-01    0.229E-02
RMM:   2    -0.101878545341E+03   -0.68018E-04   -0.11191E-03   120   0.978E-02    0.125E-02
RMM:   3    -0.101878548928E+03   -0.35868E-05   -0.14852E-04    76   0.339E-02
    242 T=   678. E= -.89487346E+02 F= -.10187855E+03 E0= -.10188470E+03  EK= 0.46415E+01 SP= 0.77E+01 SK= 0.96E-01
 bond charge predicted
 prediction of wavefunctions
       N       E                     dE             d eps       ncg     rms          rms(c)
DAV:   1    -0.101947393660E+03   -0.68848E-01   -0.12978E-02   216   0.251E-01    0.138E-02
RMM:   2    -0.101947481202E+03   -0.87542E-04   -0.10393E-03   120   0.933E-02    0.808E-03
RMM:   3    -0.101947490271E+03   -0.90690E-05   -0.14171E-04    75   0.333E-02
    243 T=   664. E= -.89486525E+02 F= -.10194749E+03 E0= -.10195372E+03  EK= 0.45477E+01 SP= 0.78E+01 SK= 0.11E+00
 bond charge predicted
 prediction of wavefunctions
       N       E                     dE             d eps       ncg     rms          rms(c)
DAV:   1    -0.102004184987E+03   -0.56704E-01   -0.13032E-02   216   0.250E-01    0.166E-02
RMM:   2    -0.102004281511E+03   -0.96524E-04   -0.11380E-03   120   0.971E-02    0.949E-03
RMM:   3    -0.102004291504E+03   -0.99930E-05   -0.13914E-04    74   0.336E-02
    244 T=   647. E= -.89485721E+02 F= -.10200429E+03 E0= -.10201061E+03  EK= 0.44334E+01 SP= 0.80E+01 SK= 0.13E+00
 bond charge predicted
 prediction of wavefunctions
       N       E                     dE             d eps       ncg     rms          rms(c)
DAV:   1    -0.102050928356E+03   -0.46647E-01   -0.10737E-02   192   0.248E-01    0.903E-03
RMM:   2    -0.102051040734E+03   -0.11238E-03   -0.11748E-03   120   0.924E-02    0.582E-03
RMM:   3    -0.102051057809E+03   -0.17075E-04   -0.17380E-04    82   0.358E-02
    245 T=   628. E= -.89484922E+02 F= -.10205106E+03 E0= -.10205744E+03  EK= 0.43050E+01 SP= 0.81E+01 SK= 0.14E+00
 bond charge predicted
 prediction of wavefunctions
       N       E                     dE             d eps       ncg     rms          rms(c)
DAV:   1    -0.102090866472E+03   -0.39826E-01   -0.94559E-03   204   0.246E-01    0.756E-03
RMM:   2    -0.102090967401E+03   -0.10093E-03   -0.10415E-03   120   0.946E-02    0.534E-03
RMM:   3    -0.102090980414E+03   -0.13013E-04   -0.13257E-04    77   0.339E-02
    246 T=   609. E= -.89484192E+02 F= -.10209098E+03 E0= -.10209726E+03  EK= 0.41699E+01 SP= 0.83E+01 SK= 0.15E+00
 bond charge predicted
 prediction of wavefunctions
       N       E                     dE             d eps       ncg     rms          rms(c)
DAV:   1    -0.102127675705E+03   -0.36708E-01   -0.72990E-03   204   0.242E-01    0.595E-03
RMM:   2    -0.102127764149E+03   -0.88444E-04   -0.90110E-04   120   0.883E-02
    247 T=   589. E= -.89483482E+02 F= -.10212776E+03 E0= -.10213377E+03  EK= 0.40357E+01 SP= 0.85E+01 SK= 0.15E+00
 bond charge predicted
 prediction of wavefunctions
       N       E                     dE             d eps       ncg     rms          rms(c)
DAV:   1    -0.102164574875E+03   -0.36899E-01   -0.63010E-03   156   0.263E-01    0.109E-02
RMM:   2    -0.102164744725E+03   -0.16985E-03   -0.17699E-03   120   0.121E-01    0.761E-03
RMM:   3    -0.102164765640E+03   -0.20915E-04   -0.21436E-04    78   0.416E-02
    248 T=   571. E= -.89482755E+02 F= -.10216477E+03 E0= -.10217045E+03  EK= 0.39088E+01 SP= 0.86E+01 SK= 0.14E+00
 bond charge predicted
 prediction of wavefunctions
       N       E                     dE             d eps       ncg     rms          rms(c)
DAV:   1    -0.102205017912E+03   -0.40273E-01   -0.51102E-03   180   0.228E-01    0.530E-03
RMM:   2    -0.102205080167E+03   -0.62255E-04   -0.63687E-04   120   0.681E-02
    249 T=   554. E= -.89482013E+02 F= -.10220508E+03 E0= -.10221051E+03  EK= 0.37947E+01 SP= 0.88E+01 SK= 0.13E+00
 bond charge predicted
 prediction of wavefunctions
       N       E                     dE             d eps       ncg     rms          rms(c)
DAV:   1    -0.102251034173E+03   -0.46016E-01   -0.69159E-03   180   0.253E-01    0.800E-03
RMM:   2    -0.102251188838E+03   -0.15466E-03   -0.15700E-03   120   0.118E-01    0.580E-03
RMM:   3    -0.102251204785E+03   -0.15947E-04   -0.15064E-04    70   0.366E-02
    250 T=   540. E= -.89481535E+02 F= -.10225120E+03 E0= -.10225647E+03  EK= 0.36974E+01 SP= 0.90E+01 SK= 0.12E+00
 bond charge predicted
 prediction of wavefunctions
       N       E                     dE             d eps       ncg     rms          rms(c)
DAV:   1    -0.102304172599E+03   -0.52984E-01   -0.42464E-03   180   0.218E-01    0.474E-03
RMM:   2    -0.102304226963E+03   -0.54364E-04   -0.55646E-04   119   0.606E-02
    251 T=   528. E= -.89481217E+02 F= -.10230423E+03 E0= -.10230941E+03  EK= 0.36192E+01 SP= 0.91E+01 SK= 0.10E+00
 bond charge predicted
 prediction of wavefunctions
       N       E                     dE             d eps       ncg     rms          rms(c)
DAV:   1    -0.102364928737E+03   -0.60756E-01   -0.45781E-03   204   0.243E-01    0.775E-03
RMM:   2    -0.102365067646E+03   -0.13891E-03   -0.14180E-03   120   0.109E-01    0.555E-03
RMM:   3    -0.102365083841E+03   -0.16195E-04   -0.15664E-04    76   0.364E-02
    252 T=   520. E= -.89481024E+02 F= -.10236508E+03 E0= -.10237025E+03  EK= 0.35615E+01 SP= 0.92E+01 SK= 0.83E-01
 bond charge predicted
 prediction of wavefunctions
       N       E                     dE             d eps       ncg     rms          rms(c)
DAV:   1    -0.102433450026E+03   -0.68382E-01   -0.43578E-03   180   0.220E-01    0.519E-03
RMM:   2    -0.102433536708E+03   -0.86682E-04   -0.88435E-04   120   0.733E-02
    253 T=   514. E= -.89480806E+02 F= -.10243354E+03 E0= -.10243876E+03  EK= 0.35245E+01 SP= 0.94E+01 SK= 0.66E-01
 bond charge predicted
 prediction of wavefunctions
       N       E                     dE             d eps       ncg     rms          rms(c)
DAV:   1    -0.102508432381E+03   -0.74982E-01   -0.65697E-03   192   0.250E-01    0.848E-03
RMM:   2    -0.102508592651E+03   -0.16027E-03   -0.16319E-03   120   0.119E-01    0.623E-03
RMM:   3    -0.102508610369E+03   -0.17718E-04   -0.16342E-04    73   0.387E-02
    254 T=   512. E= -.89480569E+02 F= -.10250861E+03 E0= -.10251397E+03  EK= 0.35072E+01 SP= 0.95E+01 SK= 0.50E-01
 bond charge predicted
 prediction of wavefunctions
       N       E                     dE             d eps       ncg     rms          rms(c)
DAV:   1    -0.102589151064E+03   -0.80558E-01   -0.46589E-03   180   0.226E-01    0.487E-03
RMM:   2    -0.102589242359E+03   -0.91295E-04   -0.93106E-04   119   0.763E-02
    255 T=   512. E= -.89480317E+02 F= -.10258924E+03 E0= -.10259479E+03  EK= 0.35082E+01 SP= 0.96E+01 SK= 0.37E-01
 bond charge predicted
 prediction of wavefunctions
       N       E                     dE             d eps       ncg     rms          rms(c)
DAV:   1    -0.102673632909E+03   -0.84482E-01   -0.58236E-03   216   0.256E-01    0.901E-03
RMM:   2    -0.102673819727E+03   -0.18682E-03   -0.19156E-03   120   0.122E-01    0.606E-03
RMM:   3    -0.102673839660E+03   -0.19933E-04   -0.18421E-04    85   0.394E-02
    256 T=   515. E= -.89480212E+02 F= -.10267384E+03 E0= -.10267966E+03  EK= 0.35254E+01 SP= 0.96E+01 SK= 0.25E-01
 bond charge predicted
 prediction of wavefunctions
       N       E                     dE             d eps       ncg     rms          rms(c)
DAV:   1    -0.102759943575E+03   -0.86124E-01   -0.65260E-03   180   0.233E-01    0.569E-03
RMM:   2    -0.102760041544E+03   -0.97969E-04   -0.10021E-03   120   0.809E-02    0.352E-03
RMM:   3    -0.102760063260E+03   -0.21716E-04   -0.21119E-04    78   0.374E-02
    257 T=   519. E= -.89480264E+02 F= -.10276006E+03 E0= -.10276624E+03  EK= 0.35559E+01 SP= 0.97E+01 SK= 0.16E-01
 bond charge predicted
 prediction of wavefunctions
       N       E                     dE             d eps       ncg     rms          rms(c)
DAV:   1    -0.102845376742E+03   -0.85335E-01   -0.48512E-03   204   0.230E-01    0.754E-03
RMM:   2    -0.102845449634E+03   -0.72892E-04   -0.75636E-04   120   0.832E-02
    258 T=   525. E= -.89480150E+02 F= -.10284545E+03 E0= -.10285207E+03  EK= 0.35970E+01 SP= 0.98E+01 SK= 0.98E-02
 bond charge predicted
 prediction of wavefunctions
       N       E                     dE             d eps       ncg     rms          rms(c)
DAV:   1    -0.102926752067E+03   -0.81375E-01   -0.52954E-03   192   0.257E-01    0.659E-03
RMM:   2    -0.102926908725E+03   -0.15666E-03   -0.15768E-03   120   0.118E-01    0.500E-03
RMM:   3    -0.102926930145E+03   -0.21420E-04   -0.20642E-04    80   0.414E-02
    259 T=   532. E= -.89479991E+02 F= -.10292693E+03 E0= -.10293409E+03  EK= 0.36447E+01 SP= 0.98E+01 SK= 0.52E-02
 bond charge predicted
 prediction of wavefunctions
       N       E                     dE             d eps       ncg     rms          rms(c)
DAV:   1    -0.103000584261E+03   -0.73676E-01   -0.46734E-03   180   0.230E-01    0.743E-03
RMM:   2    -0.103000634323E+03   -0.50061E-04   -0.52779E-04   119   0.664E-02
    260 T=   539. E= -.89479688E+02 F= -.10300063E+03 E0= -.10300848E+03  EK= 0.36944E+01 SP= 0.98E+01 SK= 0.23E-02
 bond charge predicted
 prediction of wavefunctions
       N       E                     dE             d eps       ncg     rms          rms(c)
DAV:   1    -0.103063021169E+03   -0.62437E-01   -0.51135E-03   192   0.259E-01    0.716E-03
RMM:   2    -0.103063159568E+03   -0.13840E-03   -0.13975E-03   120   0.111E-01    0.523E-03
RMM:   3    -0.103063173464E+03   -0.13896E-04   -0.13057E-04    67   0.341E-02
    261 T=   546. E= -.89479524E+02 F= -.10306317E+03 E0= -.10307190E+03  EK= 0.37416E+01 SP= 0.98E+01 SK= 0.75E-03
 bond charge predicted
 prediction of wavefunctions
       N       E                     dE             d eps       ncg     rms          rms(c)
DAV:   1    -0.103111139971E+03   -0.47980E-01   -0.47854E-03   180   0.233E-01    0.547E-03
RMM:   2    -0.103111180206E+03   -0.40235E-04   -0.41477E-04   120   0.569E-02
    262 T=   552. E= -.89479457E+02 F= -.10311118E+03 E0= -.10312094E+03  EK= 0.37822E+01 SP= 0.98E+01 SK= 0.75E-04
 bond charge predicted
 prediction of wavefunctions
       N       E                     dE             d eps       ncg     rms          rms(c)
DAV:   1    -0.103141464738E+03   -0.30325E-01   -0.50006E-03   192   0.262E-01    0.903E-03
RMM:   2    -0.103141603927E+03   -0.13919E-03   -0.14213E-03   120   0.113E-01    0.603E-03
RMM:   3    -0.103141621945E+03   -0.18017E-04   -0.17780E-04    76   0.389E-02
    263 T=   557. E= -.89479263E+02 F= -.10314162E+03 E0= -.10315229E+03  EK= 0.38128E+01 SP= 0.98E+01 SK= 0.64E-04
 bond charge predicted
 prediction of wavefunctions
       N       E                     dE             d eps       ncg     rms          rms(c)
DAV:   1    -0.103152750076E+03   -0.11146E-01   -0.45771E-03   180   0.240E-01    0.871E-03
RMM:   2    -0.103152810349E+03   -0.60273E-04   -0.64881E-04   120   0.763E-02
    264 T=   559. E= -.89478857E+02 F= -.10315281E+03 E0= -.10316388E+03  EK= 0.38309E+01 SP= 0.98E+01 SK= 0.55E-03
 bond charge predicted
 prediction of wavefunctions
       N       E                     dE             d eps       ncg     rms          rms(c)
DAV:   1    -0.103144462837E+03    0.82872E-02   -0.56104E-03   168   0.263E-01    0.122E-02
RMM:   2    -0.103144614682E+03   -0.15185E-03   -0.15992E-03   120   0.118E-01    0.749E-03
RMM:   3    -0.103144635290E+03   -0.20608E-04   -0.21445E-04    80   0.427E-02
    265 T=   560. E= -.89478401E+02 F= -.10314464E+03 E0= -.10315551E+03  EK= 0.38361E+01 SP= 0.98E+01 SK= 0.14E-02
 bond charge predicted
 prediction of wavefunctions
       N       E                     dE             d eps       ncg     rms          rms(c)
DAV:   1    -0.103117483839E+03    0.27131E-01   -0.58225E-03   180   0.230E-01    0.101E-02
RMM:   2    -0.103117540645E+03   -0.56806E-04   -0.63653E-04   119   0.717E-02
    266 T=   559. E= -.89477909E+02 F= -.10311754E+03 E0= -.10312784E+03  EK= 0.38287E+01 SP= 0.98E+01 SK= 0.28E-02
 bond charge predicted
 prediction of wavefunctions
       N       E                     dE             d eps       ncg     rms          rms(c)
DAV:   1    -0.103073142774E+03    0.44341E-01   -0.79618E-03   216   0.258E-01    0.135E-02
RMM:   2    -0.103073293771E+03   -0.15100E-03   -0.15988E-03   120   0.118E-01    0.826E-03
RMM:   3    -0.103073306634E+03   -0.12864E-04   -0.13996E-04    65   0.351E-02
    267 T=   556. E= -.89477460E+02 F= -.10307331E+03 E0= -.10308289E+03  EK= 0.38103E+01 SP= 0.98E+01 SK= 0.47E-02
 bond charge predicted
 prediction of wavefunctions
       N       E                     dE             d eps       ncg     rms          rms(c)
DAV:   1    -0.103014835512E+03    0.58458E-01   -0.71356E-03   204   0.227E-01    0.609E-03
RMM:   2    -0.103014900076E+03   -0.64564E-04   -0.67643E-04   120   0.726E-02
    268 T=   552. E= -.89476863E+02 F= -.10301490E+03 E0= -.10302382E+03  EK= 0.37844E+01 SP= 0.97E+01 SK= 0.72E-02
 bond charge predicted
 prediction of wavefunctions
       N       E                     dE             d eps       ncg     rms          rms(c)
DAV:   1    -0.102946243063E+03    0.68592E-01   -0.80156E-03   180   0.254E-01    0.996E-03
RMM:   2    -0.102946409839E+03   -0.16678E-03   -0.17285E-03   120   0.120E-01    0.675E-03
RMM:   3    -0.102946430184E+03   -0.20345E-04   -0.20720E-04    76   0.428E-02
    269 T=   548. E= -.89476323E+02 F= -.10294643E+03 E0= -.10295482E+03  EK= 0.37554E+01 SP= 0.97E+01 SK= 0.11E-01
 bond charge predicted
 prediction of wavefunctions
       N       E                     dE             d eps       ncg     rms          rms(c)
DAV:   1    -0.102872348726E+03    0.74061E-01   -0.82719E-03   168   0.220E-01    0.571E-03
RMM:   2    -0.102872413947E+03   -0.65221E-04   -0.67471E-04   120   0.759E-02
    270 T=   544. E= -.89475792E+02 F= -.10287241E+03 E0= -.10288041E+03  EK= 0.37285E+01 SP= 0.97E+01 SK= 0.15E-01
 bond charge predicted
 prediction of wavefunctions
       N       E                     dE             d eps       ncg     rms          rms(c)
DAV:   1    -0.102796909060E+03    0.75440E-01   -0.10231E-02   204   0.247E-01    0.993E-03
RMM:   2    -0.102797078910E+03   -0.16985E-03   -0.17597E-03   120   0.119E-01    0.651E-03
RMM:   3    -0.102797095932E+03   -0.17023E-04   -0.16571E-04    71   0.382E-02
    271 T=   541. E= -.89475196E+02 F= -.10279710E+03 E0= -.10280482E+03  EK= 0.37083E+01 SP= 0.96E+01 SK= 0.21E-01
 bond charge predicted
 prediction of wavefunctions
       N       E                     dE             d eps       ncg     rms          rms(c)
DAV:   1    -0.102724530488E+03    0.72548E-01   -0.98606E-03   180   0.212E-01    0.596E-03
RMM:   2    -0.102724610620E+03   -0.80132E-04   -0.81994E-04   120   0.797E-02
    272 T=   540. E= -.89474641E+02 F= -.10272461E+03 E0= -.10273217E+03  EK= 0.36996E+01 SP= 0.95E+01 SK= 0.28E-01
 bond charge predicted
 prediction of wavefunctions
       N       E                     dE             d eps       ncg     rms          rms(c)
DAV:   1    -0.102658632331E+03    0.65898E-01   -0.10684E-02   204   0.246E-01    0.113E-02
RMM:   2    -0.102658809706E+03   -0.17737E-03   -0.18609E-03   120   0.124E-01    0.755E-03
RMM:   3    -0.102658826472E+03   -0.16766E-04   -0.16915E-04    77   0.398E-02
    273 T=   541. E= -.89474411E+02 F= -.10265883E+03 E0= -.10266631E+03  EK= 0.37061E+01 SP= 0.94E+01 SK= 0.36E-01
 bond charge predicted
 prediction of wavefunctions
       N       E                     dE             d eps       ncg     rms          rms(c)
DAV:   1    -0.102601481067E+03    0.57329E-01   -0.10653E-02   216   0.215E-01    0.779E-03
RMM:   2    -0.102601560559E+03   -0.79492E-04   -0.84049E-04   120   0.775E-02
    274 T=   545. E= -.89474049E+02 F= -.10260156E+03 E0= -.10260906E+03  EK= 0.37304E+01 SP= 0.94E+01 SK= 0.44E-01
 bond charge predicted
 prediction of wavefunctions
       N       E                     dE             d eps       ncg     rms          rms(c)
DAV:   1    -0.102554255528E+03    0.47226E-01   -0.11513E-02   204   0.239E-01    0.120E-02
RMM:   2    -0.102554419952E+03   -0.16442E-03   -0.17492E-03   120   0.120E-01    0.686E-03
RMM:   3    -0.102554436939E+03   -0.16987E-04   -0.16691E-04    68   0.397E-02
    275 T=   551. E= -.89473804E+02 F= -.10255444E+03 E0= -.10256208E+03  EK= 0.37739E+01 SP= 0.93E+01 SK= 0.53E-01
 bond charge predicted
 prediction of wavefunctions
       N       E                     dE             d eps       ncg     rms          rms(c)
DAV:   1    -0.102517675838E+03    0.36744E-01   -0.10153E-02   168   0.214E-01    0.889E-03
RMM:   2    -0.102517764067E+03   -0.88229E-04   -0.94180E-04   120   0.831E-02
    276 T=   560. E= -.89473622E+02 F= -.10251776E+03 E0= -.10252569E+03  EK= 0.38366E+01 SP= 0.91E+01 SK= 0.60E-01
 bond charge predicted
 prediction of wavefunctions
       N       E                     dE             d eps       ncg     rms          rms(c)
DAV:   1    -0.102490340702E+03    0.27335E-01   -0.11676E-02   192   0.246E-01    0.128E-02
RMM:   2    -0.102490517102E+03   -0.17640E-03   -0.18827E-03   120   0.124E-01    0.782E-03
RMM:   3    -0.102490535383E+03   -0.18281E-04   -0.18244E-04    76   0.414E-02
    277 T=   572. E= -.89473555E+02 F= -.10249054E+03 E0= -.10249886E+03  EK= 0.39167E+01 SP= 0.90E+01 SK= 0.67E-01
 bond charge predicted
 prediction of wavefunctions
       N       E                     dE             d eps       ncg     rms          rms(c)
DAV:   1    -0.102470820140E+03    0.19697E-01   -0.99927E-03   180   0.216E-01    0.104E-02
RMM:   2    -0.102470917460E+03   -0.97320E-04   -0.10636E-03   120   0.835E-02    0.679E-03
RMM:   3    -0.102470935863E+03   -0.18402E-04   -0.21906E-04    86   0.387E-02
    278 T=   585. E= -.89473573E+02 F= -.10247094E+03 E0= -.10247978E+03  EK= 0.40111E+01 SP= 0.89E+01 SK= 0.71E-01
 bond charge predicted
 prediction of wavefunctions
       N       E                     dE             d eps       ncg     rms          rms(c)
DAV:   1    -0.102456902141E+03    0.14015E-01   -0.10499E-02   180   0.218E-01    0.850E-03
RMM:   2    -0.102457009351E+03   -0.10721E-03   -0.11122E-03   120   0.924E-02    0.536E-03
RMM:   3    -0.102457024859E+03   -0.15508E-04   -0.15327E-04    79   0.359E-02
    279 T=   601. E= -.89473733E+02 F= -.10245702E+03 E0= -.10246645E+03  EK= 0.41162E+01 SP= 0.88E+01 SK= 0.72E-01
 bond charge predicted
 prediction of wavefunctions
       N       E                     dE             d eps       ncg     rms          rms(c)
DAV:   1    -0.102445328979E+03    0.11680E-01   -0.90780E-03   180   0.224E-01    0.807E-03
RMM:   2    -0.102445442858E+03   -0.11388E-03   -0.11772E-03   120   0.915E-02    0.576E-03
RMM:   3    -0.102445454962E+03   -0.12105E-04   -0.13076E-04    76   0.309E-02
    280 T=   617. E= -.89473863E+02 F= -.10244545E+03 E0= -.10245546E+03  EK= 0.42266E+01 SP= 0.87E+01 SK= 0.70E-01
 bond charge predicted
 prediction of wavefunctions
       N       E                     dE             d eps       ncg     rms          rms(c)
DAV:   1    -0.102432577123E+03    0.12866E-01   -0.10315E-02   192   0.222E-01    0.737E-03
RMM:   2    -0.102432672876E+03   -0.95753E-04   -0.97725E-04   120   0.884E-02
    281 T=   633. E= -.89473931E+02 F= -.10243267E+03 E0= -.10244321E+03  EK= 0.43358E+01 SP= 0.86E+01 SK= 0.65E-01
 bond charge predicted
 prediction of wavefunctions
       N       E                     dE             d eps       ncg     rms          rms(c)
DAV:   1    -0.102415057337E+03    0.17520E-01   -0.89843E-03   192   0.256E-01    0.106E-02
RMM:   2    -0.102415247545E+03   -0.19021E-03   -0.19581E-03   120   0.126E-01    0.746E-03
RMM:   3    -0.102415272366E+03   -0.24821E-04   -0.23795E-04    82   0.461E-02
    282 T=   648. E= -.89473922E+02 F= -.10241527E+03 E0= -.10242624E+03  EK= 0.44374E+01 SP= 0.84E+01 SK= 0.57E-01
 bond charge predicted
 prediction of wavefunctions
       N       E                     dE             d eps       ncg     rms          rms(c)
DAV:   1    -0.102390261672E+03    0.24986E-01   -0.73910E-03   168   0.223E-01    0.772E-03
RMM:   2    -0.102390331364E+03   -0.69692E-04   -0.73016E-04   120   0.769E-02
    283 T=   661. E= -.89473753E+02 F= -.10239033E+03 E0= -.10240155E+03  EK= 0.45252E+01 SP= 0.83E+01 SK= 0.48E-01
 bond charge predicted
 prediction of wavefunctions
       N       E                     dE             d eps       ncg     rms          rms(c)
DAV:   1    -0.102355136272E+03    0.35125E-01   -0.80456E-03   192   0.266E-01    0.105E-02
RMM:   2    -0.102355334342E+03   -0.19807E-03   -0.20150E-03   120   0.129E-01    0.767E-03
RMM:   3    -0.102355352366E+03   -0.18023E-04   -0.17169E-04    68   0.393E-02
    284 T=   670. E= -.89473865E+02 F= -.10235535E+03 E0= -.10236655E+03  EK= 0.45930E+01 SP= 0.83E+01 SK= 0.37E-01
 bond charge predicted
 prediction of wavefunctions
       N       E                     dE             d eps       ncg     rms          rms(c)
DAV:   1    -0.102307369725E+03    0.47965E-01   -0.81098E-03   168   0.225E-01    0.668E-03
RMM:   2    -0.102307425044E+03   -0.55319E-04   -0.57643E-04   120   0.652E-02
    285 T=   677. E= -.89473744E+02 F= -.10230743E+03 E0= -.10231827E+03  EK= 0.46357E+01 SP= 0.82E+01 SK= 0.27E-01
 bond charge predicted
 prediction of wavefunctions
       N       E                     dE             d eps       ncg     rms          rms(c)
DAV:   1    -0.102245476840E+03    0.61893E-01   -0.94586E-03   216   0.273E-01    0.989E-03
RMM:   2    -0.102245671705E+03   -0.19486E-03   -0.19791E-03   120   0.132E-01    0.683E-03
RMM:   3    -0.102245692493E+03   -0.20788E-04   -0.19846E-04    75   0.421E-02
    286 T=   679. E= -.89473465E+02 F= -.10224569E+03 E0= -.10225587E+03  EK= 0.46505E+01 SP= 0.81E+01 SK= 0.18E-01
 bond charge predicted
 prediction of wavefunctions
       N       E                     dE             d eps       ncg     rms          rms(c)
DAV:   1    -0.102170674827E+03    0.74997E-01   -0.85333E-03   204   0.241E-01    0.686E-03
RMM:   2    -0.102170760908E+03   -0.86081E-04   -0.88194E-04   120   0.851E-02
    287 T=   677. E= -.89473028E+02 F= -.10217076E+03 E0= -.10218010E+03  EK= 0.46369E+01 SP= 0.80E+01 SK= 0.11E-01
 bond charge predicted
 prediction of wavefunctions
       N       E                     dE             d eps       ncg     rms          rms(c)
DAV:   1    -0.102084669474E+03    0.86005E-01   -0.96759E-03   204   0.282E-01    0.126E-02
RMM:   2    -0.102084874307E+03   -0.20483E-03   -0.21299E-03   120   0.137E-01    0.878E-03
RMM:   3    -0.102084894648E+03   -0.20341E-04   -0.21257E-04    76   0.437E-02
    288 T=   671. E= -.89472431E+02 F= -.10208489E+03 E0= -.10209342E+03  EK= 0.45973E+01 SP= 0.80E+01 SK= 0.57E-02
 bond charge predicted
 prediction of wavefunctions
       N       E                     dE             d eps       ncg     rms          rms(c)
DAV:   1    -0.101991959233E+03    0.92915E-01   -0.84625E-03   204   0.247E-01    0.664E-03
RMM:   2    -0.101992047431E+03   -0.88198E-04   -0.90218E-04   120   0.877E-02
    289 T=   662. E= -.89471788E+02 F= -.10199205E+03 E0= -.10199989E+03  EK= 0.45366E+01 SP= 0.80E+01 SK= 0.25E-02
 bond charge predicted
 prediction of wavefunctions
       N       E                     dE             d eps       ncg     rms          rms(c)
DAV:   1    -0.101895837777E+03    0.96121E-01   -0.88523E-03   168   0.286E-01    0.139E-02
RMM:   2    -0.101896061331E+03   -0.22355E-03   -0.23501E-03   120   0.141E-01    0.873E-03
RMM:   3    -0.101896084474E+03   -0.23143E-04   -0.24398E-04    85   0.472E-02
    290 T=   651. E= -.89470828E+02 F= -.10189608E+03 E0= -.10190332E+03  EK= 0.44609E+01 SP= 0.80E+01 SK= 0.79E-03
 bond charge predicted
 prediction of wavefunctions
       N       E                     dE             d eps       ncg     rms          rms(c)
DAV:   1    -0.101801377305E+03    0.94684E-01   -0.76791E-03   156   0.246E-01    0.813E-03
RMM:   2    -0.101801454298E+03   -0.76992E-04   -0.80876E-04   120   0.832E-02
    291 T=   639. E= -.89470035E+02 F= -.10180145E+03 E0= -.10180814E+03  EK= 0.43764E+01 SP= 0.80E+01 SK= 0.11E-03
 bond charge predicted
 prediction of wavefunctions
       N       E                     dE             d eps       ncg     rms          rms(c)
DAV:   1    -0.101712608395E+03    0.88769E-01   -0.78672E-03   192   0.284E-01    0.143E-02
RMM:   2    -0.101712805990E+03   -0.19759E-03   -0.21255E-03   120   0.136E-01    0.811E-03
RMM:   3    -0.101712826104E+03   -0.20114E-04   -0.21593E-04    78   0.445E-02
    292 T=   626. E= -.89469386E+02 F= -.10171283E+03 E0= -.10171898E+03  EK= 0.42905E+01 SP= 0.80E+01 SK= 0.46E-05
 bond charge predicted
 prediction of wavefunctions
       N       E                     dE             d eps       ncg     rms          rms(c)
DAV:   1    -0.101634631395E+03    0.78175E-01   -0.71748E-03   192   0.249E-01    0.100E-02
RMM:   2    -0.101634703259E+03   -0.71864E-04   -0.78044E-04   120   0.836E-02
    293 T=   615. E= -.89468843E+02 F= -.10163470E+03 E0= -.10164029E+03  EK= 0.42100E+01 SP= 0.80E+01 SK= 0.10E-03
 bond charge predicted
 prediction of wavefunctions
       N       E                     dE             d eps       ncg     rms          rms(c)
DAV:   1    -0.101570141585E+03    0.64490E-01   -0.73900E-03   144   0.284E-01    0.135E-02
RMM:   2    -0.101570342193E+03   -0.20061E-03   -0.21365E-03   120   0.136E-01    0.741E-03
RMM:   3    -0.101570366885E+03   -0.24693E-04   -0.25291E-04    87   0.486E-02
    294 T=   604. E= -.89468090E+02 F= -.10157037E+03 E0= -.10157530E+03  EK= 0.41408E+01 SP= 0.80E+01 SK= 0.20E-03
 bond charge predicted
 prediction of wavefunctions
       N       E                     dE             d eps       ncg     rms          rms(c)
DAV:   1    -0.101522544658E+03    0.47798E-01   -0.60712E-03   156   0.248E-01    0.996E-03
RMM:   2    -0.101522617497E+03   -0.72839E-04   -0.79720E-04   120   0.844E-02
    295 T=   597. E= -.89467414E+02 F= -.10152262E+03 E0= -.10152686E+03  EK= 0.40873E+01 SP= 0.80E+01 SK= 0.22E-03
 bond charge predicted
 prediction of wavefunctions
       N       E                     dE             d eps       ncg     rms          rms(c)
DAV:   1    -0.101492890036E+03    0.29655E-01   -0.62359E-03   168   0.282E-01    0.121E-02
RMM:   2    -0.101493079748E+03   -0.18971E-03   -0.20059E-03   120   0.130E-01    0.631E-03
RMM:   3    -0.101493101478E+03   -0.21730E-04   -0.21558E-04    79   0.436E-02
    296 T=   591. E= -.89467061E+02 F= -.10149310E+03 E0= -.10149673E+03  EK= 0.40520E+01 SP= 0.80E+01 SK= 0.16E-03
 bond charge predicted
 prediction of wavefunctions
       N       E                     dE             d eps       ncg     rms          rms(c)
DAV:   1    -0.101481838841E+03    0.11241E-01   -0.51497E-03   132   0.246E-01    0.866E-03
RMM:   2    -0.101481901282E+03   -0.62440E-04   -0.67001E-04   120   0.781E-02
    297 T=   589. E= -.89466621E+02 F= -.10148190E+03 E0= -.10148502E+03  EK= 0.40363E+01 SP= 0.80E+01 SK= 0.88E-04
 bond charge predicted
 prediction of wavefunctions
       N       E                     dE             d eps       ncg     rms          rms(c)
DAV:   1    -0.101488120631E+03   -0.62818E-02   -0.54354E-03   168   0.278E-01    0.106E-02
RMM:   2    -0.101488297609E+03   -0.17698E-03   -0.18475E-03   120   0.128E-01    0.594E-03
RMM:   3    -0.101488319471E+03   -0.21862E-04   -0.21439E-04    77   0.445E-02
    298 T=   590. E= -.89466335E+02 F= -.10148832E+03 E0= -.10149104E+03  EK= 0.40397E+01 SP= 0.80E+01 SK= 0.33E-04
 bond charge predicted
 prediction of wavefunctions
       N       E                     dE             d eps       ncg     rms          rms(c)
DAV:   1    -0.101509754535E+03   -0.21457E-01   -0.47681E-03   180   0.245E-01    0.714E-03
RMM:   2    -0.101509818476E+03   -0.63941E-04   -0.67059E-04   120   0.778E-02
    299 T=   593. E= -.89466048E+02 F= -.10150982E+03 E0= -.10151225E+03  EK= 0.40596E+01 SP= 0.80E+01 SK= 0.74E-05
 bond charge predicted
 prediction of wavefunctions
       N       E                     dE             d eps       ncg     rms          rms(c)
DAV:   1    -0.101542866885E+03   -0.33112E-01   -0.54492E-03   144   0.274E-01    0.107E-02
RMM:   2    -0.101543035723E+03   -0.16884E-03   -0.17618E-03   120   0.123E-01    0.674E-03
RMM:   3    -0.101543056633E+03   -0.20910E-04   -0.21550E-04    81   0.438E-02
    300 T=   597. E= -.89465880E+02 F= -.10154306E+03 E0= -.10154530E+03  EK= 0.40921E+01 SP= 0.80E+01 SK= 0.15E-05
 bond charge predicted
 prediction of wavefunctions
       N       E                     dE             d eps       ncg     rms          rms(c)
DAV:   1    -0.101584249372E+03   -0.41214E-01   -0.52861E-03   144   0.246E-01    0.716E-03
RMM:   2    -0.101584313763E+03   -0.64391E-04   -0.67914E-04   120   0.784E-02
    301 T=   603. E= -.89465658E+02 F= -.10158431E+03 E0= -.10158644E+03  EK= 0.41329E+01 SP= 0.80E+01 SK= 0.31E-05
 bond charge predicted
 prediction of wavefunctions
       N       E                     dE             d eps       ncg     rms          rms(c)
DAV:   1    -0.101630128510E+03   -0.45879E-01   -0.63043E-03   168   0.271E-01    0.117E-02
RMM:   2    -0.101630288465E+03   -0.15995E-03   -0.17038E-03   120   0.122E-01    0.649E-03
RMM:   3    -0.101630308136E+03   -0.19671E-04   -0.20363E-04    78   0.428E-02
    302 T=   610. E= -.89465399E+02 F= -.10163031E+03 E0= -.10163236E+03  EK= 0.41777E+01 SP= 0.80E+01 SK= 0.22E-04
 bond charge predicted
 prediction of wavefunctions
       N       E                     dE             d eps       ncg     rms          rms(c)
DAV:   1    -0.101678421729E+03   -0.48133E-01   -0.65668E-03   204   0.239E-01    0.760E-03
RMM:   2    -0.101678481552E+03   -0.59823E-04   -0.63853E-04   120   0.747E-02
    303 T=   616. E= -.89465098E+02 F= -.10167848E+03 E0= -.10168049E+03  EK= 0.42227E+01 SP= 0.80E+01 SK= 0.10E-03
 bond charge predicted
 prediction of wavefunctions
       N       E                     dE             d eps       ncg     rms          rms(c)
DAV:   1    -0.101727217426E+03   -0.48796E-01   -0.76650E-03   204   0.267E-01    0.122E-02
RMM:   2    -0.101727370521E+03   -0.15310E-03   -0.16412E-03   120   0.120E-01    0.732E-03
RMM:   3    -0.101727387637E+03   -0.17116E-04   -0.18657E-04    73   0.415E-02
    304 T=   623. E= -.89464781E+02 F= -.10172739E+03 E0= -.10172937E+03  EK= 0.42654E+01 SP= 0.80E+01 SK= 0.32E-03
 bond charge predicted
 prediction of wavefunctions
       N       E                     dE             d eps       ncg     rms          rms(c)
DAV:   1    -0.101776301177E+03   -0.48931E-01   -0.75725E-03   180   0.240E-01    0.907E-03
RMM:   2    -0.101776372451E+03   -0.71275E-04   -0.77791E-04   120   0.808E-02
    305 T=   628. E= -.89464342E+02 F= -.10177637E+03 E0= -.10177835E+03  EK= 0.43040E+01 SP= 0.80E+01 SK= 0.79E-03
 bond charge predicted
 prediction of wavefunctions
       N       E                     dE             d eps       ncg     rms          rms(c)
DAV:   1    -0.101826119575E+03   -0.49818E-01   -0.89340E-03   192   0.268E-01    0.128E-02
RMM:   2    -0.101826297274E+03   -0.17770E-03   -0.19068E-03   120   0.126E-01    0.693E-03
RMM:   3    -0.101826317810E+03   -0.20536E-04   -0.21061E-04    74   0.437E-02
    306 T=   633. E= -.89463807E+02 F= -.10182632E+03 E0= -.10182828E+03  EK= 0.43383E+01 SP= 0.80E+01 SK= 0.16E-02
 bond charge predicted
 prediction of wavefunctions
       N       E                     dE             d eps       ncg     rms          rms(c)
DAV:   1    -0.101879079177E+03   -0.52782E-01   -0.82855E-03   180   0.234E-01    0.953E-03
RMM:   2    -0.101879151167E+03   -0.71991E-04   -0.79026E-04   120   0.817E-02
    307 T=   638. E= -.89463422E+02 F= -.10187915E+03 E0= -.10188112E+03  EK= 0.43691E+01 SP= 0.80E+01 SK= 0.29E-02
 bond charge predicted
 prediction of wavefunctions
       N       E                     dE             d eps       ncg     rms          rms(c)
DAV:   1    -0.101936657559E+03   -0.57578E-01   -0.99455E-03   204   0.263E-01    0.120E-02
RMM:   2    -0.101936830414E+03   -0.17285E-03   -0.18361E-03   120   0.126E-01    0.687E-03
RMM:   3    -0.101936847169E+03   -0.16755E-04   -0.16710E-04    65   0.399E-02
    308 T=   642. E= -.89462964E+02 F= -.10193685E+03 E0= -.10193882E+03  EK= 0.43975E+01 SP= 0.81E+01 SK= 0.48E-02
 bond charge predicted
 prediction of wavefunctions
       N       E                     dE             d eps       ncg     rms          rms(c)
DAV:   1    -0.102001518728E+03   -0.64688E-01   -0.87453E-03   192   0.230E-01    0.889E-03
RMM:   2    -0.102001607163E+03   -0.88434E-04   -0.94517E-04   120   0.851E-02
    309 T=   646. E= -.89462595E+02 F= -.10200161E+03 E0= -.10200359E+03  EK= 0.44249E+01 SP= 0.81E+01 SK= 0.75E-02
 bond charge predicted
 prediction of wavefunctions
       N       E                     dE             d eps       ncg     rms          rms(c)
DAV:   1    -0.102074152477E+03   -0.72634E-01   -0.10510E-02   204   0.263E-01    0.126E-02
RMM:   2    -0.102074343516E+03   -0.19104E-03   -0.20222E-03   120   0.131E-01    0.760E-03
RMM:   3    -0.102074364857E+03   -0.21341E-04   -0.21499E-04    77   0.453E-02
    310 T=   650. E= -.89462132E+02 F= -.10207436E+03 E0= -.10207638E+03  EK= 0.44516E+01 SP= 0.81E+01 SK= 0.11E-01
 bond charge predicted
 prediction of wavefunctions
       N       E                     dE             d eps       ncg     rms          rms(c)
DAV:   1    -0.102155182027E+03   -0.80839E-01   -0.91891E-03   132   0.227E-01    0.924E-03
RMM:   2    -0.102155269885E+03   -0.87858E-04   -0.94769E-04   120   0.884E-02
    311 T=   653. E= -.89461758E+02 F= -.10215527E+03 E0= -.10215733E+03  EK= 0.44766E+01 SP= 0.82E+01 SK= 0.16E-01
 bond charge predicted
 prediction of wavefunctions
       N       E                     dE             d eps       ncg     rms          rms(c)
DAV:   1    -0.102243265815E+03   -0.88084E-01   -0.98680E-03   192   0.259E-01    0.127E-02
RMM:   2    -0.102243461371E+03   -0.19556E-03   -0.20665E-03   120   0.130E-01    0.747E-03
RMM:   3    -0.102243484464E+03   -0.23093E-04   -0.22846E-04    82   0.462E-02
    312 T=   657. E= -.89461456E+02 F= -.10224348E+03 E0= -.10224565E+03  EK= 0.44984E+01 SP= 0.83E+01 SK= 0.21E-01
 bond charge predicted
 prediction of wavefunctions
       N       E                     dE             d eps       ncg     rms          rms(c)
DAV:   1    -0.102336774644E+03   -0.93313E-01   -0.86863E-03   168   0.222E-01    0.872E-03
RMM:   2    -0.102336849854E+03   -0.75209E-04   -0.81097E-04   120   0.842E-02
    313 T=   659. E= -.89461061E+02 F= -.10233685E+03 E0= -.10233921E+03  EK= 0.45145E+01 SP= 0.83E+01 SK= 0.28E-01
 bond charge predicted
 prediction of wavefunctions
       N       E                     dE             d eps       ncg     rms          rms(c)
DAV:   1    -0.102432420553E+03   -0.95646E-01   -0.91838E-03   192   0.256E-01    0.118E-02
RMM:   2    -0.102432601995E+03   -0.18144E-03   -0.18998E-03   120   0.127E-01    0.753E-03
RMM:   3    -0.102432621735E+03   -0.19740E-04   -0.19478E-04    75   0.427E-02
    314 T=   660. E= -.89460726E+02 F= -.10243262E+03 E0= -.10243532E+03  EK= 0.45215E+01 SP= 0.84E+01 SK= 0.36E-01
 bond charge predicted
 prediction of wavefunctions
       N       E                     dE             d eps       ncg     rms          rms(c)
DAV:   1    -0.102527960991E+03   -0.95359E-01   -0.77058E-03   132   0.223E-01    0.840E-03
RMM:   2    -0.102528036982E+03   -0.75991E-04   -0.81237E-04   120   0.836E-02
    315 T=   659. E= -.89460383E+02 F= -.10252804E+03 E0= -.10253128E+03  EK= 0.45168E+01 SP= 0.85E+01 SK= 0.46E-01
 bond charge predicted
 prediction of wavefunctions
       N       E                     dE             d eps       ncg     rms          rms(c)
DAV:   1    -0.102620131394E+03   -0.92170E-01   -0.83558E-03   180   0.262E-01    0.121E-02
RMM:   2    -0.102620317516E+03   -0.18612E-03   -0.19451E-03   120   0.127E-01    0.722E-03
RMM:   3    -0.102620339949E+03   -0.22433E-04   -0.22027E-04    80   0.447E-02
    316 T=   657. E= -.89459952E+02 F= -.10262034E+03 E0= -.10262436E+03  EK= 0.44980E+01 SP= 0.86E+01 SK= 0.56E-01
 bond charge predicted
 prediction of wavefunctions
       N       E                     dE             d eps       ncg     rms          rms(c)
DAV:   1    -0.102706784720E+03   -0.86467E-01   -0.67640E-03   156   0.227E-01    0.885E-03
RMM:   2    -0.102706861390E+03   -0.76670E-04   -0.83140E-04   120   0.866E-02
    317 T=   652. E= -.89459346E+02 F= -.10270686E+03 E0= -.10271179E+03  EK= 0.44637E+01 SP= 0.87E+01 SK= 0.66E-01
 bond charge predicted
 prediction of wavefunctions
       N       E                     dE             d eps       ncg     rms          rms(c)
DAV:   1    -0.102785295714E+03   -0.78511E-01   -0.72645E-03   168   0.263E-01    0.119E-02
RMM:   2    -0.102785482019E+03   -0.18630E-03   -0.19476E-03   120   0.126E-01    0.731E-03
RMM:   3    -0.102785504917E+03   -0.22898E-04   -0.22711E-04    81   0.447E-02
    318 T=   644. E= -.89458722E+02 F= -.10278550E+03 E0= -.10279125E+03  EK= 0.44130E+01 SP= 0.88E+01 SK= 0.76E-01
 bond charge predicted
 prediction of wavefunctions
       N       E                     dE             d eps       ncg     rms          rms(c)
DAV:   1    -0.102854698946E+03   -0.69217E-01   -0.59024E-03   156   0.228E-01    0.844E-03
RMM:   2    -0.102854774643E+03   -0.75697E-04   -0.80840E-04   120   0.846E-02
    319 T=   634. E= -.89458091E+02 F= -.10285477E+03 E0= -.10286109E+03  EK= 0.43465E+01 SP= 0.90E+01 SK= 0.85E-01
 bond charge predicted
 prediction of wavefunctions
       N       E                     dE             d eps       ncg     rms          rms(c)
DAV:   1    -0.102913378869E+03   -0.58680E-01   -0.64864E-03   192   0.265E-01    0.112E-02
RMM:   2    -0.102913552444E+03   -0.17357E-03   -0.18020E-03   120   0.125E-01    0.722E-03
RMM:   3    -0.102913572156E+03   -0.19712E-04   -0.19937E-04    76   0.423E-02
    320 T=   623. E= -.89457489E+02 F= -.10291357E+03 E0= -.10292023E+03  EK= 0.42656E+01 SP= 0.91E+01 SK= 0.91E-01
 bond charge predicted
 prediction of wavefunctions
       N       E                     dE             d eps       ncg     rms          rms(c)
DAV:   1    -0.102961126808E+03   -0.47574E-01   -0.52411E-03   192   0.232E-01    0.788E-03
RMM:   2    -0.102961195324E+03   -0.68517E-04   -0.72839E-04   120   0.805E-02
    321 T=   609. E= -.89456818E+02 F= -.10296120E+03 E0= -.10296803E+03  EK= 0.41723E+01 SP= 0.92E+01 SK= 0.95E-01
 bond charge predicted
 prediction of wavefunctions
       N       E                     dE             d eps       ncg     rms          rms(c)
DAV:   1    -0.102997375487E+03   -0.36249E-01   -0.53994E-03   168   0.262E-01    0.111E-02
RMM:   2    -0.102997539980E+03   -0.16449E-03   -0.17106E-03   120   0.121E-01    0.693E-03
RMM:   3    -0.102997561093E+03   -0.21113E-04   -0.21320E-04    79   0.436E-02
    322 T=   594. E= -.89456240E+02 F= -.10299756E+03 E0= -.10300449E+03  EK= 0.40692E+01 SP= 0.94E+01 SK= 0.96E-01
 bond charge predicted
 prediction of wavefunctions
       N       E                     dE             d eps       ncg     rms          rms(c)
DAV:   1    -0.103022480996E+03   -0.24941E-01   -0.46569E-03   144   0.233E-01    0.659E-03
RMM:   2    -0.103022551972E+03   -0.70977E-04   -0.73886E-04   120   0.800E-02
    323 T=   578. E= -.89455720E+02 F= -.10302255E+03 E0= -.10302948E+03  EK= 0.39593E+01 SP= 0.95E+01 SK= 0.93E-01
 bond charge predicted
 prediction of wavefunctions
       N       E                     dE             d eps       ncg     rms          rms(c)
DAV:   1    -0.103036522630E+03   -0.14042E-01   -0.53387E-03   192   0.260E-01    0.114E-02
RMM:   2    -0.103036682138E+03   -0.15951E-03   -0.16550E-03   120   0.117E-01    0.767E-03
RMM:   3    -0.103036700233E+03   -0.18096E-04   -0.18836E-04    70   0.399E-02
    324 T=   561. E= -.89455208E+02 F= -.10303670E+03 E0= -.10304350E+03  EK= 0.38456E+01 SP= 0.96E+01 SK= 0.86E-01
 bond charge predicted
 prediction of wavefunctions
       N       E                     dE             d eps       ncg     rms          rms(c)
DAV:   1    -0.103041085017E+03   -0.44029E-02   -0.47168E-03   168   0.231E-01    0.710E-03
RMM:   2    -0.103041147678E+03   -0.62661E-04   -0.65942E-04   120   0.754E-02
    325 T=   545. E= -.89454825E+02 F= -.10304115E+03 E0= -.10304769E+03  EK= 0.37318E+01 SP= 0.98E+01 SK= 0.77E-01
 bond charge predicted
 prediction of wavefunctions
       N       E                     dE             d eps       ncg     rms          rms(c)
DAV:   1    -0.103037084320E+03    0.40007E-02   -0.53811E-03   216   0.254E-01    0.131E-02
RMM:   2    -0.103037227842E+03   -0.14352E-03   -0.15390E-03   120   0.115E-01    0.790E-03
RMM:   3    -0.103037244495E+03   -0.16653E-04   -0.18361E-04    73   0.409E-02
    326 T=   529. E= -.89454318E+02 F= -.10303724E+03 E0= -.10304337E+03  EK= 0.36215E+01 SP= 0.99E+01 SK= 0.64E-01
 bond charge predicted
 prediction of wavefunctions
       N       E                     dE             d eps       ncg     rms          rms(c)
DAV:   1    -0.103027218816E+03    0.10009E-01   -0.47776E-03   180   0.225E-01    0.877E-03
RMM:   2    -0.103027283674E+03   -0.64859E-04   -0.70260E-04   120   0.761E-02
    327 T=   514. E= -.89453885E+02 F= -.10302728E+03 E0= -.10303288E+03  EK= 0.35185E+01 SP= 0.10E+02 SK= 0.50E-01
 bond charge predicted
 prediction of wavefunctions
       N       E                     dE             d eps       ncg     rms          rms(c)
DAV:   1    -0.103014069145E+03    0.13150E-01   -0.52319E-03   180   0.246E-01    0.124E-02
RMM:   2    -0.103014213201E+03   -0.14406E-03   -0.15305E-03   120   0.112E-01    0.800E-03
RMM:   3    -0.103014228931E+03   -0.15730E-04   -0.17238E-04    67   0.387E-02
    328 T=   500. E= -.89453364E+02 F= -.10301423E+03 E0= -.10301929E+03  EK= 0.34274E+01 SP= 0.10E+02 SK= 0.36E-01
 bond charge predicted
 prediction of wavefunctions
       N       E                     dE             d eps       ncg     rms          rms(c)
DAV:   1    -0.103002034452E+03    0.12179E-01   -0.46599E-03   180   0.219E-01    0.881E-03
RMM:   2    -0.103002101859E+03   -0.67407E-04   -0.72185E-04   120   0.761E-02
    329 T=   489. E= -.89453010E+02 F= -.10300210E+03 E0= -.10300668E+03  EK= 0.33526E+01 SP= 0.10E+02 SK= 0.22E-01
 bond charge predicted
 prediction of wavefunctions
       N       E                     dE             d eps       ncg     rms          rms(c)
DAV:   1    -0.102993990357E+03    0.80441E-02   -0.52617E-03   192   0.240E-01    0.141E-02
RMM:   2    -0.102994129264E+03   -0.13891E-03   -0.15058E-03   120   0.113E-01    0.863E-03
RMM:   3    -0.102994146810E+03   -0.17546E-04   -0.19230E-04    70   0.425E-02
    330 T=   481. E= -.89452590E+02 F= -.10299415E+03 E0= -.10299836E+03  EK= 0.32983E+01 SP= 0.10E+02 SK= 0.11E-01
 bond charge predicted
 prediction of wavefunctions
       N       E                     dE             d eps       ncg     rms          rms(c)
DAV:   1    -0.102993556610E+03    0.57265E-03   -0.44297E-03   156   0.213E-01    0.967E-03
RMM:   2    -0.102993617618E+03   -0.61008E-04   -0.67221E-04   120   0.725E-02
    331 T=   477. E= -.89452231E+02 F= -.10299362E+03 E0= -.10299758E+03  EK= 0.32678E+01 SP= 0.10E+02 SK= 0.38E-02
 bond charge predicted
 prediction of wavefunctions
       N       E                     dE             d eps       ncg     rms          rms(c)
DAV:   1    -0.103002704708E+03   -0.91481E-02   -0.54986E-03   192   0.235E-01    0.126E-02
RMM:   2    -0.103002830871E+03   -0.12616E-03   -0.13516E-03   120   0.107E-01    0.806E-03
RMM:   3    -0.103002840618E+03   -0.97468E-05   -0.11500E-04    66   0.327E-02
    332 T=   476. E= -.89451908E+02 F= -.10300284E+03 E0= -.10300667E+03  EK= 0.32636E+01 SP= 0.10E+02 SK= 0.24E-03
 bond charge predicted
 prediction of wavefunctions
       N       E                     dE             d eps       ncg     rms          rms(c)
DAV:   1    -0.103022821831E+03   -0.19991E-01   -0.51335E-03   168   0.214E-01    0.101E-02
RMM:   2    -0.103022882130E+03   -0.60299E-04   -0.66906E-04   120   0.747E-02
    333 T=   480. E= -.89451783E+02 F= -.10302288E+03 E0= -.10302671E+03  EK= 0.32865E+01 SP= 0.10E+02 SK= 0.92E-03
 bond charge predicted
 prediction of wavefunctions
       N       E                     dE             d eps       ncg     rms          rms(c)
DAV:   1    -0.103053172281E+03   -0.30350E-01   -0.57719E-03   168   0.238E-01    0.126E-02
RMM:   2    -0.103053303093E+03   -0.13081E-03   -0.14013E-03   120   0.108E-01    0.763E-03
RMM:   3    -0.103053320510E+03   -0.17417E-04   -0.18869E-04    81   0.414E-02
    334 T=   487. E= -.89451775E+02 F= -.10305332E+03 E0= -.10305728E+03  EK= 0.33359E+01 SP= 0.10E+02 SK= 0.55E-02
 bond charge predicted
 prediction of wavefunctions
       N       E                     dE             d eps       ncg     rms          rms(c)
DAV:   1    -0.103091582778E+03   -0.38280E-01   -0.54255E-03   168   0.217E-01    0.102E-02
RMM:   2    -0.103091647773E+03   -0.64994E-04   -0.71623E-04   120   0.750E-02
    335 T=   498. E= -.89451776E+02 F= -.10309165E+03 E0= -.10309589E+03  EK= 0.34091E+01 SP= 0.10E+02 SK= 0.13E-01
 bond charge predicted
 prediction of wavefunctions
       N       E                     dE             d eps       ncg     rms          rms(c)
DAV:   1    -0.103133378481E+03   -0.41796E-01   -0.63370E-03   192   0.243E-01    0.122E-02
RMM:   2    -0.103133519990E+03   -0.14151E-03   -0.14959E-03   120   0.112E-01    0.752E-03
RMM:   3    -0.103133536782E+03   -0.16792E-04   -0.17767E-04    72   0.400E-02
    336 T=   511. E= -.89451803E+02 F= -.10313354E+03 E0= -.10313829E+03  EK= 0.35011E+01 SP= 0.10E+02 SK= 0.23E-01
 bond charge predicted
 prediction of wavefunctions
       N       E                     dE             d eps       ncg     rms          rms(c)
DAV:   1    -0.103173757425E+03   -0.40237E-01   -0.56575E-03   180   0.226E-01    0.105E-02
RMM:   2    -0.103173821321E+03   -0.63895E-04   -0.70540E-04   120   0.761E-02
    337 T=   526. E= -.89452006E+02 F= -.10317382E+03 E0= -.10317936E+03  EK= 0.36056E+01 SP= 0.10E+02 SK= 0.33E-01
 bond charge predicted
 prediction of wavefunctions
       N       E                     dE             d eps       ncg     rms          rms(c)
DAV:   1    -0.103205984974E+03   -0.32228E-01   -0.64701E-03   168   0.256E-01    0.120E-02
RMM:   2    -0.103206140076E+03   -0.15510E-03   -0.16320E-03   120   0.115E-01    0.752E-03
RMM:   3    -0.103206156998E+03   -0.16922E-04   -0.17671E-04    76   0.395E-02
    338 T=   542. E= -.89452204E+02 F= -.10320616E+03 E0= -.10321275E+03  EK= 0.37151E+01 SP= 0.10E+02 SK= 0.42E-01
 bond charge predicted
 prediction of wavefunctions
       N       E                     dE             d eps       ncg     rms          rms(c)
DAV:   1    -0.103224571169E+03   -0.18431E-01   -0.57785E-03   168   0.234E-01    0.107E-02
RMM:   2    -0.103224635925E+03   -0.64755E-04   -0.72528E-04   120   0.771E-02
    339 T=   558. E= -.89452385E+02 F= -.10322464E+03 E0= -.10323237E+03  EK= 0.38219E+01 SP= 0.99E+01 SK= 0.50E-01
 bond charge predicted
 prediction of wavefunctions
       N       E                     dE             d eps       ncg     rms          rms(c)
DAV:   1    -0.103223941053E+03    0.63012E-03   -0.65933E-03   216   0.264E-01    0.160E-02
RMM:   2    -0.103224085119E+03   -0.14407E-03   -0.16319E-03   120   0.118E-01    0.944E-03
RMM:   3    -0.103224098714E+03   -0.13595E-04   -0.18227E-04    76   0.401E-02
    340 T=   572. E= -.89452461E+02 F= -.10322410E+03 E0= -.10323266E+03  EK= 0.39188E+01 SP= 0.98E+01 SK= 0.56E-01
 bond charge predicted
 prediction of wavefunctions
       N       E                     dE             d eps       ncg     rms          rms(c)
DAV:   1    -0.103200206050E+03    0.23879E-01   -0.61185E-03   192   0.244E-01    0.984E-03
RMM:   2    -0.103200291208E+03   -0.85159E-04   -0.91070E-04   120   0.862E-02
    341 T=   584. E= -.89452329E+02 F= -.10320029E+03 E0= -.10320934E+03  EK= 0.39992E+01 SP= 0.97E+01 SK= 0.59E-01
 bond charge predicted
 prediction of wavefunctions
       N       E                     dE             d eps       ncg     rms          rms(c)
DAV:   1    -0.103151239241E+03    0.48967E-01   -0.70197E-03   216   0.274E-01    0.140E-02
RMM:   2    -0.103151422537E+03   -0.18330E-03   -0.19354E-03   120   0.126E-01    0.907E-03
RMM:   3    -0.103151439163E+03   -0.16625E-04   -0.17913E-04    80   0.393E-02
    342 T=   592. E= -.89452240E+02 F= -.10315144E+03 E0= -.10316077E+03  EK= 0.40591E+01 SP= 0.96E+01 SK= 0.61E-01
 bond charge predicted
 prediction of wavefunctions
       N       E                     dE             d eps       ncg     rms          rms(c)
DAV:   1    -0.103077887289E+03    0.73535E-01   -0.69072E-03   180   0.250E-01    0.101E-02
RMM:   2    -0.103077987698E+03   -0.10041E-03   -0.10653E-03   120   0.893E-02    0.714E-03
RMM:   3    -0.103078005632E+03   -0.17934E-04   -0.20131E-04    81   0.397E-02
    343 T=   598. E= -.89452086E+02 F= -.10307801E+03 E0= -.10308751E+03  EK= 0.40968E+01 SP= 0.95E+01 SK= 0.62E-01
 bond charge predicted
 prediction of wavefunctions
       N       E                     dE             d eps       ncg     rms          rms(c)
DAV:   1    -0.102982501941E+03    0.95486E-01   -0.67837E-03   204   0.251E-01    0.986E-03
RMM:   2    -0.102982595365E+03   -0.93424E-04   -0.99639E-04   120   0.934E-02
    344 T=   600. E= -.89451788E+02 F= -.10298260E+03 E0= -.10299222E+03  EK= 0.41135E+01 SP= 0.94E+01 SK= 0.61E-01
 bond charge predicted
 prediction of wavefunctions
       N       E                     dE             d eps       ncg     rms          rms(c)
DAV:   1    -0.102869008590E+03    0.11349E+00   -0.72221E-03   216   0.277E-01    0.109E-02
RMM:   2    -0.102869186386E+03   -0.17780E-03   -0.18536E-03   120   0.130E-01    0.747E-03
RMM:   3    -0.102869207164E+03   -0.20778E-04   -0.21708E-04    84   0.440E-02
    345 T=   600. E= -.89451246E+02 F= -.10286921E+03 E0= -.10287884E+03  EK= 0.41125E+01 SP= 0.92E+01 SK= 0.61E-01
 bond charge predicted
 prediction of wavefunctions
       N       E                     dE             d eps       ncg     rms          rms(c)
DAV:   1    -0.102743940004E+03    0.12525E+00   -0.59824E-03   192   0.247E-01    0.803E-03
RMM:   2    -0.102744020351E+03   -0.80347E-04   -0.84073E-04   120   0.802E-02
    346 T=   598. E= -.89450392E+02 F= -.10274402E+03 E0= -.10275350E+03  EK= 0.40996E+01 SP= 0.91E+01 SK= 0.61E-01
 bond charge predicted
 prediction of wavefunctions
       N       E                     dE             d eps       ncg     rms          rms(c)
DAV:   1    -0.102614467475E+03    0.12947E+00   -0.63083E-03   216   0.275E-01    0.100E-02
RMM:   2    -0.102614658216E+03   -0.19074E-03   -0.19452E-03   120   0.129E-01    0.719E-03
RMM:   3    -0.102614673779E+03   -0.15564E-04   -0.14723E-04    74   0.371E-02
    347 T=   596. E= -.89449551E+02 F= -.10261467E+03 E0= -.10262387E+03  EK= 0.40821E+01 SP= 0.90E+01 SK= 0.61E-01
 bond charge predicted
 prediction of wavefunctions
       N       E                     dE             d eps       ncg     rms          rms(c)
DAV:   1    -0.102489258659E+03    0.12540E+00   -0.43080E-03   192   0.237E-01    0.736E-03
RMM:   2    -0.102489324732E+03   -0.66073E-04   -0.69181E-04   120   0.700E-02
    348 T=   594. E= -.89448936E+02 F= -.10248932E+03 E0= -.10249818E+03  EK= 0.40684E+01 SP= 0.89E+01 SK= 0.62E-01
 bond charge predicted
 prediction of wavefunctions
       N       E                     dE             d eps       ncg     rms          rms(c)
DAV:   1    -0.102375436577E+03    0.11382E+00   -0.44215E-03   216   0.270E-01    0.106E-02
RMM:   2    -0.102375620239E+03   -0.18366E-03   -0.18886E-03   120   0.127E-01    0.718E-03
RMM:   3    -0.102375637679E+03   -0.17440E-04   -0.16631E-04    72   0.394E-02
    349 T=   594. E= -.89448339E+02 F= -.10237564E+03 E0= -.10238424E+03  EK= 0.40669E+01 SP= 0.88E+01 SK= 0.63E-01
 bond charge predicted
 prediction of wavefunctions
       N       E                     dE             d eps       ncg     rms          rms(c)
DAV:   1    -0.102279675268E+03    0.95945E-01   -0.39500E-03   228   0.238E-01    0.732E-03
RMM:   2    -0.102279756013E+03   -0.80746E-04   -0.83720E-04   120   0.855E-02
    350 T=   596. E= -.89447860E+02 F= -.10227976E+03 E0= -.10228827E+03  EK= 0.40841E+01 SP= 0.87E+01 SK= 0.64E-01
 bond charge predicted
 prediction of wavefunctions
       N       E                     dE             d eps       ncg     rms          rms(c)
DAV:   1    -0.102205188324E+03    0.74487E-01   -0.46140E-03   168   0.269E-01    0.118E-02
RMM:   2    -0.102205390009E+03   -0.20169E-03   -0.20789E-03   120   0.133E-01    0.728E-03
RMM:   3    -0.102205416508E+03   -0.26499E-04   -0.26271E-04    87   0.485E-02
    351 T=   602. E= -.89447421E+02 F= -.10220542E+03 E0= -.10221399E+03  EK= 0.41240E+01 SP= 0.86E+01 SK= 0.64E-01
 bond charge predicted
 prediction of wavefunctions
       N       E                     dE             d eps       ncg     rms          rms(c)
DAV:   1    -0.102153666165E+03    0.51724E-01   -0.41125E-03   216   0.231E-01    0.721E-03
RMM:   2    -0.102153742443E+03   -0.76278E-04   -0.80120E-04   120   0.827E-02
    352 T=   611. E= -.89447119E+02 F= -.10215374E+03 E0= -.10216240E+03  EK= 0.41873E+01 SP= 0.85E+01 SK= 0.63E-01
 bond charge predicted
 prediction of wavefunctions
       N       E                     dE             d eps       ncg     rms          rms(c)
DAV:   1    -0.102122659987E+03    0.31006E-01   -0.48986E-03   192   0.264E-01    0.121E-02
RMM:   2    -0.102122878402E+03   -0.21842E-03   -0.22720E-03   120   0.129E-01    0.735E-03
RMM:   3    -0.102122901847E+03   -0.23444E-04   -0.22437E-04    89   0.432E-02
    353 T=   623. E= -.89446900E+02 F= -.10212290E+03 E0= -.10213155E+03  EK= 0.42712E+01 SP= 0.83E+01 SK= 0.59E-01
Information: wavefunction orthogonal band   60  0.8882
 bond charge predicted
 prediction of wavefunctions
       N       E                     dE             d eps       ncg     rms          rms(c)
DAV:   1    -0.102109076348E+03    0.13802E-01   -0.51676E-03   192   0.228E-01    0.773E-03
RMM:   2    -0.102109161268E+03   -0.84920E-04   -0.87898E-04   120   0.824E-02
    354 T=   638. E= -.89447099E+02 F= -.10210916E+03 E0= -.10211766E+03  EK= 0.43698E+01 SP= 0.82E+01 SK= 0.54E-01
 bond charge predicted
 prediction of wavefunctions
       N       E                     dE             d eps       ncg     rms          rms(c)
DAV:   1    -0.102105611446E+03    0.34649E-02   -0.65877E-03   228   0.267E-01    0.129E-02
RMM:   2    -0.102105802681E+03   -0.19123E-03   -0.20035E-03   120   0.132E-01    0.770E-03
RMM:   3    -0.102105822139E+03   -0.19459E-04   -0.19803E-04    90   0.427E-02
    355 T=   653. E= -.89447283E+02 F= -.10210582E+03 E0= -.10211408E+03  EK= 0.44744E+01 SP= 0.81E+01 SK= 0.46E-01
 bond charge predicted
 prediction of wavefunctions
       N       E                     dE             d eps       ncg     rms          rms(c)
DAV:   1    -0.102105433998E+03    0.36868E-03   -0.71974E-03   168   0.236E-01    0.861E-03
RMM:   2    -0.102105532825E+03   -0.98827E-04   -0.10335E-03   120   0.883E-02    0.608E-03
RMM:   3    -0.102105550817E+03   -0.17993E-04   -0.19604E-04    78   0.389E-02
    356 T=   668. E= -.89447783E+02 F= -.10210555E+03 E0= -.10211355E+03  EK= 0.45741E+01 SP= 0.80E+01 SK= 0.36E-01
 bond charge predicted
 prediction of wavefunctions
       N       E                     dE             d eps       ncg     rms          rms(c)
DAV:   1    -0.102100144358E+03    0.53885E-02   -0.72329E-03   216   0.243E-01    0.847E-03
RMM:   2    -0.102100243455E+03   -0.99097E-04   -0.10401E-03   120   0.972E-02    0.486E-03
RMM:   3    -0.102100257536E+03   -0.14081E-04   -0.14356E-04    72   0.363E-02
    357 T=   680. E= -.89448229E+02 F= -.10210026E+03 E0= -.10210800E+03  EK= 0.46578E+01 SP= 0.80E+01 SK= 0.26E-01
 bond charge predicted
 prediction of wavefunctions
       N       E                     dE             d eps       ncg     rms          rms(c)
DAV:   1    -0.102082508682E+03    0.17735E-01   -0.73179E-03   204   0.247E-01    0.776E-03
RMM:   2    -0.102082607364E+03   -0.98682E-04   -0.10182E-03   120   0.987E-02    0.561E-03
RMM:   3    -0.102082617748E+03   -0.10384E-04   -0.11281E-04    66   0.317E-02
    358 T=   688. E= -.89448466E+02 F= -.10208262E+03 E0= -.10209010E+03  EK= 0.47151E+01 SP= 0.79E+01 SK= 0.17E-01
 bond charge predicted
 prediction of wavefunctions
       N       E                     dE             d eps       ncg     rms          rms(c)
DAV:   1    -0.102047050857E+03    0.35557E-01   -0.74079E-03   168   0.249E-01    0.591E-03
RMM:   2    -0.102047140477E+03   -0.89620E-04   -0.90571E-04   120   0.926E-02
    359 T=   692. E= -.89448370E+02 F= -.10204714E+03 E0= -.10205438E+03  EK= 0.47381E+01 SP= 0.79E+01 SK= 0.90E-02
 bond charge predicted
 prediction of wavefunctions
       N       E                     dE             d eps       ncg     rms          rms(c)
DAV:   1    -0.101990900708E+03    0.56150E-01   -0.79649E-03   168   0.277E-01    0.100E-02
RMM:   2    -0.101991082606E+03   -0.18190E-03   -0.18510E-03   120   0.131E-01    0.739E-03
RMM:   3    -0.101991106992E+03   -0.24385E-04   -0.23967E-04    88   0.465E-02
    360 T=   689. E= -.89447951E+02 F= -.10199111E+03 E0= -.10199816E+03  EK= 0.47227E+01 SP= 0.78E+01 SK= 0.36E-02
 bond charge predicted
 prediction of wavefunctions
       N       E                     dE             d eps       ncg     rms          rms(c)
DAV:   1    -0.101914650471E+03    0.76432E-01   -0.76625E-03   156   0.249E-01    0.518E-03
RMM:   2    -0.101914730727E+03   -0.80256E-04   -0.81132E-04   120   0.883E-02
    361 T=   682. E= -.89447144E+02 F= -.10191473E+03 E0= -.10192167E+03  EK= 0.46696E+01 SP= 0.78E+01 SK= 0.73E-03
 bond charge predicted
 prediction of wavefunctions
       N       E                     dE             d eps       ncg     rms          rms(c)
DAV:   1    -0.101819888802E+03    0.94762E-01   -0.84488E-03   180   0.286E-01    0.954E-03
RMM:   2    -0.101820098557E+03   -0.20975E-03   -0.21110E-03   120   0.136E-01    0.717E-03
RMM:   3    -0.101820115456E+03   -0.16899E-04   -0.15228E-04    65   0.364E-02
    362 T=   669. E= -.89446174E+02 F= -.10182012E+03 E0= -.10182700E+03  EK= 0.45823E+01 SP= 0.78E+01 SK= 0.47E-05
 bond charge predicted
 prediction of wavefunctions
       N       E                     dE             d eps       ncg     rms          rms(c)
DAV:   1    -0.101711467083E+03    0.10863E+00   -0.76647E-03   132   0.236E-01    0.610E-03
RMM:   2    -0.101711510365E+03   -0.43283E-04   -0.45005E-04   120   0.637E-02
    363 T=   652. E= -.89445224E+02 F= -.10171151E+03 E0= -.10171836E+03  EK= 0.44677E+01 SP= 0.78E+01 SK= 0.66E-03
 bond charge predicted
 prediction of wavefunctions
       N       E                     dE             d eps       ncg     rms          rms(c)
DAV:   1    -0.101594215277E+03    0.11725E+00   -0.86873E-03   168   0.277E-01    0.863E-03
RMM:   2    -0.101594396424E+03   -0.18115E-03   -0.18316E-03   120   0.130E-01    0.558E-03
RMM:   3    -0.101594416012E+03   -0.19588E-04   -0.18777E-04    74   0.408E-02
    364 T=   633. E= -.89444178E+02 F= -.10159442E+03 E0= -.10160122E+03  EK= 0.43352E+01 SP= 0.78E+01 SK= 0.18E-02
 bond charge predicted
 prediction of wavefunctions
       N       E                     dE             d eps       ncg     rms          rms(c)
DAV:   1    -0.101474582066E+03    0.11981E+00   -0.78479E-03   144   0.234E-01    0.551E-03
RMM:   2    -0.101474655985E+03   -0.73919E-04   -0.74695E-04   120   0.782E-02
    365 T=   612. E= -.89443227E+02 F= -.10147466E+03 E0= -.10148142E+03  EK= 0.41945E+01 SP= 0.78E+01 SK= 0.26E-02
 bond charge predicted
 prediction of wavefunctions
       N       E                     dE             d eps       ncg     rms          rms(c)
DAV:   1    -0.101357570069E+03    0.11701E+00   -0.88563E-03   192   0.270E-01    0.102E-02
RMM:   2    -0.101357764651E+03   -0.19458E-03   -0.19897E-03   120   0.132E-01    0.731E-03
RMM:   3    -0.101357791039E+03   -0.26388E-04   -0.26144E-04    84   0.479E-02
    366 T=   592. E= -.89442333E+02 F= -.10135779E+03 E0= -.10136451E+03  EK= 0.40550E+01 SP= 0.79E+01 SK= 0.28E-02
 bond charge predicted
 prediction of wavefunctions
       N       E                     dE             d eps       ncg     rms          rms(c)
DAV:   1    -0.101249045834E+03    0.10872E+00   -0.78821E-03   156   0.235E-01    0.553E-03
RMM:   2    -0.101249130194E+03   -0.84360E-04   -0.85806E-04   120   0.880E-02
    367 T=   573. E= -.89441693E+02 F= -.10124913E+03 E0= -.10125582E+03  EK= 0.39254E+01 SP= 0.79E+01 SK= 0.21E-02
 bond charge predicted
 prediction of wavefunctions
       N       E                     dE             d eps       ncg     rms          rms(c)
DAV:   1    -0.101153049573E+03    0.95996E-01   -0.89334E-03   192   0.265E-01    0.101E-02
RMM:   2    -0.101153240535E+03   -0.19096E-03   -0.19558E-03   120   0.129E-01    0.692E-03
RMM:   3    -0.101153256224E+03   -0.15688E-04   -0.14772E-04    67   0.364E-02
    368 T=   557. E= -.89441119E+02 F= -.10115326E+03 E0= -.10115993E+03  EK= 0.38132E+01 SP= 0.79E+01 SK= 0.11E-02
 bond charge predicted
 prediction of wavefunctions
       N       E                     dE             d eps       ncg     rms          rms(c)
DAV:   1    -0.101073979731E+03    0.79261E-01   -0.79505E-03   180   0.220E-01    0.603E-03
RMM:   2    -0.101074033682E+03   -0.53952E-04   -0.55741E-04   120   0.672E-02
    369 T=   544. E= -.89440664E+02 F= -.10107403E+03 E0= -.10108071E+03  EK= 0.37245E+01 SP= 0.79E+01 SK= 0.22E-03
 bond charge predicted
 prediction of wavefunctions
       N       E                     dE             d eps       ncg     rms          rms(c)
DAV:   1    -0.101014503772E+03    0.59476E-01   -0.85698E-03   156   0.254E-01    0.111E-02
RMM:   2    -0.101014661594E+03   -0.15782E-03   -0.16632E-03   120   0.120E-01    0.679E-03
RMM:   3    -0.101014678063E+03   -0.16469E-04   -0.17641E-04    71   0.395E-02
    370 T=   535. E= -.89440288E+02 F= -.10101468E+03 E0= -.10102136E+03  EK= 0.36641E+01 SP= 0.79E+01 SK= 0.61E-04
 bond charge predicted
 prediction of wavefunctions
       N       E                     dE             d eps       ncg     rms          rms(c)
DAV:   1    -0.100978141317E+03    0.36520E-01   -0.83289E-03   204   0.225E-01    0.707E-03
RMM:   2    -0.100978214823E+03   -0.73506E-04   -0.76620E-04   120   0.785E-02
    371 T=   531. E= -.89439832E+02 F= -.10097821E+03 E0= -.10098489E+03  EK= 0.36362E+01 SP= 0.79E+01 SK= 0.11E-02
 bond charge predicted
 prediction of wavefunctions
       N       E                     dE             d eps       ncg     rms          rms(c)
DAV:   1    -0.100967145602E+03    0.10996E-01   -0.89774E-03   168   0.254E-01    0.139E-02
RMM:   2    -0.100967309241E+03   -0.16364E-03   -0.17851E-03   120   0.121E-01    0.810E-03
RMM:   3    -0.100967333017E+03   -0.23776E-04   -0.26238E-04    84   0.482E-02
    372 T=   532. E= -.89439189E+02 F= -.10096733E+03 E0= -.10097400E+03  EK= 0.36442E+01 SP= 0.79E+01 SK= 0.34E-02
 bond charge predicted
 prediction of wavefunctions
       N       E                     dE             d eps       ncg     rms          rms(c)
DAV:   1    -0.100983993670E+03   -0.16684E-01   -0.87131E-03   132   0.227E-01    0.976E-03
RMM:   2    -0.100984059692E+03   -0.66022E-04   -0.72969E-04   120   0.786E-02
    373 T=   539. E= -.89438641E+02 F= -.10098406E+03 E0= -.10099070E+03  EK= 0.36899E+01 SP= 0.78E+01 SK= 0.69E-02
 bond charge predicted
 prediction of wavefunctions
       N       E                     dE             d eps       ncg     rms          rms(c)
DAV:   1    -0.101028660560E+03   -0.44667E-01   -0.91902E-03   168   0.256E-01    0.130E-02
RMM:   2    -0.101028819125E+03   -0.15856E-03   -0.17263E-03   120   0.119E-01    0.722E-03
RMM:   3    -0.101028836360E+03   -0.17235E-04   -0.18762E-04    72   0.407E-02
    374 T=   551. E= -.89438278E+02 F= -.10102884E+03 E0= -.10103539E+03  EK= 0.37731E+01 SP= 0.78E+01 SK= 0.11E-01
 bond charge predicted
 prediction of wavefunctions
       N       E                     dE             d eps       ncg     rms          rms(c)
DAV:   1    -0.101100046420E+03   -0.71227E-01   -0.89407E-03   204   0.228E-01    0.106E-02
RMM:   2    -0.101100091588E+03   -0.45168E-04   -0.53296E-04   120   0.681E-02
    375 T=   568. E= -.89438266E+02 F= -.10110009E+03 E0= -.10110656E+03  EK= 0.38910E+01 SP= 0.78E+01 SK= 0.14E-01
 bond charge predicted
 prediction of wavefunctions
       N       E                     dE             d eps       ncg     rms          rms(c)
DAV:   1    -0.101192432133E+03   -0.92386E-01   -0.89721E-03   144   0.260E-01    0.112E-02
RMM:   2    -0.101192574982E+03   -0.14285E-03   -0.15293E-03   120   0.115E-01    0.540E-03
RMM:   3    -0.101192595201E+03   -0.20219E-04   -0.20421E-04    75   0.433E-02
    376 T=   589. E= -.89438417E+02 F= -.10119260E+03 E0= -.10119906E+03  EK= 0.40366E+01 SP= 0.77E+01 SK= 0.16E-01
 bond charge predicted
 prediction of wavefunctions
       N       E                     dE             d eps       ncg     rms          rms(c)
DAV:   1    -0.101298025892E+03   -0.10545E+00   -0.83366E-03   132   0.242E-01    0.952E-03
RMM:   2    -0.101298094592E+03   -0.68700E-04   -0.74411E-04   120   0.807E-02
    377 T=   613. E= -.89438905E+02 F= -.10129809E+03 E0= -.10130471E+03  EK= 0.41985E+01 SP= 0.76E+01 SK= 0.16E-01
 bond charge predicted
 prediction of wavefunctions
       N       E                     dE             d eps       ncg     rms          rms(c)
DAV:   1    -0.101405310381E+03   -0.10728E+00   -0.87270E-03   168   0.276E-01    0.102E-02
RMM:   2    -0.101405489785E+03   -0.17940E-03   -0.18620E-03   120   0.125E-01    0.667E-03
RMM:   3    -0.101405510467E+03   -0.20682E-04   -0.20845E-04    82   0.425E-02
    378 T=   637. E= -.89439345E+02 F= -.10140551E+03 E0= -.10141251E+03  EK= 0.43621E+01 SP= 0.76E+01 SK= 0.13E-01
 bond charge predicted
 prediction of wavefunctions
       N       E                     dE             d eps       ncg     rms          rms(c)
DAV:   1    -0.101502592225E+03   -0.97102E-01   -0.77224E-03   144   0.252E-01    0.744E-03
RMM:   2    -0.101502665019E+03   -0.72794E-04   -0.75493E-04   120   0.837E-02
    379 T=   658. E= -.89439960E+02 F= -.10150267E+03 E0= -.10151026E+03  EK= 0.45104E+01 SP= 0.75E+01 SK= 0.94E-02
 bond charge predicted
 prediction of wavefunctions
       N       E                     dE             d eps       ncg     rms          rms(c)
DAV:   1    -0.101576644366E+03   -0.74052E-01   -0.81398E-03   156   0.292E-01    0.130E-02
RMM:   2    -0.101576844360E+03   -0.19999E-03   -0.21165E-03   120   0.137E-01    0.761E-03
RMM:   3    -0.101576864600E+03   -0.20240E-04   -0.20528E-04    85   0.429E-02
    380 T=   675. E= -.89440328E+02 F= -.10157686E+03 E0= -.10158504E+03  EK= 0.46264E+01 SP= 0.75E+01 SK= 0.50E-02
 bond charge predicted
 prediction of wavefunctions
       N       E                     dE             d eps       ncg     rms          rms(c)
DAV:   1    -0.101618522301E+03   -0.41678E-01   -0.73875E-03   156   0.260E-01    0.948E-03
RMM:   2    -0.101618599550E+03   -0.77249E-04   -0.83091E-04   120   0.842E-02
    381 T=   686. E= -.89440425E+02 F= -.10161860E+03 E0= -.10162713E+03  EK= 0.46963E+01 SP= 0.75E+01 SK= 0.16E-02
 bond charge predicted
 prediction of wavefunctions
       N       E                     dE             d eps       ncg     rms          rms(c)
DAV:   1    -0.101621114865E+03   -0.25926E-02   -0.84907E-03   204   0.297E-01    0.133E-02
RMM:   2    -0.101621325202E+03   -0.21034E-03   -0.22263E-03   120   0.140E-01    0.830E-03
RMM:   3    -0.101621346725E+03   -0.21523E-04   -0.22655E-04    82   0.453E-02
    382 T=   688. E= -.89439913E+02 F= -.10162135E+03 E0= -.10162998E+03  EK= 0.47112E+01 SP= 0.75E+01 SK= 0.32E-04
 bond charge predicted
 prediction of wavefunctions
       N       E                     dE             d eps       ncg     rms          rms(c)
DAV:   1    -0.101584278858E+03    0.37046E-01   -0.75774E-03   156   0.263E-01    0.102E-02
RMM:   2    -0.101584371168E+03   -0.92310E-04   -0.98997E-04   120   0.948E-02
    383 T=   682. E= -.89438967E+02 F= -.10158437E+03 E0= -.10159297E+03  EK= 0.46696E+01 SP= 0.75E+01 SK= 0.74E-03
 bond charge predicted
 prediction of wavefunctions
       N       E                     dE             d eps       ncg     rms          rms(c)
DAV:   1    -0.101511984548E+03    0.72294E-01   -0.81608E-03   180   0.300E-01    0.154E-02
RMM:   2    -0.101512219244E+03   -0.23470E-03   -0.24988E-03   120   0.147E-01    0.912E-03
RMM:   3    -0.101512242449E+03   -0.23205E-04   -0.24092E-04    87   0.464E-02
    384 T=   668. E= -.89437812E+02 F= -.10151224E+03 E0= -.10152076E+03  EK= 0.45773E+01 SP= 0.75E+01 SK= 0.32E-02
 bond charge predicted
 prediction of wavefunctions
       N       E                     dE             d eps       ncg     rms          rms(c)
DAV:   1    -0.101413205199E+03    0.99014E-01   -0.66414E-03   156   0.256E-01    0.826E-03
RMM:   2    -0.101413304403E+03   -0.99204E-04   -0.10258E-03   120   0.953E-02    0.611E-03
RMM:   3    -0.101413322270E+03   -0.17868E-04   -0.19643E-04    88   0.414E-02
    385 T=   649. E= -.89436599E+02 F= -.10141332E+03 E0= -.10142176E+03  EK= 0.44459E+01 SP= 0.75E+01 SK= 0.63E-02
 bond charge predicted
 prediction of wavefunctions
       N       E                     dE             d eps       ncg     rms          rms(c)
DAV:   1    -0.101299013039E+03    0.11429E+00   -0.67227E-03   216   0.257E-01    0.110E-02
RMM:   2    -0.101299119393E+03   -0.10635E-03   -0.11443E-03   120   0.106E-01    0.608E-03
RMM:   3    -0.101299133005E+03   -0.13612E-04   -0.14878E-04    69   0.376E-02
    386 T=   626. E= -.89435244E+02 F= -.10129913E+03 E0= -.10130750E+03  EK= 0.42914E+01 SP= 0.76E+01 SK= 0.89E-02
 bond charge predicted
 prediction of wavefunctions
       N       E                     dE             d eps       ncg     rms          rms(c)
DAV:   1    -0.101182654363E+03    0.11647E+00   -0.51558E-03   180   0.250E-01    0.822E-03
RMM:   2    -0.101182768486E+03   -0.11412E-03   -0.11701E-03   120   0.104E-01    0.591E-03
RMM:   3    -0.101182779668E+03   -0.11182E-04   -0.11807E-04    72   0.317E-02
    387 T=   603. E= -.89433999E+02 F= -.10118278E+03 E0= -.10119110E+03  EK= 0.41313E+01 SP= 0.76E+01 SK= 0.10E-01
 bond charge predicted
 prediction of wavefunctions
       N       E                     dE             d eps       ncg     rms          rms(c)
DAV:   1    -0.101076574325E+03    0.10619E+00   -0.43108E-03   168   0.240E-01    0.690E-03
RMM:   2    -0.101076671863E+03   -0.97538E-04   -0.99157E-04   120   0.970E-02
    388 T=   581. E= -.89432681E+02 F= -.10107667E+03 E0= -.10108495E+03  EK= 0.39825E+01 SP= 0.77E+01 SK= 0.95E-02
 bond charge predicted
 prediction of wavefunctions
       N       E                     dE             d eps       ncg     rms          rms(c)
DAV:   1    -0.100992215447E+03    0.84359E-01   -0.45422E-03   168   0.265E-01    0.981E-03
RMM:   2    -0.100992411881E+03   -0.19643E-03   -0.19779E-03   120   0.133E-01    0.713E-03
RMM:   3    -0.100992439022E+03   -0.27141E-04   -0.25419E-04    89   0.476E-02
    389 T=   563. E= -.89431581E+02 F= -.10099244E+03 E0= -.10100069E+03  EK= 0.38595E+01 SP= 0.77E+01 SK= 0.77E-02
 bond charge predicted
 prediction of wavefunctions
       N       E                     dE             d eps       ncg     rms          rms(c)
DAV:   1    -0.100939094106E+03    0.53318E-01   -0.36339E-03   204   0.221E-01    0.620E-03
RMM:   2    -0.100939177343E+03   -0.83237E-04   -0.84245E-04   120   0.844E-02
    390 T=   551. E= -.89430715E+02 F= -.10093918E+03 E0= -.10094745E+03  EK= 0.37739E+01 SP= 0.77E+01 SK= 0.51E-02
 bond charge predicted
 prediction of wavefunctions
       N       E                     dE             d eps       ncg     rms          rms(c)
DAV:   1    -0.100922708341E+03    0.16386E-01   -0.44919E-03   192   0.255E-01    0.103E-02
RMM:   2    -0.100922898272E+03   -0.18993E-03   -0.19135E-03   120   0.128E-01    0.761E-03
RMM:   3    -0.100922913787E+03   -0.15515E-04   -0.13113E-04    69   0.351E-02
    391 T=   545. E= -.89430304E+02 F= -.10092291E+03 E0= -.10093124E+03  EK= 0.37327E+01 SP= 0.78E+01 SK= 0.27E-02
 bond charge predicted
 prediction of wavefunctions
       N       E                     dE             d eps       ncg     rms          rms(c)
DAV:   1    -0.100945933371E+03   -0.23035E-01   -0.35097E-03   132   0.201E-01    0.516E-03
RMM:   2    -0.100945985966E+03   -0.52596E-04   -0.53607E-04   120   0.635E-02
    392 T=   546. E= -.89430058E+02 F= -.10094599E+03 E0= -.10095441E+03  EK= 0.37389E+01 SP= 0.78E+01 SK= 0.99E-03
 bond charge predicted
 prediction of wavefunctions
       N       E                     dE             d eps       ncg     rms          rms(c)
DAV:   1    -0.101007773750E+03   -0.61840E-01   -0.47240E-03   168   0.244E-01    0.954E-03
RMM:   2    -0.101007944909E+03   -0.17116E-03   -0.17355E-03   120   0.119E-01    0.662E-03
RMM:   3    -0.101007960884E+03   -0.15974E-04   -0.14608E-04    73   0.359E-02
    393 T=   554. E= -.89429911E+02 F= -.10100796E+03 E0= -.10101655E+03  EK= 0.37920E+01 SP= 0.78E+01 SK= 0.16E-03
 bond charge predicted
 prediction of wavefunctions
       N       E                     dE             d eps       ncg     rms          rms(c)
DAV:   1    -0.101105510418E+03   -0.97566E-01   -0.43991E-03   168   0.204E-01    0.586E-03
RMM:   2    -0.101105574800E+03   -0.64382E-04   -0.66071E-04   120   0.752E-02
    394 T=   567. E= -.89429838E+02 F= -.10110557E+03 E0= -.10111439E+03  EK= 0.38875E+01 SP= 0.78E+01 SK= 0.49E-05
 bond charge predicted
 prediction of wavefunctions
       N       E                     dE             d eps       ncg     rms          rms(c)
DAV:   1    -0.101232644217E+03   -0.12713E+00   -0.55260E-03   192   0.248E-01    0.102E-02
RMM:   2    -0.101232826152E+03   -0.18194E-03   -0.18650E-03   120   0.125E-01    0.727E-03
RMM:   3    -0.101232848020E+03   -0.21868E-04   -0.21009E-04    79   0.434E-02
    395 T=   586. E= -.89429861E+02 F= -.10123285E+03 E0= -.10124191E+03  EK= 0.40176E+01 SP= 0.78E+01 SK= 0.11E-03
 bond charge predicted
 prediction of wavefunctions
       N       E                     dE             d eps       ncg     rms          rms(c)
DAV:   1    -0.101381970201E+03   -0.14914E+00   -0.51273E-03   144   0.212E-01    0.540E-03
RMM:   2    -0.101382045446E+03   -0.75245E-04   -0.76525E-04   120   0.812E-02
    396 T=   609. E= -.89430157E+02 F= -.10138205E+03 E0= -.10139131E+03  EK= 0.41714E+01 SP= 0.78E+01 SK= 0.13E-03
 bond charge predicted
 prediction of wavefunctions
       N       E                     dE             d eps       ncg     rms          rms(c)
DAV:   1    -0.101542966573E+03   -0.16100E+00   -0.64831E-03   204   0.257E-01    0.111E-02
RMM:   2    -0.101543158087E+03   -0.19151E-03   -0.19717E-03   120   0.128E-01    0.776E-03
RMM:   3    -0.101543175377E+03   -0.17289E-04   -0.16788E-04    73   0.383E-02
    397 T=   633. E= -.89430439E+02 F= -.10154318E+03 E0= -.10155258E+03  EK= 0.43355E+01 SP= 0.78E+01 SK= 0.81E-05
 bond charge predicted
 prediction of wavefunctions
       N       E                     dE             d eps       ncg     rms          rms(c)
DAV:   1    -0.101705172768E+03   -0.16201E+00   -0.59449E-03   180   0.222E-01    0.643E-03
RMM:   2    -0.101705245430E+03   -0.72663E-04   -0.75117E-04   120   0.769E-02
    398 T=   656. E= -.89430762E+02 F= -.10170525E+03 E0= -.10171470E+03  EK= 0.44944E+01 SP= 0.78E+01 SK= 0.21E-03
 bond charge predicted
 prediction of wavefunctions
       N       E                     dE             d eps       ncg     rms          rms(c)
DAV:   1    -0.101857508488E+03   -0.15234E+00   -0.63313E-03   156   0.268E-01    0.125E-02
RMM:   2    -0.101857710911E+03   -0.20242E-03   -0.21245E-03   120   0.132E-01    0.756E-03
RMM:   3    -0.101857733500E+03   -0.22589E-04   -0.22797E-04    85   0.447E-02
    399 T=   676. E= -.89431015E+02 F= -.10185773E+03 E0= -.10186714E+03  EK= 0.46329E+01 SP= 0.78E+01 SK= 0.16E-02
 bond charge predicted
 prediction of wavefunctions
       N       E                     dE             d eps       ncg     rms          rms(c)
DAV:   1    -0.101991287878E+03   -0.13358E+00   -0.61360E-03   156   0.236E-01    0.689E-03
RMM:   2    -0.101991376150E+03   -0.88272E-04   -0.90762E-04   120   0.860E-02
    400 T=   692. E= -.89430838E+02 F= -.10199138E+03 E0= -.10200070E+03  EK= 0.47377E+01 SP= 0.78E+01 SK= 0.53E-02
 bond charge predicted
 prediction of wavefunctions
       N       E                     dE             d eps       ncg     rms          rms(c)
DAV:   1    -0.102098696630E+03   -0.10741E+00   -0.80852E-03   216   0.278E-01    0.151E-02
RMM:   2    -0.102098893574E+03   -0.19694E-03   -0.21303E-03   120   0.136E-01    0.934E-03
RMM:   3    -0.102098913532E+03   -0.19958E-04   -0.22696E-04    77   0.451E-02
    401 T=   700. E= -.89430529E+02 F= -.10209891E+03 E0= -.10210820E+03  EK= 0.47977E+01 SP= 0.79E+01 SK= 0.12E-01
 bond charge predicted
 prediction of wavefunctions
       N       E                     dE             d eps       ncg     rms          rms(c)
DAV:   1    -0.102175436066E+03   -0.76542E-01   -0.70688E-03   180   0.247E-01    0.996E-03
RMM:   2    -0.102175523316E+03   -0.87250E-04   -0.94135E-04   120   0.892E-02
    402 T=   702. E= -.89430109E+02 F= -.10217552E+03 E0= -.10218484E+03  EK= 0.48064E+01 SP= 0.79E+01 SK= 0.22E-01
 bond charge predicted
 prediction of wavefunctions
       N       E                     dE             d eps       ncg     rms          rms(c)
DAV:   1    -0.102219103863E+03   -0.43668E-01   -0.76085E-03   144   0.286E-01    0.160E-02
RMM:   2    -0.102219316577E+03   -0.21271E-03   -0.23249E-03   120   0.139E-01    0.893E-03
RMM:   3    -0.102219339963E+03   -0.23387E-04   -0.25967E-04    94   0.485E-02
    403 T=   695. E= -.89429176E+02 F= -.10221934E+03 E0= -.10222879E+03  EK= 0.47628E+01 SP= 0.80E+01 SK= 0.35E-01
 bond charge predicted
 prediction of wavefunctions
       N       E                     dE             d eps       ncg     rms          rms(c)
DAV:   1    -0.102231879855E+03   -0.12563E-01   -0.73529E-03   228   0.248E-01    0.130E-02
RMM:   2    -0.102231960547E+03   -0.80691E-04   -0.93741E-04   120   0.875E-02
    404 T=   682. E= -.89428006E+02 F= -.10223196E+03 E0= -.10224164E+03  EK= 0.46709E+01 SP= 0.81E+01 SK= 0.49E-01
 bond charge predicted
 prediction of wavefunctions
       N       E                     dE             d eps       ncg     rms          rms(c)
DAV:   1    -0.102217551386E+03    0.14328E-01   -0.82340E-03   216   0.281E-01    0.132E-02
RMM:   2    -0.102217746951E+03   -0.19556E-03   -0.20954E-03   120   0.136E-01    0.714E-03
RMM:   3    -0.102217768298E+03   -0.21347E-04   -0.21851E-04    72   0.462E-02
    405 T=   663. E= -.89426926E+02 F= -.10221777E+03 E0= -.10222773E+03  EK= 0.45388E+01 SP= 0.82E+01 SK= 0.62E-01
 bond charge predicted
 prediction of wavefunctions
       N       E                     dE             d eps       ncg     rms          rms(c)
DAV:   1    -0.102182418727E+03    0.35328E-01   -0.70926E-03   192   0.250E-01    0.114E-02
RMM:   2    -0.102182508304E+03   -0.89576E-04   -0.98786E-04   120   0.889E-02
    406 T=   639. E= -.89425630E+02 F= -.10218251E+03 E0= -.10219276E+03  EK= 0.43780E+01 SP= 0.83E+01 SK= 0.72E-01
 bond charge predicted
 prediction of wavefunctions
       N       E                     dE             d eps       ncg     rms          rms(c)
DAV:   1    -0.102132833937E+03    0.49585E-01   -0.82893E-03   216   0.287E-01    0.120E-02
RMM:   2    -0.102133069002E+03   -0.23506E-03   -0.24485E-03   120   0.142E-01    0.693E-03
RMM:   3    -0.102133091805E+03   -0.22803E-04   -0.21197E-04    83   0.446E-02
    407 T=   613. E= -.89424359E+02 F= -.10213309E+03 E0= -.10214359E+03  EK= 0.42008E+01 SP= 0.84E+01 SK= 0.78E-01
 bond charge predicted
 prediction of wavefunctions
       N       E                     dE             d eps       ncg     rms          rms(c)
DAV:   1    -0.102076323610E+03    0.56745E-01   -0.66338E-03   204   0.243E-01    0.924E-03
RMM:   2    -0.102076427434E+03   -0.10382E-03   -0.10946E-03   120   0.869E-02    0.566E-03
RMM:   3    -0.102076447315E+03   -0.19881E-04   -0.21490E-04    82   0.399E-02
    408 T=   587. E= -.89423643E+02 F= -.10207645E+03 E0= -.10208706E+03  EK= 0.40188E+01 SP= 0.86E+01 SK= 0.78E-01
 bond charge predicted
 prediction of wavefunctions
       N       E                     dE             d eps       ncg     rms          rms(c)
DAV:   1    -0.102018251834E+03    0.58176E-01   -0.57813E-03   204   0.241E-01    0.811E-03
RMM:   2    -0.102018348433E+03   -0.96599E-04   -0.10034E-03   120   0.938E-02    0.475E-03
RMM:   3    -0.102018362847E+03   -0.14415E-04   -0.14521E-04    70   0.368E-02
    409 T=   561. E= -.89423057E+02 F= -.10201836E+03 E0= -.10202895E+03  EK= 0.38429E+01 SP= 0.87E+01 SK= 0.73E-01
 bond charge predicted
 prediction of wavefunctions
       N       E                     dE             d eps       ncg     rms          rms(c)
DAV:   1    -0.101964304524E+03    0.54044E-01   -0.47937E-03   204   0.232E-01    0.653E-03
RMM:   2    -0.101964387750E+03   -0.83226E-04   -0.85577E-04   120   0.880E-02
    410 T=   537. E= -.89422521E+02 F= -.10196439E+03 E0= -.10197481E+03  EK= 0.36819E+01 SP= 0.88E+01 SK= 0.63E-01
 bond charge predicted
 prediction of wavefunctions
       N       E                     dE             d eps       ncg     rms          rms(c)
DAV:   1    -0.101918252306E+03    0.46052E-01   -0.46682E-03   216   0.246E-01    0.962E-03
RMM:   2    -0.101918391296E+03   -0.13899E-03   -0.14451E-03   120   0.114E-01    0.631E-03
RMM:   3    -0.101918411466E+03   -0.20170E-04   -0.19881E-04    73   0.425E-02
    411 T=   517. E= -.89422093E+02 F= -.10191841E+03 E0= -.10192860E+03  EK= 0.35423E+01 SP= 0.89E+01 SK= 0.50E-01
 bond charge predicted
 prediction of wavefunctions
       N       E                     dE             d eps       ncg     rms          rms(c)
DAV:   1    -0.101883497136E+03    0.34894E-01   -0.35163E-03   156   0.214E-01    0.689E-03
RMM:   2    -0.101883554401E+03   -0.57266E-04   -0.60491E-04   120   0.714E-02
    412 T=   501. E= -.89421632E+02 F= -.10188355E+03 E0= -.10189348E+03  EK= 0.34288E+01 SP= 0.90E+01 SK= 0.36E-01
 bond charge predicted
 prediction of wavefunctions
       N       E                     dE             d eps       ncg     rms          rms(c)
DAV:   1    -0.101863174626E+03    0.20323E-01   -0.41424E-03   228   0.240E-01    0.815E-03
RMM:   2    -0.101863321063E+03   -0.14644E-03   -0.14977E-03   120   0.113E-01    0.562E-03
RMM:   3    -0.101863332970E+03   -0.11908E-04   -0.10850E-04    65   0.317E-02
    413 T=   488. E= -.89421339E+02 F= -.10186333E+03 E0= -.10187302E+03  EK= 0.33458E+01 SP= 0.91E+01 SK= 0.23E-01
 bond charge predicted
 prediction of wavefunctions
       N       E                     dE             d eps       ncg     rms          rms(c)
DAV:   1    -0.101860150263E+03    0.31708E-02   -0.30206E-03   156   0.199E-01    0.726E-03
RMM:   2    -0.101860193227E+03   -0.42964E-04   -0.45963E-04   117   0.571E-02
    414 T=   481. E= -.89420978E+02 F= -.10186019E+03 E0= -.10186966E+03  EK= 0.32962E+01 SP= 0.91E+01 SK= 0.11E-01
 bond charge predicted
 prediction of wavefunctions
       N       E                     dE             d eps       ncg     rms          rms(c)
DAV:   1    -0.101876042995E+03   -0.15893E-01   -0.38214E-03   216   0.226E-01    0.749E-03
RMM:   2    -0.101876167323E+03   -0.12433E-03   -0.12731E-03   120   0.105E-01    0.490E-03
RMM:   3    -0.101876183045E+03   -0.15721E-04   -0.15092E-04    67   0.375E-02
    415 T=   479. E= -.89420666E+02 F= -.10187618E+03 E0= -.10188546E+03  EK= 0.32821E+01 SP= 0.92E+01 SK= 0.38E-02
 bond charge predicted
 prediction of wavefunctions
       N       E                     dE             d eps       ncg     rms          rms(c)
DAV:   1    -0.101912532136E+03   -0.36365E-01   -0.33172E-03   204   0.201E-01    0.639E-03
RMM:   2    -0.101912592154E+03   -0.60018E-04   -0.62278E-04   120   0.726E-02
    416 T=   482. E= -.89420308E+02 F= -.10191259E+03 E0= -.10192167E+03  EK= 0.33046E+01 SP= 0.92E+01 SK= 0.30E-03
 bond charge predicted
 prediction of wavefunctions
       N       E                     dE             d eps       ncg     rms          rms(c)
DAV:   1    -0.101970359177E+03   -0.57827E-01   -0.38152E-03   132   0.231E-01    0.721E-03
RMM:   2    -0.101970502890E+03   -0.14371E-03   -0.14589E-03   120   0.109E-01    0.541E-03
RMM:   3    -0.101970522081E+03   -0.19191E-04   -0.18331E-04    70   0.400E-02
    417 T=   491. E= -.89420061E+02 F= -.10197052E+03 E0= -.10197938E+03  EK= 0.33642E+01 SP= 0.92E+01 SK= 0.64E-03
 bond charge predicted
 prediction of wavefunctions
       N       E                     dE             d eps       ncg     rms          rms(c)
DAV:   1    -0.102049528011E+03   -0.79025E-01   -0.35506E-03   156   0.201E-01    0.730E-03
RMM:   2    -0.102049581806E+03   -0.53795E-04   -0.55893E-04   119   0.695E-02
    418 T=   505. E= -.89419730E+02 F= -.10204958E+03 E0= -.10205815E+03  EK= 0.34603E+01 SP= 0.92E+01 SK= 0.40E-02
 bond charge predicted
 prediction of wavefunctions
       N       E                     dE             d eps       ncg     rms          rms(c)
DAV:   1    -0.102147743609E+03   -0.98216E-01   -0.48851E-03   216   0.235E-01    0.689E-03
RMM:   2    -0.102147882737E+03   -0.13913E-03   -0.14111E-03   120   0.112E-01    0.525E-03
RMM:   3    -0.102147899266E+03   -0.16528E-04   -0.15815E-04    66   0.381E-02
    419 T=   524. E= -.89419589E+02 F= -.10214790E+03 E0= -.10215608E+03  EK= 0.35895E+01 SP= 0.91E+01 SK= 0.91E-02
 bond charge predicted
 prediction of wavefunctions
       N       E                     dE             d eps       ncg     rms          rms(c)
DAV:   1    -0.102261584790E+03   -0.11370E+00   -0.43357E-03   180   0.208E-01    0.709E-03
RMM:   2    -0.102261643433E+03   -0.58642E-04   -0.61055E-04   120   0.695E-02
    420 T=   547. E= -.89419566E+02 F= -.10226164E+03 E0= -.10226930E+03  EK= 0.37466E+01 SP= 0.91E+01 SK= 0.14E-01
 bond charge predicted
 prediction of wavefunctions
       N       E                     dE             d eps       ncg     rms          rms(c)
DAV:   1    -0.102385479914E+03   -0.12390E+00   -0.52101E-03   168   0.244E-01    0.720E-03
RMM:   2    -0.102385635311E+03   -0.15540E-03   -0.15738E-03   120   0.113E-01    0.530E-03
RMM:   3    -0.102385655205E+03   -0.19895E-04   -0.19361E-04    74   0.406E-02
    421 T=   573. E= -.89419886E+02 F= -.10238566E+03 E0= -.10239264E+03  EK= 0.39238E+01 SP= 0.90E+01 SK= 0.18E-01
 bond charge predicted
 prediction of wavefunctions
       N       E                     dE             d eps       ncg     rms          rms(c)
DAV:   1    -0.102512504843E+03   -0.12687E+00   -0.49693E-03   156   0.222E-01    0.799E-03
RMM:   2    -0.102512572377E+03   -0.67533E-04   -0.70765E-04   120   0.794E-02
    422 T=   600. E= -.89420092E+02 F= -.10251257E+03 E0= -.10251880E+03  EK= 0.41108E+01 SP= 0.90E+01 SK= 0.19E-01
 bond charge predicted
 prediction of wavefunctions
       N       E                     dE             d eps       ncg     rms          rms(c)
DAV:   1    -0.102634427598E+03   -0.12192E+00   -0.59311E-03   192   0.259E-01    0.880E-03
RMM:   2    -0.102634587848E+03   -0.16025E-03   -0.16413E-03   120   0.123E-01    0.658E-03
RMM:   3    -0.102634604741E+03   -0.16893E-04   -0.17002E-04    71   0.393E-02
    423 T=   627. E= -.89420424E+02 F= -.10263460E+03 E0= -.10264010E+03  EK= 0.42956E+01 SP= 0.89E+01 SK= 0.18E-01
 bond charge predicted
 prediction of wavefunctions
       N       E                     dE             d eps       ncg     rms          rms(c)
DAV:   1    -0.102743309139E+03   -0.10872E+00   -0.55151E-03   180   0.235E-01    0.667E-03
RMM:   2    -0.102743385677E+03   -0.76537E-04   -0.78652E-04   120   0.812E-02
    424 T=   652. E= -.89420733E+02 F= -.10274339E+03 E0= -.10274825E+03  EK= 0.44646E+01 SP= 0.88E+01 SK= 0.14E-01
 bond charge predicted
 prediction of wavefunctions
       N       E                     dE             d eps       ncg     rms          rms(c)
DAV:   1    -0.102831018378E+03   -0.87709E-01   -0.63854E-03   144   0.272E-01    0.105E-02
RMM:   2    -0.102831206967E+03   -0.18859E-03   -0.19453E-03   120   0.128E-01    0.678E-03
RMM:   3    -0.102831227971E+03   -0.21004E-04   -0.20835E-04    85   0.428E-02
    425 T=   672. E= -.89420958E+02 F= -.10283123E+03 E0= -.10283560E+03  EK= 0.46052E+01 SP= 0.88E+01 SK= 0.89E-02
 bond charge predicted
 prediction of wavefunctions
       N       E                     dE             d eps       ncg     rms          rms(c)
DAV:   1    -0.102891866591E+03   -0.60660E-01   -0.62499E-03   156   0.242E-01    0.698E-03
RMM:   2    -0.102891947440E+03   -0.80849E-04   -0.83519E-04   120   0.835E-02
    426 T=   687. E= -.89420978E+02 F= -.10289195E+03 E0= -.10289598E+03  EK= 0.47062E+01 SP= 0.88E+01 SK= 0.40E-02
 bond charge predicted
 prediction of wavefunctions
       N       E                     dE             d eps       ncg     rms          rms(c)
DAV:   1    -0.102921490377E+03   -0.29624E-01   -0.73205E-03   168   0.277E-01    0.124E-02
RMM:   2    -0.102921680694E+03   -0.19032E-03   -0.20074E-03   120   0.132E-01    0.866E-03
RMM:   3    -0.102921700475E+03   -0.19780E-04   -0.22483E-04    81   0.451E-02
    427 T=   695. E= -.89420822E+02 F= -.10292170E+03 E0= -.10292551E+03  EK= 0.47599E+01 SP= 0.87E+01 SK= 0.79E-03
 bond charge predicted
 prediction of wavefunctions
       N       E                     dE             d eps       ncg     rms          rms(c)
DAV:   1    -0.102919001331E+03    0.26794E-02   -0.71706E-03   144   0.248E-01    0.932E-03
RMM:   2    -0.102919082026E+03   -0.80694E-04   -0.86018E-04   120   0.852E-02
    428 T=   695. E= -.89420218E+02 F= -.10291908E+03 E0= -.10292277E+03  EK= 0.47631E+01 SP= 0.87E+01 SK= 0.73E-04
 bond charge predicted
 prediction of wavefunctions
       N       E                     dE             d eps       ncg     rms          rms(c)
DAV:   1    -0.102886023593E+03    0.32978E-01   -0.80626E-03   192   0.278E-01    0.165E-02
RMM:   2    -0.102886209889E+03   -0.18630E-03   -0.20808E-03   120   0.134E-01    0.905E-03
RMM:   3    -0.102886230309E+03   -0.20420E-04   -0.23823E-04    80   0.468E-02
    429 T=   689. E= -.89419305E+02 F= -.10288623E+03 E0= -.10288988E+03  EK= 0.47174E+01 SP= 0.87E+01 SK= 0.19E-02
 bond charge predicted
 prediction of wavefunctions
       N       E                     dE             d eps       ncg     rms          rms(c)
DAV:   1    -0.102827635073E+03    0.58575E-01   -0.76750E-03   168   0.241E-01    0.124E-02
RMM:   2    -0.102827706981E+03   -0.71908E-04   -0.83497E-04   120   0.850E-02
    430 T=   676. E= -.89418395E+02 F= -.10282771E+03 E0= -.10283139E+03  EK= 0.46290E+01 SP= 0.88E+01 SK= 0.57E-02
 bond charge predicted
 prediction of wavefunctions
       N       E                     dE             d eps       ncg     rms          rms(c)
DAV:   1    -0.102748788484E+03    0.78847E-01   -0.79204E-03   144   0.270E-01    0.138E-02
RMM:   2    -0.102748959462E+03   -0.17098E-03   -0.18698E-03   120   0.128E-01    0.778E-03
RMM:   3    -0.102748978011E+03   -0.18550E-04   -0.21418E-04    78   0.443E-02
    431 T=   658. E= -.89417112E+02 F= -.10274898E+03 E0= -.10275278E+03  EK= 0.45070E+01 SP= 0.88E+01 SK= 0.10E-01
 bond charge predicted
 prediction of wavefunctions
       N       E                     dE             d eps       ncg     rms          rms(c)
DAV:   1    -0.102657811648E+03    0.91148E-01   -0.69446E-03   132   0.236E-01    0.124E-02
RMM:   2    -0.102657883171E+03   -0.71523E-04   -0.82419E-04   120   0.845E-02
    432 T=   637. E= -.89415966E+02 F= -.10265788E+03 E0= -.10266189E+03  EK= 0.43631E+01 SP= 0.89E+01 SK= 0.14E-01
 bond charge predicted
 prediction of wavefunctions
       N       E                     dE             d eps       ncg     rms          rms(c)
DAV:   1    -0.102562303523E+03    0.95508E-01   -0.71711E-03   168   0.263E-01    0.134E-02
RMM:   2    -0.102562483456E+03   -0.17993E-03   -0.19443E-03   120   0.127E-01    0.723E-03
RMM:   3    -0.102562505016E+03   -0.21560E-04   -0.22599E-04    85   0.460E-02
    433 T=   615. E= -.89414853E+02 F= -.10256251E+03 E0= -.10256680E+03  EK= 0.42099E+01 SP= 0.89E+01 SK= 0.17E-01
 bond charge predicted
 prediction of wavefunctions
       N       E                     dE             d eps       ncg     rms          rms(c)
DAV:   1    -0.102470971030E+03    0.91512E-01   -0.58161E-03   156   0.223E-01    0.107E-02
RMM:   2    -0.102471041634E+03   -0.70604E-04   -0.78845E-04   120   0.815E-02
    434 T=   593. E= -.89413973E+02 F= -.10247104E+03 E0= -.10247574E+03  EK= 0.40599E+01 SP= 0.90E+01 SK= 0.17E-01
 bond charge predicted
 prediction of wavefunctions
       N       E                     dE             d eps       ncg     rms          rms(c)
DAV:   1    -0.102389934827E+03    0.81036E-01   -0.62461E-03   168   0.251E-01    0.116E-02
RMM:   2    -0.102390097324E+03   -0.16250E-03   -0.17284E-03   120   0.121E-01    0.673E-03
RMM:   3    -0.102390114879E+03   -0.17555E-04   -0.18442E-04    72   0.408E-02
    435 T=   573. E= -.89413289E+02 F= -.10239011E+03 E0= -.10239532E+03  EK= 0.39233E+01 SP= 0.90E+01 SK= 0.16E-01
 bond charge predicted
 prediction of wavefunctions
       N       E                     dE             d eps       ncg     rms          rms(c)
DAV:   1    -0.102324305339E+03    0.65792E-01   -0.53954E-03   168   0.213E-01    0.922E-03
RMM:   2    -0.102324367043E+03   -0.61704E-04   -0.67658E-04   120   0.757E-02
    436 T=   556. E= -.89412862E+02 F= -.10232437E+03 E0= -.10233016E+03  EK= 0.38075E+01 SP= 0.91E+01 SK= 0.13E-01
 bond charge predicted
 prediction of wavefunctions
       N       E                     dE             d eps       ncg     rms          rms(c)
DAV:   1    -0.102276267203E+03    0.48038E-01   -0.60482E-03   180   0.240E-01    0.137E-02
RMM:   2    -0.102276413378E+03   -0.14618E-03   -0.16152E-03   120   0.117E-01    0.759E-03
RMM:   3    -0.102276431430E+03   -0.18052E-04   -0.20569E-04    77   0.435E-02
    437 T=   543. E= -.89412436E+02 F= -.10227643E+03 E0= -.10228284E+03  EK= 0.37175E+01 SP= 0.91E+01 SK= 0.87E-02
 bond charge predicted
 prediction of wavefunctions
       N       E                     dE             d eps       ncg     rms          rms(c)
DAV:   1    -0.102247237465E+03    0.29176E-01   -0.57020E-03   132   0.209E-01    0.995E-03
RMM:   2    -0.102247301818E+03   -0.64353E-04   -0.71932E-04   120   0.775E-02
    438 T=   534. E= -.89412116E+02 F= -.10224730E+03 E0= -.10225428E+03  EK= 0.36556E+01 SP= 0.92E+01 SK= 0.49E-02
 bond charge predicted
 prediction of wavefunctions
       N       E                     dE             d eps       ncg     rms          rms(c)
DAV:   1    -0.102235489879E+03    0.11748E-01   -0.63964E-03   192   0.235E-01    0.128E-02
RMM:   2    -0.102235630225E+03   -0.14035E-03   -0.15364E-03   120   0.112E-01    0.740E-03
RMM:   3    -0.102235645590E+03   -0.15365E-04   -0.17292E-04    69   0.391E-02
    439 T=   529. E= -.89411830E+02 F= -.10223565E+03 E0= -.10224310E+03  EK= 0.36213E+01 SP= 0.92E+01 SK= 0.20E-02
 bond charge predicted
 prediction of wavefunctions
       N       E                     dE             d eps       ncg     rms          rms(c)
DAV:   1    -0.102239123212E+03   -0.34930E-02   -0.58489E-03   180   0.207E-01    0.102E-02
RMM:   2    -0.102239178737E+03   -0.55525E-04   -0.63348E-04   120   0.754E-02
    440 T=   527. E= -.89411646E+02 F= -.10223918E+03 E0= -.10224699E+03  EK= 0.36127E+01 SP= 0.92E+01 SK= 0.31E-03
 bond charge predicted
 prediction of wavefunctions
       N       E                     dE             d eps       ncg     rms          rms(c)
DAV:   1    -0.102255008451E+03   -0.15885E-01   -0.63022E-03   144   0.235E-01    0.128E-02
RMM:   2    -0.102255148442E+03   -0.13999E-03   -0.15331E-03   120   0.114E-01    0.703E-03
RMM:   3    -0.102255167038E+03   -0.18596E-04   -0.20101E-04    74   0.432E-02
    441 T=   529. E= -.89411605E+02 F= -.10225517E+03 E0= -.10226324E+03  EK= 0.36269E+01 SP= 0.92E+01 SK= 0.80E-04
 bond charge predicted
 prediction of wavefunctions
       N       E                     dE             d eps       ncg     rms          rms(c)
DAV:   1    -0.102279839830E+03   -0.24691E-01   -0.57422E-03   144   0.206E-01    0.102E-02
RMM:   2    -0.102279900138E+03   -0.60308E-04   -0.68497E-04   120   0.774E-02
    442 T=   534. E= -.89411374E+02 F= -.10227990E+03 E0= -.10228816E+03  EK= 0.36605E+01 SP= 0.92E+01 SK= 0.12E-02
 bond charge predicted
 prediction of wavefunctions
       N       E                     dE             d eps       ncg     rms          rms(c)
DAV:   1    -0.102310220407E+03   -0.30381E-01   -0.61050E-03   168   0.236E-01    0.113E-02
RMM:   2    -0.102310367015E+03   -0.14661E-03   -0.15595E-03   120   0.113E-01    0.694E-03
RMM:   3    -0.102310384150E+03   -0.17135E-04   -0.17755E-04    66   0.397E-02
    443 T=   542. E= -.89411163E+02 F= -.10231038E+03 E0= -.10231880E+03  EK= 0.37098E+01 SP= 0.92E+01 SK= 0.33E-02
 bond charge predicted
 prediction of wavefunctions
       N       E                     dE             d eps       ncg     rms          rms(c)
DAV:   1    -0.102344287191E+03   -0.33920E-01   -0.53111E-03   132   0.209E-01    0.849E-03
RMM:   2    -0.102344350144E+03   -0.62953E-04   -0.68189E-04   120   0.799E-02
    444 T=   551. E= -.89410874E+02 F= -.10234435E+03 E0= -.10235291E+03  EK= 0.37716E+01 SP= 0.92E+01 SK= 0.60E-02
 bond charge predicted
 prediction of wavefunctions
       N       E                     dE             d eps       ncg     rms          rms(c)
DAV:   1    -0.102380155925E+03   -0.35869E-01   -0.58121E-03   168   0.244E-01    0.113E-02
RMM:   2    -0.102380306084E+03   -0.15016E-03   -0.15884E-03   120   0.118E-01    0.689E-03
RMM:   3    -0.102380325891E+03   -0.19806E-04   -0.20113E-04    71   0.437E-02
    445 T=   561. E= -.89410674E+02 F= -.10238033E+03 E0= -.10238908E+03  EK= 0.38435E+01 SP= 0.91E+01 SK= 0.87E-02
 bond charge predicted
 prediction of wavefunctions
       N       E                     dE             d eps       ncg     rms          rms(c)
DAV:   1    -0.102416679756E+03   -0.36374E-01   -0.51471E-03   156   0.214E-01    0.803E-03
RMM:   2    -0.102416747495E+03   -0.67739E-04   -0.72566E-04   120   0.813E-02
    446 T=   573. E= -.89410359E+02 F= -.10241675E+03 E0= -.10242573E+03  EK= 0.39227E+01 SP= 0.91E+01 SK= 0.11E-01
 bond charge predicted
 prediction of wavefunctions
       N       E                     dE             d eps       ncg     rms          rms(c)
DAV:   1    -0.102453033015E+03   -0.36353E-01   -0.58533E-03   144   0.250E-01    0.123E-02
RMM:   2    -0.102453193464E+03   -0.16045E-03   -0.17073E-03   120   0.121E-01    0.765E-03
RMM:   3    -0.102453211144E+03   -0.17680E-04   -0.18834E-04    73   0.413E-02
    447 T=   585. E= -.89409963E+02 F= -.10245321E+03 E0= -.10246248E+03  EK= 0.40072E+01 SP= 0.90E+01 SK= 0.13E-01
 bond charge predicted
 prediction of wavefunctions
       N       E                     dE             d eps       ncg     rms          rms(c)
DAV:   1    -0.102490155754E+03   -0.36962E-01   -0.51832E-03   156   0.220E-01    0.758E-03
RMM:   2    -0.102490231682E+03   -0.75928E-04   -0.80068E-04   120   0.865E-02
    448 T=   598. E= -.89409551E+02 F= -.10249023E+03 E0= -.10249983E+03  EK= 0.40956E+01 SP= 0.90E+01 SK= 0.13E-01
 bond charge predicted
 prediction of wavefunctions
       N       E                     dE             d eps       ncg     rms          rms(c)
DAV:   1    -0.102528169331E+03   -0.38014E-01   -0.60361E-03   180   0.259E-01    0.132E-02
RMM:   2    -0.102528340672E+03   -0.17134E-03   -0.18276E-03   120   0.126E-01    0.844E-03
RMM:   3    -0.102528358370E+03   -0.17697E-04   -0.18910E-04    66   0.421E-02
    449 T=   611. E= -.89409260E+02 F= -.10252836E+03 E0= -.10253829E+03  EK= 0.41862E+01 SP= 0.89E+01 SK= 0.13E-01
 bond charge predicted
 prediction of wavefunctions
       N       E                     dE             d eps       ncg     rms          rms(c)
DAV:   1    -0.102567227972E+03   -0.38887E-01   -0.52568E-03   132   0.225E-01    0.813E-03
RMM:   2    -0.102567301065E+03   -0.73093E-04   -0.77470E-04   120   0.836E-02
    450 T=   624. E= -.89408866E+02 F= -.10256730E+03 E0= -.10257751E+03  EK= 0.42769E+01 SP= 0.89E+01 SK= 0.11E-01
 bond charge predicted
 prediction of wavefunctions
       N       E                     dE             d eps       ncg     rms          rms(c)
DAV:   1    -0.102607074504E+03   -0.39847E-01   -0.59909E-03   156   0.264E-01    0.163E-02
RMM:   2    -0.102607244195E+03   -0.16969E-03   -0.18896E-03   120   0.128E-01    0.921E-03
RMM:   3    -0.102607262908E+03   -0.18713E-04   -0.22648E-04    88   0.458E-02
    451 T=   637. E= -.89408631E+02 F= -.10260726E+03 E0= -.10261765E+03  EK= 0.43649E+01 SP= 0.88E+01 SK= 0.90E-02
 bond charge predicted
 prediction of wavefunctions
       N       E                     dE             d eps       ncg     rms          rms(c)
DAV:   1    -0.102647308951E+03   -0.40065E-01   -0.54202E-03   180   0.238E-01    0.104E-02
RMM:   2    -0.102647397943E+03   -0.88992E-04   -0.96969E-04   120   0.930E-02
    452 T=   649. E= -.89408394E+02 F= -.10264740E+03 E0= -.10265782E+03  EK= 0.44470E+01 SP= 0.88E+01 SK= 0.61E-02
 bond charge predicted
 prediction of wavefunctions
       N       E                     dE             d eps       ncg     rms          rms(c)
DAV:   1    -0.102685413838E+03   -0.38105E-01   -0.61241E-03   180   0.267E-01    0.157E-02
RMM:   2    -0.102685586366E+03   -0.17253E-03   -0.19078E-03   120   0.129E-01    0.978E-03
RMM:   3    -0.102685603442E+03   -0.17076E-04   -0.21632E-04    78   0.448E-02
    453 T=   660. E= -.89408231E+02 F= -.10268560E+03 E0= -.10269592E+03  EK= 0.45186E+01 SP= 0.88E+01 SK= 0.32E-02
 bond charge predicted
 prediction of wavefunctions
       N       E                     dE             d eps       ncg     rms          rms(c)
DAV:   1    -0.102719154833E+03   -0.33568E-01   -0.60513E-03   144   0.239E-01    0.123E-02
RMM:   2    -0.102719225141E+03   -0.70308E-04   -0.79703E-04   120   0.853E-02
    454 T=   668. E= -.89408038E+02 F= -.10271923E+03 E0= -.10272935E+03  EK= 0.45747E+01 SP= 0.87E+01 SK= 0.10E-02
 bond charge predicted
 prediction of wavefunctions
       N       E                     dE             d eps       ncg     rms          rms(c)
DAV:   1    -0.102744980939E+03   -0.25826E-01   -0.75129E-03   204   0.276E-01    0.151E-02
RMM:   2    -0.102745171918E+03   -0.19098E-03   -0.20685E-03   120   0.134E-01    0.782E-03
RMM:   3    -0.102745193416E+03   -0.21497E-04   -0.22359E-04    78   0.459E-02
    455 T=   673. E= -.89407705E+02 F= -.10274519E+03 E0= -.10275509E+03  EK= 0.46105E+01 SP= 0.87E+01 SK= 0.26E-04
 bond charge predicted
 prediction of wavefunctions
       N       E                     dE             d eps       ncg     rms          rms(c)
DAV:   1    -0.102760919305E+03   -0.15747E-01   -0.72589E-03   180   0.242E-01    0.125E-02
RMM:   2    -0.102760998703E+03   -0.79397E-04   -0.91098E-04   120   0.898E-02
    456 T=   675. E= -.89407410E+02 F= -.10276100E+03 E0= -.10277065E+03  EK= 0.46219E+01 SP= 0.87E+01 SK= 0.55E-03
 bond charge predicted
 prediction of wavefunctions
       N       E                     dE             d eps       ncg     rms          rms(c)
DAV:   1    -0.102764866010E+03   -0.39467E-02   -0.84363E-03   144   0.278E-01    0.132E-02
RMM:   2    -0.102765061368E+03   -0.19536E-03   -0.20635E-03   120   0.133E-01    0.862E-03
RMM:   3    -0.102765080539E+03   -0.19171E-04   -0.20427E-04    78   0.431E-02
    457 T=   673. E= -.89406946E+02 F= -.10276508E+03 E0= -.10277445E+03  EK= 0.46074E+01 SP= 0.87E+01 SK= 0.27E-02
 bond charge predicted
 prediction of wavefunctions
       N       E                     dE             d eps       ncg     rms          rms(c)
DAV:   1    -0.102756962680E+03    0.80987E-02   -0.80355E-03   180   0.240E-01    0.105E-02
RMM:   2    -0.102757039601E+03   -0.76921E-04   -0.84686E-04   120   0.867E-02
    458 T=   667. E= -.89406221E+02 F= -.10275704E+03 E0= -.10276606E+03  EK= 0.45672E+01 SP= 0.88E+01 SK= 0.62E-02
 bond charge predicted
 prediction of wavefunctions
       N       E                     dE             d eps       ncg     rms          rms(c)
DAV:   1    -0.102738057898E+03    0.18905E-01   -0.80378E-03   144   0.276E-01    0.134E-02
RMM:   2    -0.102738257241E+03   -0.19934E-03   -0.20964E-03   120   0.133E-01    0.759E-03
RMM:   3    -0.102738282240E+03   -0.24999E-04   -0.24533E-04    86   0.474E-02
    459 T=   657. E= -.89405307E+02 F= -.10273828E+03 E0= -.10274683E+03  EK= 0.45042E+01 SP= 0.88E+01 SK= 0.11E-01
 bond charge predicted
 prediction of wavefunctions
       N       E                     dE             d eps       ncg     rms          rms(c)
DAV:   1    -0.102712008513E+03    0.26249E-01   -0.61880E-03   168   0.236E-01    0.994E-03
RMM:   2    -0.102712091196E+03   -0.82683E-04   -0.90606E-04   120   0.899E-02
    460 T=   646. E= -.89404506E+02 F= -.10271209E+03 E0= -.10272008E+03  EK= 0.44235E+01 SP= 0.89E+01 SK= 0.15E-01
 bond charge predicted
 prediction of wavefunctions
       N       E                     dE             d eps       ncg     rms          rms(c)
DAV:   1    -0.102681927678E+03    0.30081E-01   -0.62919E-03   168   0.271E-01    0.119E-02
RMM:   2    -0.102682123781E+03   -0.19610E-03   -0.20385E-03   120   0.132E-01    0.819E-03
RMM:   3    -0.102682143842E+03   -0.20061E-04   -0.19988E-04    77   0.425E-02
    461 T=   632. E= -.89403596E+02 F= -.10268214E+03 E0= -.10268956E+03  EK= 0.43318E+01 SP= 0.89E+01 SK= 0.19E-01
 bond charge predicted
 prediction of wavefunctions
       N       E                     dE             d eps       ncg     rms          rms(c)
DAV:   1    -0.102652516063E+03    0.29608E-01   -0.50972E-03   120   0.225E-01    0.837E-03
RMM:   2    -0.102652586084E+03   -0.70022E-04   -0.75107E-04   120   0.836E-02
    462 T=   618. E= -.89402811E+02 F= -.10265259E+03 E0= -.10265952E+03  EK= 0.42358E+01 SP= 0.90E+01 SK= 0.22E-01
 bond charge predicted
 prediction of wavefunctions
       N       E                     dE             d eps       ncg     rms          rms(c)
DAV:   1    -0.102626743031E+03    0.25773E-01   -0.55194E-03   168   0.259E-01    0.126E-02
RMM:   2    -0.102626920468E+03   -0.17744E-03   -0.18567E-03   120   0.126E-01    0.790E-03
RMM:   3    -0.102626940167E+03   -0.19699E-04   -0.19608E-04    71   0.427E-02
    463 T=   605. E= -.89402200E+02 F= -.10262694E+03 E0= -.10263351E+03  EK= 0.41417E+01 SP= 0.91E+01 SK= 0.23E-01
 bond charge predicted
 prediction of wavefunctions
       N       E                     dE             d eps       ncg     rms          rms(c)
DAV:   1    -0.102607121581E+03    0.19799E-01   -0.45515E-03   156   0.215E-01    0.772E-03
RMM:   2    -0.102607191999E+03   -0.70418E-04   -0.74633E-04   120   0.804E-02
    464 T=   592. E= -.89401590E+02 F= -.10260719E+03 E0= -.10261357E+03  EK= 0.40540E+01 SP= 0.91E+01 SK= 0.23E-01
 bond charge predicted
 prediction of wavefunctions
       N       E                     dE             d eps       ncg     rms          rms(c)
DAV:   1    -0.102593960474E+03    0.13161E-01   -0.51439E-03   144   0.247E-01    0.127E-02
RMM:   2    -0.102594125273E+03   -0.16480E-03   -0.17399E-03   120   0.121E-01    0.797E-03
RMM:   3    -0.102594144797E+03   -0.19525E-04   -0.20054E-04    76   0.423E-02
    465 T=   580. E= -.89401202E+02 F= -.10259414E+03 E0= -.10260050E+03  EK= 0.39753E+01 SP= 0.92E+01 SK= 0.22E-01
 bond charge predicted
 prediction of wavefunctions
       N       E                     dE             d eps       ncg     rms          rms(c)
DAV:   1    -0.102586567816E+03    0.75575E-02   -0.44184E-03   156   0.207E-01    0.780E-03
RMM:   2    -0.102586638099E+03   -0.70283E-04   -0.74584E-04   120   0.821E-02
    466 T=   570. E= -.89400963E+02 F= -.10258664E+03 E0= -.10259313E+03  EK= 0.39062E+01 SP= 0.93E+01 SK= 0.19E-01
 bond charge predicted
 prediction of wavefunctions
       N       E                     dE             d eps       ncg     rms          rms(c)
DAV:   1    -0.102581903457E+03    0.46644E-02   -0.57829E-03   192   0.239E-01    0.136E-02
RMM:   2    -0.102582055733E+03   -0.15228E-03   -0.16194E-03   120   0.118E-01    0.902E-03
RMM:   3    -0.102582070260E+03   -0.14527E-04   -0.15841E-04    68   0.381E-02
    467 T=   561. E= -.89400640E+02 F= -.10258207E+03 E0= -.10258888E+03  EK= 0.38458E+01 SP= 0.93E+01 SK= 0.16E-01
 bond charge predicted
 prediction of wavefunctions
       N       E                     dE             d eps       ncg     rms          rms(c)
DAV:   1    -0.102578303711E+03    0.37520E-02   -0.50694E-03   132   0.200E-01    0.897E-03
RMM:   2    -0.102578364787E+03   -0.61076E-04   -0.66393E-04   120   0.768E-02
    468 T=   554. E= -.89400350E+02 F= -.10257836E+03 E0= -.10258568E+03  EK= 0.37929E+01 SP= 0.94E+01 SK= 0.12E-01
 bond charge predicted
 prediction of wavefunctions
       N       E                     dE             d eps       ncg     rms          rms(c)
DAV:   1    -0.102573570089E+03    0.47336E-02   -0.57621E-03   180   0.232E-01    0.148E-02
RMM:   2    -0.102573710470E+03   -0.14038E-03   -0.15404E-03   120   0.114E-01    0.877E-03
RMM:   3    -0.102573725505E+03   -0.15034E-04   -0.17387E-04    69   0.397E-02
    469 T=   547. E= -.89400182E+02 F= -.10257373E+03 E0= -.10258170E+03  EK= 0.37466E+01 SP= 0.94E+01 SK= 0.85E-02
 bond charge predicted
 prediction of wavefunctions
       N       E                     dE             d eps       ncg     rms          rms(c)
DAV:   1    -0.102566342497E+03    0.73680E-02   -0.50363E-03   156   0.199E-01    0.100E-02
RMM:   2    -0.102566407898E+03   -0.65402E-04   -0.72528E-04   120   0.798E-02
    470 T=   541. E= -.89399812E+02 F= -.10256641E+03 E0= -.10257518E+03  EK= 0.37063E+01 SP= 0.95E+01 SK= 0.51E-02
 bond charge predicted
 prediction of wavefunctions
       N       E                     dE             d eps       ncg     rms          rms(c)
DAV:   1    -0.102556078837E+03    0.10264E-01   -0.55518E-03   168   0.233E-01    0.145E-02
RMM:   2    -0.102556226343E+03   -0.14751E-03   -0.15999E-03   120   0.114E-01    0.925E-03
RMM:   3    -0.102556243020E+03   -0.16677E-04   -0.19067E-04    73   0.415E-02
    471 T=   536. E= -.89399400E+02 F= -.10255624E+03 E0= -.10256582E+03  EK= 0.36723E+01 SP= 0.95E+01 SK= 0.24E-02
 bond charge predicted
 prediction of wavefunctions
       N       E                     dE             d eps       ncg     rms          rms(c)
DAV:   1    -0.102543978648E+03    0.12248E-01   -0.46477E-03   192   0.202E-01    0.110E-02
RMM:   2    -0.102544046539E+03   -0.67891E-04   -0.76292E-04   120   0.796E-02
    472 T=   532. E= -.89398862E+02 F= -.10254405E+03 E0= -.10255430E+03  EK= 0.36460E+01 SP= 0.95E+01 SK= 0.58E-03
 bond charge predicted
 prediction of wavefunctions
       N       E                     dE             d eps       ncg     rms          rms(c)
DAV:   1    -0.102531696004E+03    0.12283E-01   -0.52733E-03   192   0.235E-01    0.145E-02
RMM:   2    -0.102531854586E+03   -0.15858E-03   -0.17099E-03   120   0.118E-01    0.853E-03
RMM:   3    -0.102531870434E+03   -0.15848E-04   -0.16370E-04    72   0.392E-02
    473 T=   530. E= -.89398608E+02 F= -.10253187E+03 E0= -.10254261E+03  EK= 0.36296E+01 SP= 0.95E+01 SK= 0.24E-05
 bond charge predicted
 prediction of wavefunctions
       N       E                     dE             d eps       ncg     rms          rms(c)
DAV:   1    -0.102521061167E+03    0.10793E-01   -0.41118E-03   192   0.205E-01    0.114E-02
RMM:   2    -0.102521130095E+03   -0.68928E-04   -0.77947E-04   120   0.786E-02
    474 T=   529. E= -.89398174E+02 F= -.10252113E+03 E0= -.10253221E+03  EK= 0.36251E+01 SP= 0.95E+01 SK= 0.77E-03
 bond charge predicted
 prediction of wavefunctions
       N       E                     dE             d eps       ncg     rms          rms(c)
DAV:   1    -0.102513869544E+03    0.71916E-02   -0.48234E-03   192   0.243E-01    0.134E-02
RMM:   2    -0.102514034551E+03   -0.16501E-03   -0.17538E-03   120   0.121E-01    0.862E-03
RMM:   3    -0.102514048650E+03   -0.14098E-04   -0.14707E-04    68   0.376E-02
    475 T=   531. E= -.89397760E+02 F= -.10251405E+03 E0= -.10252531E+03  EK= 0.36347E+01 SP= 0.95E+01 SK= 0.29E-02
 bond charge predicted
 prediction of wavefunctions
       N       E                     dE             d eps       ncg     rms          rms(c)
DAV:   1    -0.102512257465E+03    0.17771E-02   -0.31905E-03   168   0.212E-01    0.109E-02
RMM:   2    -0.102512326255E+03   -0.68790E-04   -0.76780E-04   120   0.800E-02
    476 T=   534. E= -.89397392E+02 F= -.10251233E+03 E0= -.10252360E+03  EK= 0.36599E+01 SP= 0.94E+01 SK= 0.62E-02
 bond charge predicted
 prediction of wavefunctions
       N       E                     dE             d eps       ncg     rms          rms(c)
DAV:   1    -0.102516628273E+03   -0.43708E-02   -0.39138E-03   168   0.247E-01    0.140E-02
RMM:   2    -0.102516805743E+03   -0.17747E-03   -0.18797E-03   120   0.123E-01    0.842E-03
RMM:   3    -0.102516828199E+03   -0.22456E-04   -0.23148E-04    80   0.458E-02
    477 T=   540. E= -.89397219E+02 F= -.10251683E+03 E0= -.10252791E+03  EK= 0.37012E+01 SP= 0.94E+01 SK= 0.10E-01
 bond charge predicted
 prediction of wavefunctions
       N       E                     dE             d eps       ncg     rms          rms(c)
DAV:   1    -0.102526485406E+03   -0.96797E-02   -0.35307E-03   156   0.218E-01    0.103E-02
RMM:   2    -0.102526562706E+03   -0.77300E-04   -0.84477E-04   120   0.836E-02
    478 T=   548. E= -.89396852E+02 F= -.10252656E+03 E0= -.10253726E+03  EK= 0.37574E+01 SP= 0.94E+01 SK= 0.15E-01
 bond charge predicted
 prediction of wavefunctions
       N       E                     dE             d eps       ncg     rms          rms(c)
DAV:   1    -0.102539942844E+03   -0.13457E-01   -0.47816E-03   204   0.254E-01    0.127E-02
RMM:   2    -0.102540118955E+03   -0.17611E-03   -0.18398E-03   120   0.122E-01    0.825E-03
RMM:   3    -0.102540134116E+03   -0.15161E-04   -0.15355E-04    65   0.373E-02
    479 T=   558. E= -.89396820E+02 F= -.10254013E+03 E0= -.10255032E+03  EK= 0.38257E+01 SP= 0.93E+01 SK= 0.20E-01
Information: wavefunction orthogonal band   60  0.8799
 bond charge predicted
 prediction of wavefunctions
       N       E                     dE             d eps       ncg     rms          rms(c)
DAV:   1    -0.102554690104E+03   -0.14571E-01   -0.40745E-03   156   0.224E-01    0.971E-03
RMM:   2    -0.102554768682E+03   -0.78578E-04   -0.84617E-04   120   0.845E-02
    480 T=   570. E= -.89396777E+02 F= -.10255477E+03 E0= -.10256440E+03  EK= 0.39026E+01 SP= 0.92E+01 SK= 0.23E-01
 bond charge predicted
 prediction of wavefunctions
       N       E                     dE             d eps       ncg     rms          rms(c)
DAV:   1    -0.102567496455E+03   -0.12806E-01   -0.64581E-03   180   0.264E-01    0.145E-02
RMM:   2    -0.102567683676E+03   -0.18722E-03   -0.19742E-03   120   0.127E-01    0.940E-03
RMM:   3    -0.102567702326E+03   -0.18649E-04   -0.19956E-04    79   0.429E-02
    481 T=   581. E= -.89396812E+02 F= -.10256770E+03 E0= -.10257678E+03  EK= 0.39837E+01 SP= 0.92E+01 SK= 0.26E-01
 bond charge predicted
 prediction of wavefunctions
       N       E                     dE             d eps       ncg     rms          rms(c)
DAV:   1    -0.102575500161E+03   -0.78165E-02   -0.64004E-03   180   0.231E-01    0.101E-02
RMM:   2    -0.102575592341E+03   -0.92180E-04   -0.98885E-04   120   0.887E-02
    482 T=   593. E= -.89396771E+02 F= -.10257559E+03 E0= -.10258416E+03  EK= 0.40641E+01 SP= 0.91E+01 SK= 0.28E-01
 bond charge predicted
 prediction of wavefunctions
       N       E                     dE             d eps       ncg     rms          rms(c)
DAV:   1    -0.102575496649E+03    0.35123E-05   -0.70364E-03   192   0.268E-01    0.137E-02
RMM:   2    -0.102575700539E+03   -0.20389E-03   -0.21301E-03   120   0.130E-01    0.853E-03
RMM:   3    -0.102575722289E+03   -0.21750E-04   -0.21688E-04    78   0.444E-02
    483 T=   604. E= -.89396528E+02 F= -.10257572E+03 E0= -.10258380E+03  EK= 0.41393E+01 SP= 0.90E+01 SK= 0.28E-01
 bond charge predicted
 prediction of wavefunctions
       N       E                     dE             d eps       ncg     rms          rms(c)
DAV:   1    -0.102566592329E+03    0.91082E-02   -0.70528E-03   204   0.235E-01    0.981E-03
RMM:   2    -0.102566679542E+03   -0.87213E-04   -0.92970E-04   120   0.873E-02
    484 T=   614. E= -.89396317E+02 F= -.10256668E+03 E0= -.10257429E+03  EK= 0.42057E+01 SP= 0.89E+01 SK= 0.26E-01
 bond charge predicted
 prediction of wavefunctions
       N       E                     dE             d eps       ncg     rms          rms(c)
DAV:   1    -0.102546985377E+03    0.19607E-01   -0.80202E-03   168   0.271E-01    0.136E-02
RMM:   2    -0.102547193951E+03   -0.20857E-03   -0.21666E-03   120   0.133E-01    0.896E-03
RMM:   3    -0.102547217149E+03   -0.23198E-04   -0.22816E-04    80   0.459E-02
    485 T=   622. E= -.89396048E+02 F= -.10254722E+03 E0= -.10255440E+03  EK= 0.42603E+01 SP= 0.89E+01 SK= 0.24E-01
 bond charge predicted
 prediction of wavefunctions
       N       E                     dE             d eps       ncg     rms          rms(c)
DAV:   1    -0.102516632163E+03    0.30562E-01   -0.76493E-03   156   0.232E-01    0.924E-03
RMM:   2    -0.102516713076E+03   -0.80913E-04   -0.85910E-04   120   0.846E-02
    486 T=   628. E= -.89395483E+02 F= -.10251671E+03 E0= -.10252353E+03  EK= 0.43008E+01 SP= 0.88E+01 SK= 0.21E-01
 bond charge predicted
 prediction of wavefunctions
       N       E                     dE             d eps       ncg     rms          rms(c)
DAV:   1    -0.102475681571E+03    0.40951E-01   -0.83495E-03   192   0.267E-01    0.145E-02
RMM:   2    -0.102475877770E+03   -0.19620E-03   -0.20553E-03   120   0.131E-01    0.907E-03
RMM:   3    -0.102475897470E+03   -0.19700E-04   -0.20126E-04    76   0.427E-02
    487 T=   631. E= -.89395068E+02 F= -.10247590E+03 E0= -.10248241E+03  EK= 0.43262E+01 SP= 0.87E+01 SK= 0.18E-01
 bond charge predicted
 prediction of wavefunctions
       N       E                     dE             d eps       ncg     rms          rms(c)
DAV:   1    -0.102424822736E+03    0.51055E-01   -0.70830E-03   156   0.230E-01    0.893E-03
RMM:   2    -0.102424905283E+03   -0.82547E-04   -0.87208E-04   120   0.864E-02
    488 T=   633. E= -.89394626E+02 F= -.10242491E+03 E0= -.10243119E+03  EK= 0.43360E+01 SP= 0.87E+01 SK= 0.14E-01
 bond charge predicted
 prediction of wavefunctions
       N       E                     dE             d eps       ncg     rms          rms(c)
DAV:   1    -0.102364199985E+03    0.60623E-01   -0.76432E-03   192   0.269E-01    0.145E-02
RMM:   2    -0.102364398304E+03   -0.19832E-03   -0.20838E-03   120   0.132E-01    0.933E-03
RMM:   3    -0.102364420493E+03   -0.22190E-04   -0.22878E-04    84   0.455E-02
    489 T=   632. E= -.89394044E+02 F= -.10236442E+03 E0= -.10237053E+03  EK= 0.43303E+01 SP= 0.86E+01 SK= 0.12E-01
 bond charge predicted
 prediction of wavefunctions
       N       E                     dE             d eps       ncg     rms          rms(c)
DAV:   1    -0.102295647449E+03    0.68751E-01   -0.61451E-03   168   0.229E-01    0.961E-03
RMM:   2    -0.102295734998E+03   -0.87549E-04   -0.92703E-04   120   0.881E-02
    490 T=   629. E= -.89393571E+02 F= -.10229573E+03 E0= -.10230170E+03  EK= 0.43101E+01 SP= 0.86E+01 SK= 0.91E-02
 bond charge predicted
 prediction of wavefunctions
       N       E                     dE             d eps       ncg     rms          rms(c)
DAV:   1    -0.102219938710E+03    0.75709E-01   -0.64166E-03   204   0.264E-01    0.170E-02
RMM:   2    -0.102220125603E+03   -0.18689E-03   -0.20235E-03   120   0.133E-01    0.107E-02
RMM:   3    -0.102220143480E+03   -0.17877E-04   -0.20833E-04    77   0.440E-02
    491 T=   624. E= -.89392863E+02 F= -.10222014E+03 E0= -.10222598E+03  EK= 0.42777E+01 SP= 0.85E+01 SK= 0.72E-02
 bond charge predicted
 prediction of wavefunctions
       N       E                     dE             d eps       ncg     rms          rms(c)
DAV:   1    -0.102140815252E+03    0.79310E-01   -0.48548E-03   168   0.227E-01    0.118E-02
RMM:   2    -0.102140895401E+03   -0.80149E-04   -0.88247E-04   120   0.859E-02
    492 T=   618. E= -.89392082E+02 F= -.10214090E+03 E0= -.10214658E+03  EK= 0.42368E+01 SP= 0.85E+01 SK= 0.58E-02
 bond charge predicted
 prediction of wavefunctions
       N       E                     dE             d eps       ncg     rms          rms(c)
DAV:   1    -0.102061964842E+03    0.78850E-01   -0.50773E-03   156   0.264E-01    0.157E-02
RMM:   2    -0.102062160336E+03   -0.19549E-03   -0.20913E-03   120   0.132E-01    0.954E-03
RMM:   3    -0.102062180641E+03   -0.20305E-04   -0.21761E-04    80   0.449E-02
    493 T=   612. E= -.89391449E+02 F= -.10206218E+03 E0= -.10206770E+03  EK= 0.41924E+01 SP= 0.85E+01 SK= 0.49E-02
 bond charge predicted
 prediction of wavefunctions
       N       E                     dE             d eps       ncg     rms          rms(c)
DAV:   1    -0.101988195434E+03    0.73965E-01   -0.39103E-03   156   0.223E-01    0.118E-02
RMM:   2    -0.101988271820E+03   -0.76386E-04   -0.84287E-04   120   0.851E-02
    494 T=   606. E= -.89390738E+02 F= -.10198827E+03 E0= -.10199365E+03  EK= 0.41503E+01 SP= 0.84E+01 SK= 0.44E-02
 bond charge predicted
 prediction of wavefunctions
       N       E                     dE             d eps       ncg     rms          rms(c)
DAV:   1    -0.101923307694E+03    0.64888E-01   -0.49349E-03   216   0.259E-01    0.153E-02
RMM:   2    -0.101923477889E+03   -0.17020E-03   -0.18318E-03   120   0.126E-01    0.916E-03
RMM:   3    -0.101923494401E+03   -0.16512E-04   -0.18204E-04    72   0.412E-02
    495 T=   601. E= -.89390140E+02 F= -.10192349E+03 E0= -.10192880E+03  EK= 0.41157E+01 SP= 0.84E+01 SK= 0.41E-02
 bond charge predicted
 prediction of wavefunctions
       N       E                     dE             d eps       ncg     rms          rms(c)
DAV:   1    -0.101871249370E+03    0.52229E-01   -0.39517E-03   156   0.224E-01    0.124E-02
RMM:   2    -0.101871418816E+03   -0.16945E-03   -0.17931E-03   120   0.895E-02    0.823E-03
RMM:   3    -0.101871443843E+03   -0.25027E-04   -0.28972E-04    92   0.410E-02
    496 T=   597. E= -.89389801E+02 F= -.10187144E+03 E0= -.10187682E+03  EK= 0.40929E+01 SP= 0.84E+01 SK= 0.41E-02
Information: wavefunction orthogonal band   60  0.4332
 bond charge predicted
 prediction of wavefunctions
       N       E                     dE             d eps       ncg     rms          rms(c)
DAV:   1    -0.101834153988E+03    0.37265E-01   -0.95402E-03   156   0.233E-01    0.999E-03
RMM:   2    -0.101834301429E+03   -0.14744E-03   -0.15322E-03   120   0.102E-01    0.572E-03
RMM:   3    -0.101834327885E+03   -0.26456E-04   -0.26382E-04    93   0.430E-02
    497 T=   596. E= -.89389654E+02 F= -.10183433E+03 E0= -.10184000E+03  EK= 0.40850E+01 SP= 0.84E+01 SK= 0.42E-02
 bond charge predicted
 prediction of wavefunctions
       N       E                     dE             d eps       ncg     rms          rms(c)
DAV:   1    -0.101812518926E+03    0.21783E-01   -0.67351E-03   180   0.240E-01    0.990E-03
RMM:   2    -0.101812691138E+03   -0.17221E-03   -0.17925E-03   120   0.105E-01    0.575E-03
RMM:   3    -0.101812714372E+03   -0.23234E-04   -0.22285E-04    90   0.394E-02
    498 T=   597. E= -.89389622E+02 F= -.10181271E+03 E0= -.10181901E+03  EK= 0.40929E+01 SP= 0.83E+01 SK= 0.44E-02
 bond charge predicted
 prediction of wavefunctions
       N       E                     dE             d eps       ncg     rms          rms(c)
DAV:   1    -0.101805138688E+03    0.75525E-02   -0.91510E-03   156   0.235E-01    0.886E-03
RMM:   2    -0.101805257662E+03   -0.11897E-03   -0.12327E-03   120   0.977E-02    0.580E-03
RMM:   3    -0.101805276679E+03   -0.19017E-04   -0.18901E-04    85   0.396E-02
    499 T=   601. E= -.89389484E+02 F= -.10180528E+03 E0= -.10181263E+03  EK= 0.41153E+01 SP= 0.83E+01 SK= 0.44E-02
 bond charge predicted
 prediction of wavefunctions
       N       E                     dE             d eps       ncg     rms          rms(c)
DAV:   1    -0.101808952714E+03   -0.36951E-02   -0.43710E-03   204   0.233E-01    0.674E-03
RMM:   2    -0.101809032106E+03   -0.79393E-04   -0.81966E-04   120   0.856E-02
    500 T=   606. E= -.89389435E+02 F= -.10180903E+03 E0= -.10181764E+03  EK= 0.41487E+01 SP= 0.83E+01 SK= 0.42E-02
 bond charge predicted
 prediction of wavefunctions
       N       E                     dE             d eps       ncg     rms          rms(c)
DAV:   1    -0.101820098949E+03   -0.11146E-01   -0.46879E-03   192   0.254E-01    0.202E-02
RMM:   2    -0.101820213850E+03   -0.11490E-03   -0.14726E-03   120   0.114E-01    0.117E-02
RMM:   3    -0.101820224450E+03   -0.10600E-04   -0.21761E-04    78   0.417E-02
    501 T=   611. E= -.89389328E+02 F= -.10182022E+03 E0= -.10182955E+03  EK= 0.41887E+01 SP= 0.82E+01 SK= 0.37E-02
 bond charge predicted
 prediction of wavefunctions
       N       E                     dE             d eps       ncg     rms          rms(c)
DAV:   1    -0.101835048108E+03   -0.14834E-01   -0.49151E-03   156   0.227E-01    0.105E-02
RMM:   2    -0.101835104599E+03   -0.56491E-04   -0.65340E-04   120   0.736E-02
    502 T=   618. E= -.89388998E+02 F= -.10183510E+03 E0= -.10184451E+03  EK= 0.42306E+01 SP= 0.82E+01 SK= 0.30E-02
 bond charge predicted
 prediction of wavefunctions
       N       E                     dE             d eps       ncg     rms          rms(c)
DAV:   1    -0.101849721420E+03   -0.14673E-01   -0.60052E-03   168   0.257E-01    0.110E-02
RMM:   2    -0.101849878876E+03   -0.15746E-03   -0.16419E-03   120   0.118E-01    0.719E-03
RMM:   3    -0.101849893386E+03   -0.14510E-04   -0.15239E-04    68   0.364E-02
    503 T=   623. E= -.89388780E+02 F= -.10184989E+03 E0= -.10185911E+03  EK= 0.42693E+01 SP= 0.82E+01 SK= 0.22E-02
 bond charge predicted
 prediction of wavefunctions
       N       E                     dE             d eps       ncg     rms          rms(c)
DAV:   1    -0.101861190424E+03   -0.11312E-01   -0.63414E-03   156   0.222E-01    0.131E-02
RMM:   2    -0.101861227769E+03   -0.37345E-04   -0.50905E-04   119   0.603E-02
    504 T=   628. E= -.89388718E+02 F= -.10186123E+03 E0= -.10187024E+03  EK= 0.43002E+01 SP= 0.82E+01 SK= 0.13E-02
 bond charge predicted
 prediction of wavefunctions
       N       E                     dE             d eps       ncg     rms          rms(c)
DAV:   1    -0.101866603930E+03   -0.54135E-02   -0.82866E-03   168   0.256E-01    0.127E-02
RMM:   2    -0.101866761500E+03   -0.15757E-03   -0.16601E-03   120   0.117E-01    0.727E-03
RMM:   3    -0.101866782528E+03   -0.21028E-04   -0.21311E-04    78   0.418E-02
    505 T=   631. E= -.89388635E+02 F= -.10186678E+03 E0= -.10187567E+03  EK= 0.43204E+01 SP= 0.82E+01 SK= 0.62E-03
 bond charge predicted
 prediction of wavefunctions
       N       E                     dE             d eps       ncg     rms          rms(c)
DAV:   1    -0.101864625757E+03    0.21357E-02   -0.52764E-03   156   0.228E-01    0.832E-03
RMM:   2    -0.101864691220E+03   -0.65463E-04   -0.69383E-04   120   0.738E-02
    506 T=   632. E= -.89388355E+02 F= -.10186469E+03 E0= -.10187347E+03  EK= 0.43275E+01 SP= 0.81E+01 SK= 0.16E-03
 bond charge predicted
 prediction of wavefunctions
       N       E                     dE             d eps       ncg     rms          rms(c)
DAV:   1    -0.101853889423E+03    0.10736E-01   -0.51452E-03   168   0.259E-01    0.150E-02
RMM:   2    -0.101854044463E+03   -0.15504E-03   -0.17481E-03   120   0.119E-01    0.970E-03
RMM:   3    -0.101854058186E+03   -0.13723E-04   -0.20920E-04    82   0.410E-02
    507 T=   631. E= -.89387970E+02 F= -.10185406E+03 E0= -.10186253E+03  EK= 0.43202E+01 SP= 0.81E+01 SK= 0.15E-07
 bond charge predicted
 prediction of wavefunctions
       N       E                     dE             d eps       ncg     rms          rms(c)
DAV:   1    -0.101835525755E+03    0.18519E-01   -0.52753E-03   216   0.230E-01    0.915E-03
RMM:   2    -0.101835616300E+03   -0.90545E-04   -0.97777E-04   120   0.774E-02
    508 T=   628. E= -.89387550E+02 F= -.10183562E+03 E0= -.10184322E+03  EK= 0.42995E+01 SP= 0.81E+01 SK= 0.13E-03
Information: wavefunction orthogonal band   60  0.8400
 bond charge predicted
 prediction of wavefunctions
       N       E                     dE             d eps       ncg     rms          rms(c)
DAV:   1    -0.101811486035E+03    0.24040E-01   -0.65604E-03   192   0.262E-01    0.173E-02
RMM:   2    -0.101811651871E+03   -0.16584E-03   -0.19412E-03   120   0.126E-01    0.104E-02
RMM:   3    -0.101811663483E+03   -0.11612E-04   -0.19684E-04    82   0.414E-02
    509 T=   623. E= -.89387160E+02 F= -.10181166E+03 E0= -.10181772E+03  EK= 0.42682E+01 SP= 0.82E+01 SK= 0.47E-03
 bond charge predicted
 prediction of wavefunctions
       N       E                     dE             d eps       ncg     rms          rms(c)
DAV:   1    -0.101784873748E+03    0.26778E-01   -0.72257E-03   192   0.233E-01    0.142E-02
RMM:   2    -0.101784957835E+03   -0.84087E-04   -0.10406E-03   120   0.817E-02    0.898E-03
RMM:   3    -0.101784971192E+03   -0.13357E-04   -0.22182E-04    93   0.379E-02
    510 T=   617. E= -.89386619E+02 F= -.10178497E+03 E0= -.10178938E+03  EK= 0.42300E+01 SP= 0.82E+01 SK= 0.89E-03
 bond charge predicted
 prediction of wavefunctions
       N       E                     dE             d eps       ncg     rms          rms(c)
DAV:   1    -0.101759130776E+03    0.25827E-01   -0.80094E-03   180   0.228E-01    0.180E-02
RMM:   2    -0.101759211330E+03   -0.80554E-04   -0.10773E-03   120   0.910E-02    0.106E-02
RMM:   3    -0.101759218827E+03   -0.74975E-05   -0.17113E-04    78   0.352E-02
    511 T=   612. E= -.89386129E+02 F= -.10175922E+03 E0= -.10176259E+03  EK= 0.41896E+01 SP= 0.82E+01 SK= 0.13E-02
 bond charge predicted
 prediction of wavefunctions
       N       E                     dE             d eps       ncg     rms          rms(c)
DAV:   1    -0.101737822153E+03    0.21389E-01   -0.76479E-03   192   0.223E-01    0.645E-03
RMM:   2    -0.101737945893E+03   -0.12374E-03   -0.12595E-03   120   0.895E-02    0.475E-03
RMM:   3    -0.101737961900E+03   -0.16007E-04   -0.15305E-04    81   0.333E-02
    512 T=   606. E= -.89385608E+02 F= -.10173796E+03 E0= -.10174078E+03  EK= 0.41517E+01 SP= 0.82E+01 SK= 0.16E-02
 bond charge predicted
 prediction of wavefunctions
       N       E                     dE             d eps       ncg     rms          rms(c)
DAV:   1    -0.101724919349E+03    0.13027E-01   -0.91302E-03   180   0.218E-01    0.106E-02
RMM:   2    -0.101725018333E+03   -0.98984E-04   -0.10498E-03   120   0.880E-02    0.689E-03
RMM:   3    -0.101725032376E+03   -0.14043E-04   -0.15248E-04    76   0.342E-02
    513 T=   602. E= -.89385247E+02 F= -.10172503E+03 E0= -.10172752E+03  EK= 0.41208E+01 SP= 0.82E+01 SK= 0.17E-02
 bond charge predicted
 prediction of wavefunctions
       N       E                     dE             d eps       ncg     rms          rms(c)
DAV:   1    -0.101722735300E+03    0.22830E-02   -0.78417E-03   192   0.213E-01    0.466E-03
RMM:   2    -0.101722820129E+03   -0.84829E-04   -0.85749E-04   120   0.827E-02
    514 T=   599. E= -.89384773E+02 F= -.10172282E+03 E0= -.10172513E+03  EK= 0.41003E+01 SP= 0.82E+01 SK= 0.17E-02
 bond charge predicted
 prediction of wavefunctions
       N       E                     dE             d eps       ncg     rms          rms(c)
DAV:   1    -0.101732814585E+03   -0.10079E-01   -0.77124E-03   216   0.235E-01    0.841E-03
RMM:   2    -0.101732960707E+03   -0.14612E-03   -0.14882E-03   120   0.112E-01    0.671E-03
RMM:   3    -0.101732978601E+03   -0.17894E-04   -0.17385E-04    75   0.389E-02
    515 T=   597. E= -.89384366E+02 F= -.10173298E+03 E0= -.10173519E+03  EK= 0.40922E+01 SP= 0.83E+01 SK= 0.17E-02
 bond charge predicted
 prediction of wavefunctions
       N       E                     dE             d eps       ncg     rms          rms(c)
DAV:   1    -0.101756330391E+03   -0.23370E-01   -0.58432E-03   168   0.203E-01    0.494E-03
RMM:   2    -0.101756385758E+03   -0.55367E-04   -0.56548E-04   119   0.655E-02
    516 T=   598. E= -.89384050E+02 F= -.10175639E+03 E0= -.10175855E+03  EK= 0.40975E+01 SP= 0.83E+01 SK= 0.17E-02
 bond charge predicted
 prediction of wavefunctions
       N       E                     dE             d eps       ncg     rms          rms(c)
DAV:   1    -0.101792612606E+03   -0.36282E-01   -0.60666E-03   192   0.233E-01    0.802E-03
RMM:   2    -0.101792765234E+03   -0.15263E-03   -0.15499E-03   120   0.112E-01    0.582E-03
RMM:   3    -0.101792779256E+03   -0.14022E-04   -0.12674E-04    66   0.335E-02
    517 T=   601. E= -.89383758E+02 F= -.10179278E+03 E0= -.10179493E+03  EK= 0.41157E+01 SP= 0.83E+01 SK= 0.17E-02
 bond charge predicted
 prediction of wavefunctions
       N       E                     dE             d eps       ncg     rms          rms(c)
DAV:   1    -0.101840970557E+03   -0.48205E-01   -0.53444E-03   156   0.198E-01    0.510E-03
RMM:   2    -0.101841010973E+03   -0.40415E-04   -0.41491E-04   119   0.560E-02
    518 T=   605. E= -.89383506E+02 F= -.10184101E+03 E0= -.10184316E+03  EK= 0.41453E+01 SP= 0.83E+01 SK= 0.18E-02
 bond charge predicted
 prediction of wavefunctions
       N       E                     dE             d eps       ncg     rms          rms(c)
DAV:   1    -0.101898492072E+03   -0.57522E-01   -0.58873E-03   180   0.232E-01    0.811E-03
RMM:   2    -0.101898631864E+03   -0.13979E-03   -0.14222E-03   120   0.109E-01    0.606E-03
RMM:   3    -0.101898647835E+03   -0.15971E-04   -0.15162E-04    74   0.363E-02
    519 T=   611. E= -.89383346E+02 F= -.10189865E+03 E0= -.10190081E+03  EK= 0.41829E+01 SP= 0.83E+01 SK= 0.21E-02
 bond charge predicted
 prediction of wavefunctions
       N       E                     dE             d eps       ncg     rms          rms(c)
DAV:   1    -0.101962183172E+03   -0.63551E-01   -0.52163E-03   180   0.204E-01    0.487E-03
RMM:   2    -0.101962240285E+03   -0.57113E-04   -0.58201E-04   120   0.690E-02
    520 T=   617. E= -.89383110E+02 F= -.10196224E+03 E0= -.10196444E+03  EK= 0.42243E+01 SP= 0.84E+01 SK= 0.26E-02
 bond charge predicted
 prediction of wavefunctions
       N       E                     dE             d eps       ncg     rms          rms(c)
DAV:   1    -0.102028008213E+03   -0.65825E-01   -0.57410E-03   204   0.238E-01    0.828E-03
RMM:   2    -0.102028157957E+03   -0.14974E-03   -0.15242E-03   120   0.113E-01    0.610E-03
RMM:   3    -0.102028175104E+03   -0.17148E-04   -0.16108E-04    69   0.376E-02
    521 T=   622. E= -.89382986E+02 F= -.10202818E+03 E0= -.10203044E+03  EK= 0.42645E+01 SP= 0.84E+01 SK= 0.35E-02
 bond charge predicted
 prediction of wavefunctions
       N       E                     dE             d eps       ncg     rms          rms(c)
DAV:   1    -0.102092244538E+03   -0.64087E-01   -0.49138E-03   132   0.209E-01    0.581E-03
RMM:   2    -0.102092299113E+03   -0.54575E-04   -0.56321E-04   119   0.674E-02
    522 T=   627. E= -.89382945E+02 F= -.10209230E+03 E0= -.10209466E+03  EK= 0.42985E+01 SP= 0.84E+01 SK= 0.48E-02
 bond charge predicted
 prediction of wavefunctions
       N       E                     dE             d eps       ncg     rms          rms(c)
DAV:   1    -0.102149786775E+03   -0.57542E-01   -0.54448E-03   216   0.246E-01    0.792E-03
RMM:   2    -0.102149937782E+03   -0.15101E-03   -0.15399E-03   120   0.115E-01    0.563E-03
RMM:   3    -0.102149953329E+03   -0.15547E-04   -0.14490E-04    70   0.356E-02
    523 T=   631. E= -.89382772E+02 F= -.10214995E+03 E0= -.10215245E+03  EK= 0.43207E+01 SP= 0.84E+01 SK= 0.65E-02
 bond charge predicted
 prediction of wavefunctions
       N       E                     dE             d eps       ncg     rms          rms(c)
DAV:   1    -0.102196842890E+03   -0.46905E-01   -0.47009E-03   168   0.218E-01    0.582E-03
RMM:   2    -0.102196903064E+03   -0.60174E-04   -0.61629E-04   120   0.709E-02
    524 T=   632. E= -.89382601E+02 F= -.10219690E+03 E0= -.10219959E+03  EK= 0.43265E+01 SP= 0.85E+01 SK= 0.87E-02
 bond charge predicted
 prediction of wavefunctions
       N       E                     dE             d eps       ncg     rms          rms(c)
DAV:   1    -0.102229403509E+03   -0.32561E-01   -0.51051E-03   168   0.251E-01    0.868E-03
RMM:   2    -0.102229560247E+03   -0.15674E-03   -0.16025E-03   120   0.118E-01    0.629E-03
RMM:   3    -0.102229579893E+03   -0.19646E-04   -0.19544E-04    75   0.411E-02
    525 T=   629. E= -.89382421E+02 F= -.10222958E+03 E0= -.10223255E+03  EK= 0.43123E+01 SP= 0.85E+01 SK= 0.11E-01
 bond charge predicted
 prediction of wavefunctions
       N       E                     dE             d eps       ncg     rms          rms(c)
DAV:   1    -0.102244778931E+03   -0.15219E-01   -0.45488E-03   168   0.225E-01    0.581E-03
RMM:   2    -0.102244840604E+03   -0.61673E-04   -0.63401E-04   120   0.739E-02
    526 T=   624. E= -.89382026E+02 F= -.10224484E+03 E0= -.10224818E+03  EK= 0.42757E+01 SP= 0.86E+01 SK= 0.13E-01
 bond charge predicted
 prediction of wavefunctions
       N       E                     dE             d eps       ncg     rms          rms(c)
DAV:   1    -0.102240857013E+03    0.39219E-02   -0.51682E-03   168   0.256E-01    0.846E-03
RMM:   2    -0.102241007487E+03   -0.15047E-03   -0.15435E-03   120   0.115E-01    0.588E-03
RMM:   3    -0.102241023158E+03   -0.15671E-04   -0.15284E-04    73   0.360E-02
    527 T=   615. E= -.89381531E+02 F= -.10224102E+03 E0= -.10224480E+03  EK= 0.42163E+01 SP= 0.86E+01 SK= 0.15E-01
 bond charge predicted
 prediction of wavefunctions
       N       E                     dE             d eps       ncg     rms          rms(c)
DAV:   1    -0.102217969174E+03    0.23038E-01   -0.43967E-03   156   0.229E-01    0.645E-03
RMM:   2    -0.102218035083E+03   -0.65909E-04   -0.67731E-04   120   0.751E-02
    528 T=   604. E= -.89381069E+02 F= -.10221804E+03 E0= -.10222227E+03  EK= 0.41358E+01 SP= 0.87E+01 SK= 0.17E-01
 bond charge predicted
 prediction of wavefunctions
       N       E                     dE             d eps       ncg     rms          rms(c)
DAV:   1    -0.102177172583E+03    0.40797E-01   -0.48425E-03   168   0.259E-01    0.997E-03
RMM:   2    -0.102177335379E+03   -0.16280E-03   -0.16877E-03   120   0.120E-01    0.688E-03
RMM:   3    -0.102177355977E+03   -0.20598E-04   -0.21538E-04    81   0.429E-02
    529 T=   589. E= -.89380509E+02 F= -.10217736E+03 E0= -.10218199E+03  EK= 0.40381E+01 SP= 0.87E+01 SK= 0.16E-01
 bond charge predicted
 prediction of wavefunctions
       N       E                     dE             d eps       ncg     rms          rms(c)
DAV:   1    -0.102121669291E+03    0.55666E-01   -0.42130E-03   120   0.230E-01    0.681E-03
RMM:   2    -0.102121735062E+03   -0.65771E-04   -0.68214E-04   120   0.763E-02
    530 T=   573. E= -.89379824E+02 F= -.10212174E+03 E0= -.10212663E+03  EK= 0.39287E+01 SP= 0.88E+01 SK= 0.15E-01
 bond charge predicted
 prediction of wavefunctions
       N       E                     dE             d eps       ncg     rms          rms(c)
DAV:   1    -0.102054690795E+03    0.66978E-01   -0.47464E-03   180   0.253E-01    0.111E-02
RMM:   2    -0.102054829810E+03   -0.13901E-03   -0.14791E-03   120   0.112E-01    0.708E-03
RMM:   3    -0.102054843469E+03   -0.13659E-04   -0.16098E-04    69   0.371E-02
    531 T=   557. E= -.89379132E+02 F= -.10205484E+03 E0= -.10205987E+03  EK= 0.38136E+01 SP= 0.89E+01 SK= 0.12E-01
 bond charge predicted
 prediction of wavefunctions
       N       E                     dE             d eps       ncg     rms          rms(c)
DAV:   1    -0.101981363048E+03    0.73467E-01   -0.40771E-03   180   0.229E-01    0.814E-03
RMM:   2    -0.101981428771E+03   -0.65723E-04   -0.70059E-04   119   0.771E-02
    532 T=   540. E= -.89378646E+02 F= -.10198143E+03 E0= -.10198648E+03  EK= 0.36998E+01 SP= 0.89E+01 SK= 0.80E-02
 bond charge predicted
 prediction of wavefunctions
       N       E                     dE             d eps       ncg     rms          rms(c)
DAV:   1    -0.101906692301E+03    0.74671E-01   -0.46676E-03   168   0.250E-01    0.129E-02
RMM:   2    -0.101906836563E+03   -0.14426E-03   -0.15848E-03   120   0.116E-01    0.742E-03
RMM:   3    -0.101906856125E+03   -0.19562E-04   -0.22523E-04    75   0.449E-02
    533 T=   525. E= -.89378105E+02 F= -.10190686E+03 E0= -.10191190E+03  EK= 0.35950E+01 SP= 0.89E+01 SK= 0.42E-02
 bond charge predicted
 prediction of wavefunctions
       N       E                     dE             d eps       ncg     rms          rms(c)
DAV:   1    -0.101836731760E+03    0.70105E-01   -0.38823E-03   132   0.222E-01    0.106E-02
RMM:   2    -0.101836789151E+03   -0.57391E-04   -0.65786E-04   120   0.745E-02
    534 T=   512. E= -.89377501E+02 F= -.10183679E+03 E0= -.10184185E+03  EK= 0.35063E+01 SP= 0.90E+01 SK= 0.12E-02
 bond charge predicted
 prediction of wavefunctions
       N       E                     dE             d eps       ncg     rms          rms(c)
DAV:   1    -0.101776495351E+03    0.60236E-01   -0.41782E-03   192   0.241E-01    0.118E-02
RMM:   2    -0.101776625478E+03   -0.13013E-03   -0.14122E-03   120   0.109E-01    0.705E-03
RMM:   3    -0.101776638832E+03   -0.13354E-04   -0.15931E-04    69   0.370E-02
    535 T=   502. E= -.89376973E+02 F= -.10177664E+03 E0= -.10178181E+03  EK= 0.34404E+01 SP= 0.90E+01 SK= 0.63E-06
 bond charge predicted
 prediction of wavefunctions
       N       E                     dE             d eps       ncg     rms          rms(c)
DAV:   1    -0.101731275686E+03    0.45350E-01   -0.39023E-03   156   0.217E-01    0.106E-02
RMM:   2    -0.101731336872E+03   -0.61186E-04   -0.69801E-04   120   0.777E-02
    536 T=   497. E= -.89376380E+02 F= -.10173134E+03 E0= -.10173675E+03  EK= 0.34030E+01 SP= 0.90E+01 SK= 0.15E-02
 bond charge predicted
 prediction of wavefunctions
       N       E                     dE             d eps       ncg     rms          rms(c)
DAV:   1    -0.101705341193E+03    0.25934E-01   -0.46746E-03   168   0.238E-01    0.112E-02
RMM:   2    -0.101705485017E+03   -0.14382E-03   -0.15435E-03   120   0.113E-01    0.614E-03
RMM:   3    -0.101705505889E+03   -0.20872E-04   -0.21488E-04    75   0.444E-02
    537 T=   496. E= -.89375772E+02 F= -.10170551E+03 E0= -.10171128E+03  EK= 0.33994E+01 SP= 0.89E+01 SK= 0.60E-02
 bond charge predicted
 prediction of wavefunctions
       N       E                     dE             d eps       ncg     rms          rms(c)
DAV:   1    -0.101703000888E+03    0.24841E-02   -0.48487E-03   156   0.208E-01    0.949E-03
RMM:   2    -0.101703064267E+03   -0.63379E-04   -0.69940E-04   120   0.770E-02
    538 T=   501. E= -.89375215E+02 F= -.10170306E+03 E0= -.10170921E+03  EK= 0.34336E+01 SP= 0.89E+01 SK= 0.13E-01
 bond charge predicted
 prediction of wavefunctions
       N       E                     dE             d eps       ncg     rms          rms(c)
DAV:   1    -0.101726412991E+03   -0.23412E-01   -0.61118E-03   204   0.231E-01    0.118E-02
RMM:   2    -0.101726544120E+03   -0.13113E-03   -0.14182E-03   120   0.110E-01    0.735E-03
RMM:   3    -0.101726556663E+03   -0.12543E-04   -0.14719E-04    68   0.361E-02
    539 T=   512. E= -.89374746E+02 F= -.10172656E+03 E0= -.10173295E+03  EK= 0.35081E+01 SP= 0.88E+01 SK= 0.23E-01
 bond charge predicted
 prediction of wavefunctions
       N       E                     dE             d eps       ncg     rms          rms(c)
DAV:   1    -0.101777388277E+03   -0.50844E-01   -0.56946E-03   192   0.205E-01    0.911E-03
RMM:   2    -0.101777446886E+03   -0.58609E-04   -0.64993E-04   120   0.768E-02
    540 T=   529. E= -.89374381E+02 F= -.10177745E+03 E0= -.10178397E+03  EK= 0.36240E+01 SP= 0.87E+01 SK= 0.33E-01
 bond charge predicted
 prediction of wavefunctions
       N       E                     dE             d eps       ncg     rms          rms(c)
DAV:   1    -0.101855307210E+03   -0.77919E-01   -0.63078E-03   168   0.228E-01    0.110E-02
RMM:   2    -0.101855446448E+03   -0.13924E-03   -0.14875E-03   120   0.111E-01    0.619E-03
RMM:   3    -0.101855465237E+03   -0.18790E-04   -0.19340E-04    73   0.424E-02
    541 T=   552. E= -.89374009E+02 F= -.10185547E+03 E0= -.10186204E+03  EK= 0.37800E+01 SP= 0.87E+01 SK= 0.41E-01
 bond charge predicted
 prediction of wavefunctions
       N       E                     dE             d eps       ncg     rms          rms(c)
DAV:   1    -0.101958701591E+03   -0.10326E+00   -0.58617E-03   156   0.201E-01    0.896E-03
RMM:   2    -0.101958759952E+03   -0.58361E-04   -0.64561E-04   120   0.754E-02
    542 T=   580. E= -.89373770E+02 F= -.10195876E+03 E0= -.10196538E+03  EK= 0.39724E+01 SP= 0.86E+01 SK= 0.46E-01
 bond charge predicted
 prediction of wavefunctions
       N       E                     dE             d eps       ncg     rms          rms(c)
DAV:   1    -0.102083391145E+03   -0.12469E+00   -0.66284E-03   156   0.232E-01    0.973E-03
RMM:   2    -0.102083538718E+03   -0.14757E-03   -0.15394E-03   120   0.115E-01    0.621E-03
RMM:   3    -0.102083554927E+03   -0.16209E-04   -0.16101E-04    69   0.384E-02
    543 T=   612. E= -.89373898E+02 F= -.10208355E+03 E0= -.10209027E+03  EK= 0.41939E+01 SP= 0.85E+01 SK= 0.47E-01
 bond charge predicted
 prediction of wavefunctions
       N       E                     dE             d eps       ncg     rms          rms(c)
DAV:   1    -0.102223731544E+03   -0.14019E+00   -0.58681E-03   168   0.204E-01    0.775E-03
RMM:   2    -0.102223787702E+03   -0.56158E-04   -0.61094E-04   120   0.755E-02
    544 T=   647. E= -.89374065E+02 F= -.10222379E+03 E0= -.10223068E+03  EK= 0.44338E+01 SP= 0.84E+01 SK= 0.42E-01
 bond charge predicted
 prediction of wavefunctions
       N       E                     dE             d eps       ncg     rms          rms(c)
DAV:   1    -0.102371944529E+03   -0.14821E+00   -0.65512E-03   204   0.244E-01    0.106E-02
RMM:   2    -0.102372107034E+03   -0.16251E-03   -0.16968E-03   120   0.122E-01    0.652E-03
RMM:   3    -0.102372125672E+03   -0.18638E-04   -0.18187E-04    70   0.419E-02
    545 T=   683. E= -.89374497E+02 F= -.10237213E+03 E0= -.10237928E+03  EK= 0.46782E+01 SP= 0.83E+01 SK= 0.33E-01
 bond charge predicted
 prediction of wavefunctions
       N       E                     dE             d eps       ncg     rms          rms(c)
DAV:   1    -0.102519945312E+03   -0.14784E+00   -0.56729E-03   168   0.212E-01    0.736E-03
RMM:   2    -0.102520009277E+03   -0.63965E-04   -0.68113E-04   120   0.796E-02
    546 T=   717. E= -.89374971E+02 F= -.10252001E+03 E0= -.10252750E+03  EK= 0.49106E+01 SP= 0.82E+01 SK= 0.20E-01
 bond charge predicted
 prediction of wavefunctions
       N       E                     dE             d eps       ncg     rms          rms(c)
DAV:   1    -0.102658571818E+03   -0.13863E+00   -0.60879E-03   168   0.254E-01    0.108E-02
RMM:   2    -0.102658748208E+03   -0.17639E-03   -0.18334E-03   120   0.126E-01    0.690E-03
RMM:   3    -0.102658768836E+03   -0.20627E-04   -0.20157E-04    73   0.430E-02
    547 T=   746. E= -.89375564E+02 F= -.10265877E+03 E0= -.10266666E+03  EK= 0.51132E+01 SP= 0.82E+01 SK= 0.84E-02
 bond charge predicted
 prediction of wavefunctions
       N       E                     dE             d eps       ncg     rms          rms(c)
DAV:   1    -0.102778905034E+03   -0.12016E+00   -0.51911E-03   168   0.224E-01    0.670E-03
RMM:   2    -0.102778978451E+03   -0.73417E-04   -0.76342E-04   120   0.851E-02
    548 T=   769. E= -.89375763E+02 F= -.10277898E+03 E0= -.10278730E+03  EK= 0.52685E+01 SP= 0.81E+01 SK= 0.99E-03
 bond charge predicted
 prediction of wavefunctions
       N       E                     dE             d eps       ncg     rms          rms(c)
DAV:   1    -0.102873314828E+03   -0.94410E-01   -0.57033E-03   168   0.266E-01    0.133E-02
RMM:   2    -0.102873502459E+03   -0.18763E-03   -0.19853E-03   120   0.133E-01    0.844E-03
RMM:   3    -0.102873522635E+03   -0.20176E-04   -0.21091E-04    78   0.448E-02
    549 T=   783. E= -.89375734E+02 F= -.10287352E+03 E0= -.10288225E+03  EK= 0.53618E+01 SP= 0.81E+01 SK= 0.13E-02
 bond charge predicted
 prediction of wavefunctions
       N       E                     dE             d eps       ncg     rms          rms(c)
DAV:   1    -0.102936997210E+03   -0.63495E-01   -0.49025E-03   156   0.231E-01    0.819E-03
RMM:   2    -0.102937065702E+03   -0.68492E-04   -0.73584E-04   120   0.847E-02
    550 T=   786. E= -.89375235E+02 F= -.10293707E+03 E0= -.10294615E+03  EK= 0.53839E+01 SP= 0.82E+01 SK= 0.11E-01
 bond charge predicted
 prediction of wavefunctions
       N       E                     dE             d eps       ncg     rms          rms(c)
DAV:   1    -0.102967141571E+03   -0.30144E-01   -0.56128E-03   168   0.269E-01    0.132E-02
RMM:   2    -0.102967321225E+03   -0.17965E-03   -0.19167E-03   120   0.131E-01    0.756E-03
RMM:   3    -0.102967339486E+03   -0.18261E-04   -0.18925E-04    76   0.420E-02
    551 T=   778. E= -.89374376E+02 F= -.10296734E+03 E0= -.10297671E+03  EK= 0.53318E+01 SP= 0.82E+01 SK= 0.31E-01
 bond charge predicted
 prediction of wavefunctions
       N       E                     dE             d eps       ncg     rms          rms(c)
DAV:   1    -0.102964974730E+03    0.23465E-02   -0.48077E-03   180   0.234E-01    0.911E-03
RMM:   2    -0.102965045911E+03   -0.71181E-04   -0.77297E-04   120   0.864E-02
    552 T=   760. E= -.89373204E+02 F= -.10296505E+03 E0= -.10297464E+03  EK= 0.52098E+01 SP= 0.83E+01 SK= 0.58E-01
 bond charge predicted
 prediction of wavefunctions
       N       E                     dE             d eps       ncg     rms          rms(c)
DAV:   1    -0.102933054904E+03    0.31920E-01   -0.54502E-03   168   0.271E-01    0.130E-02
RMM:   2    -0.102933241244E+03   -0.18634E-03   -0.19815E-03   120   0.133E-01    0.794E-03
RMM:   3    -0.102933261717E+03   -0.20473E-04   -0.21785E-04    78   0.454E-02
    553 T=   734. E= -.89371717E+02 F= -.10293326E+03 E0= -.10294302E+03  EK= 0.50281E+01 SP= 0.84E+01 SK= 0.88E-01
 bond charge predicted
 prediction of wavefunctions
       N       E                     dE             d eps       ncg     rms          rms(c)
DAV:   1    -0.102877004667E+03    0.56237E-01   -0.47236E-03   156   0.231E-01    0.983E-03
RMM:   2    -0.102877071231E+03   -0.66563E-04   -0.73464E-04   120   0.844E-02
    554 T=   701. E= -.89369981E+02 F= -.10287707E+03 E0= -.10288694E+03  EK= 0.48010E+01 SP= 0.86E+01 SK= 0.12E+00
 bond charge predicted
 prediction of wavefunctions
       N       E                     dE             d eps       ncg     rms          rms(c)
DAV:   1    -0.102803741661E+03    0.73263E-01   -0.52413E-03   168   0.261E-01    0.122E-02
RMM:   2    -0.102803917668E+03   -0.17601E-03   -0.18624E-03   120   0.126E-01    0.710E-03
RMM:   3    -0.102803937586E+03   -0.19918E-04   -0.20203E-04    70   0.428E-02
    555 T=   664. E= -.89368374E+02 F= -.10280394E+03 E0= -.10281390E+03  EK= 0.45458E+01 SP= 0.88E+01 SK= 0.14E+00
 bond charge predicted
 prediction of wavefunctions
       N       E                     dE             d eps       ncg     rms          rms(c)
DAV:   1    -0.102722220130E+03    0.81698E-01   -0.41824E-03   156   0.221E-01    0.941E-03
RMM:   2    -0.102722284772E+03   -0.64642E-04   -0.71833E-04   120   0.827E-02
    556 T=   625. E= -.89367123E+02 F= -.10272228E+03 E0= -.10273230E+03  EK= 0.42804E+01 SP= 0.89E+01 SK= 0.15E+00
 bond charge predicted
 prediction of wavefunctions
       N       E                     dE             d eps       ncg     rms          rms(c)
DAV:   1    -0.102639571091E+03    0.82649E-01   -0.44173E-03   144   0.250E-01    0.105E-02
RMM:   2    -0.102639734764E+03   -0.16367E-03   -0.17056E-03   120   0.123E-01    0.671E-03
RMM:   3    -0.102639753552E+03   -0.18789E-04   -0.18833E-04    71   0.416E-02
    557 T=   587. E= -.89366077E+02 F= -.10263975E+03 E0= -.10264975E+03  EK= 0.40205E+01 SP= 0.91E+01 SK= 0.15E+00
 bond charge predicted
 prediction of wavefunctions
       N       E                     dE             d eps       ncg     rms          rms(c)
DAV:   1    -0.102563232371E+03    0.76502E-01   -0.32360E-03   156   0.209E-01    0.799E-03
RMM:   2    -0.102563291270E+03   -0.58898E-04   -0.63595E-04   120   0.770E-02
    558 T=   552. E= -.89365242E+02 F= -.10256329E+03 E0= -.10257318E+03  EK= 0.37793E+01 SP= 0.93E+01 SK= 0.15E+00
 bond charge predicted
 prediction of wavefunctions
       N       E                     dE             d eps       ncg     rms          rms(c)
DAV:   1    -0.102498546911E+03    0.64685E-01   -0.34746E-03   156   0.231E-01    0.110E-02
RMM:   2    -0.102498684942E+03   -0.13803E-03   -0.14539E-03   120   0.111E-01    0.680E-03
RMM:   3    -0.102498701347E+03   -0.16405E-04   -0.16727E-04    66   0.386E-02
    559 T=   521. E= -.89364677E+02 F= -.10249870E+03 E0= -.10250842E+03  EK= 0.35666E+01 SP= 0.94E+01 SK= 0.13E+00
 bond charge predicted
 prediction of wavefunctions
       N       E                     dE             d eps       ncg     rms          rms(c)
DAV:   1    -0.102450278025E+03    0.48407E-01   -0.26952E-03   132   0.195E-01    0.746E-03
RMM:   2    -0.102450333816E+03   -0.55791E-04   -0.60254E-04   120   0.748E-02
    560 T=   495. E= -.89364415E+02 F= -.10245033E+03 E0= -.10245979E+03  EK= 0.33889E+01 SP= 0.96E+01 SK= 0.10E+00
 bond charge predicted
 prediction of wavefunctions
       N       E                     dE             d eps       ncg     rms          rms(c)
DAV:   1    -0.102420603676E+03    0.29674E-01   -0.31933E-03   180   0.218E-01    0.106E-02
RMM:   2    -0.102420729431E+03   -0.12576E-03   -0.13246E-03   120   0.106E-01    0.693E-03
RMM:   3    -0.102420744607E+03   -0.15176E-04   -0.15802E-04    67   0.376E-02
    561 T=   474. E= -.89364127E+02 F= -.10242074E+03 E0= -.10242982E+03  EK= 0.32501E+01 SP= 0.97E+01 SK= 0.78E-01
 bond charge predicted
 prediction of wavefunctions
       N       E                     dE             d eps       ncg     rms          rms(c)
DAV:   1    -0.102411205959E+03    0.95235E-02   -0.25655E-03   120   0.183E-01    0.780E-03
RMM:   2    -0.102411256136E+03   -0.50177E-04   -0.54684E-04   120   0.714E-02
    562 T=   460. E= -.89363974E+02 F= -.10241126E+03 E0= -.10241985E+03  EK= 0.31516E+01 SP= 0.98E+01 SK= 0.53E-01
 bond charge predicted
 prediction of wavefunctions
       N       E                     dE             d eps       ncg     rms          rms(c)
DAV:   1    -0.102421793842E+03   -0.10588E-01   -0.32084E-03   180   0.204E-01    0.112E-02
RMM:   2    -0.102421898540E+03   -0.10470E-03   -0.11195E-03   120   0.974E-02    0.699E-03
RMM:   3    -0.102421911528E+03   -0.12988E-04   -0.13891E-04    65   0.355E-02
    563 T=   451. E= -.89363954E+02 F= -.10242191E+03 E0= -.10242997E+03  EK= 0.30931E+01 SP= 0.99E+01 SK= 0.31E-01
 bond charge predicted
 prediction of wavefunctions
       N       E                     dE             d eps       ncg     rms          rms(c)
DAV:   1    -0.102451419853E+03   -0.29521E-01   -0.27244E-03   168   0.176E-01    0.823E-03
RMM:   2    -0.102451473843E+03   -0.53989E-04   -0.58860E-04   120   0.735E-02
    564 T=   449. E= -.89363871E+02 F= -.10245147E+03 E0= -.10245897E+03  EK= 0.30731E+01 SP= 0.10E+02 SK= 0.14E-01
 bond charge predicted
 prediction of wavefunctions
       N       E                     dE             d eps       ncg     rms          rms(c)
DAV:   1    -0.102498046419E+03   -0.46627E-01   -0.36806E-03   168   0.202E-01    0.115E-02
RMM:   2    -0.102498153835E+03   -0.10742E-03   -0.11421E-03   120   0.974E-02    0.760E-03
RMM:   3    -0.102498166027E+03   -0.12192E-04   -0.13396E-04    65   0.348E-02
    565 T=   451. E= -.89363739E+02 F= -.10249817E+03 E0= -.10250508E+03  EK= 0.30893E+01 SP= 0.10E+02 SK= 0.39E-02
 bond charge predicted
 prediction of wavefunctions
       N       E                     dE             d eps       ncg     rms          rms(c)
DAV:   1    -0.102559926471E+03   -0.61773E-01   -0.33459E-03   132   0.173E-01    0.984E-03
RMM:   2    -0.102559978870E+03   -0.52398E-04   -0.58728E-04   120   0.713E-02
    566 T=   458. E= -.89363617E+02 F= -.10255998E+03 E0= -.10256634E+03  EK= 0.31393E+01 SP= 0.10E+02 SK= 0.60E-04
 bond charge predicted
 prediction of wavefunctions
       N       E                     dE             d eps       ncg     rms          rms(c)
DAV:   1    -0.102634029522E+03   -0.74103E-01   -0.45379E-03   192   0.198E-01    0.119E-02
RMM:   2    -0.102634138905E+03   -0.10938E-03   -0.11714E-03   120   0.978E-02    0.757E-03
RMM:   3    -0.102634151043E+03   -0.12139E-04   -0.13057E-04    63   0.347E-02
    567 T=   470. E= -.89363486E+02 F= -.10263415E+03 E0= -.10264008E+03  EK= 0.32197E+01 SP= 0.10E+02 SK= 0.19E-02
 bond charge predicted
 prediction of wavefunctions
       N       E                     dE             d eps       ncg     rms          rms(c)
DAV:   1    -0.102717634052E+03   -0.83495E-01   -0.40999E-03   192   0.177E-01    0.102E-02
RMM:   2    -0.102717691495E+03   -0.57442E-04   -0.63636E-04   120   0.730E-02
    568 T=   486. E= -.89363302E+02 F= -.10271769E+03 E0= -.10272331E+03  EK= 0.33272E+01 SP= 0.10E+02 SK= 0.79E-02
 bond charge predicted
 prediction of wavefunctions
       N       E                     dE             d eps       ncg     rms          rms(c)
DAV:   1    -0.102807430227E+03   -0.89796E-01   -0.46738E-03   192   0.206E-01    0.115E-02
RMM:   2    -0.102807558360E+03   -0.12813E-03   -0.13445E-03   120   0.103E-01    0.785E-03
RMM:   3    -0.102807572516E+03   -0.14155E-04   -0.14978E-04    68   0.362E-02
    569 T=   505. E= -.89363204E+02 F= -.10280757E+03 E0= -.10281298E+03  EK= 0.34576E+01 SP= 0.10E+02 SK= 0.16E-01
 bond charge predicted
 prediction of wavefunctions
       N       E                     dE             d eps       ncg     rms          rms(c)
DAV:   1    -0.102900136408E+03   -0.92578E-01   -0.43893E-03   168   0.181E-01    0.109E-02
RMM:   2    -0.102900193222E+03   -0.56814E-04   -0.63409E-04   120   0.693E-02
    570 T=   526. E= -.89363052E+02 F= -.10290019E+03 E0= -.10290549E+03  EK= 0.36061E+01 SP= 0.99E+01 SK= 0.26E-01
 bond charge predicted
 prediction of wavefunctions
       N       E                     dE             d eps       ncg     rms          rms(c)
DAV:   1    -0.102992090380E+03   -0.91954E-01   -0.61567E-03   192   0.212E-01    0.114E-02
RMM:   2    -0.102992223789E+03   -0.13341E-03   -0.14046E-03   120   0.107E-01    0.712E-03
RMM:   3    -0.102992238632E+03   -0.14844E-04   -0.15169E-04    66   0.371E-02
    571 T=   550. E= -.89362898E+02 F= -.10299224E+03 E0= -.10299759E+03  EK= 0.37676E+01 SP= 0.98E+01 SK= 0.33E-01
 bond charge predicted
 prediction of wavefunctions
       N       E                     dE             d eps       ncg     rms          rms(c)
DAV:   1    -0.103080132036E+03   -0.87908E-01   -0.48307E-03   192   0.190E-01    0.950E-03
RMM:   2    -0.103080197457E+03   -0.65421E-04   -0.70560E-04   120   0.733E-02
    572 T=   574. E= -.89362951E+02 F= -.10308020E+03 E0= -.10308574E+03  EK= 0.39357E+01 SP= 0.97E+01 SK= 0.39E-01
 bond charge predicted
 prediction of wavefunctions
       N       E                     dE             d eps       ncg     rms          rms(c)
DAV:   1    -0.103159903592E+03   -0.79772E-01   -0.61787E-03   204   0.229E-01    0.118E-02
RMM:   2    -0.103160045563E+03   -0.14197E-03   -0.14793E-03   120   0.113E-01    0.810E-03
RMM:   3    -0.103160057125E+03   -0.11562E-04   -0.12397E-04    69   0.343E-02
    573 T=   599. E= -.89362927E+02 F= -.10316006E+03 E0= -.10316591E+03  EK= 0.41034E+01 SP= 0.97E+01 SK= 0.40E-01
 bond charge predicted
 prediction of wavefunctions
       N       E                     dE             d eps       ncg     rms          rms(c)
DAV:   1    -0.103228128132E+03   -0.68083E-01   -0.48735E-03   192   0.205E-01    0.978E-03
RMM:   2    -0.103228191678E+03   -0.63546E-04   -0.68200E-04   120   0.745E-02
    574 T=   622. E= -.89362905E+02 F= -.10322819E+03 E0= -.10323447E+03  EK= 0.42629E+01 SP= 0.96E+01 SK= 0.39E-01
 bond charge predicted
 prediction of wavefunctions
       N       E                     dE             d eps       ncg     rms          rms(c)
DAV:   1    -0.103280224851E+03   -0.52097E-01   -0.54373E-03   180   0.243E-01    0.129E-02
RMM:   2    -0.103280392374E+03   -0.16752E-03   -0.17533E-03   120   0.119E-01    0.797E-03
RMM:   3    -0.103280409228E+03   -0.16854E-04   -0.17287E-04    73   0.392E-02
    575 T=   643. E= -.89363090E+02 F= -.10328041E+03 E0= -.10328728E+03  EK= 0.44056E+01 SP= 0.95E+01 SK= 0.34E-01
 bond charge predicted
 prediction of wavefunctions
       N       E                     dE             d eps       ncg     rms          rms(c)
DAV:   1    -0.103311827987E+03   -0.31436E-01   -0.45976E-03   180   0.218E-01    0.975E-03
RMM:   2    -0.103311894201E+03   -0.66215E-04   -0.70742E-04   120   0.776E-02
    576 T=   660. E= -.89363176E+02 F= -.10331189E+03 E0= -.10331945E+03  EK= 0.45222E+01 SP= 0.94E+01 SK= 0.27E-01
 bond charge predicted
 prediction of wavefunctions
       N       E                     dE             d eps       ncg     rms          rms(c)
DAV:   1    -0.103318947561E+03   -0.71196E-02   -0.48965E-03   144   0.255E-01    0.136E-02
RMM:   2    -0.103319117495E+03   -0.16993E-03   -0.17835E-03   120   0.122E-01    0.886E-03
RMM:   3    -0.103319136114E+03   -0.18618E-04   -0.20484E-04    80   0.428E-02
    577 T=   672. E= -.89363187E+02 F= -.10331914E+03 E0= -.10332737E+03  EK= 0.46052E+01 SP= 0.93E+01 SK= 0.19E-01
 bond charge predicted
 prediction of wavefunctions
       N       E                     dE             d eps       ncg     rms          rms(c)
DAV:   1    -0.103299933223E+03    0.19184E-01   -0.41244E-03   144   0.229E-01    0.108E-02
RMM:   2    -0.103300006094E+03   -0.72871E-04   -0.77345E-04   120   0.827E-02
    578 T=   679. E= -.89362840E+02 F= -.10330001E+03 E0= -.10330883E+03  EK= 0.46492E+01 SP= 0.93E+01 SK= 0.12E-01
 bond charge predicted
 prediction of wavefunctions
       N       E                     dE             d eps       ncg     rms          rms(c)
DAV:   1    -0.103253914360E+03    0.46019E-01   -0.47530E-03   168   0.269E-01    0.150E-02
RMM:   2    -0.103254107975E+03   -0.19361E-03   -0.20432E-03   120   0.130E-01    0.894E-03
RMM:   3    -0.103254130660E+03   -0.22686E-04   -0.23926E-04    81   0.457E-02
    579 T=   679. E= -.89362306E+02 F= -.10325413E+03 E0= -.10326345E+03  EK= 0.46518E+01 SP= 0.92E+01 SK= 0.61E-02
 bond charge predicted
 prediction of wavefunctions
       N       E                     dE             d eps       ncg     rms          rms(c)
DAV:   1    -0.103182573805E+03    0.71534E-01   -0.37536E-03   132   0.233E-01    0.112E-02
RMM:   2    -0.103182646467E+03   -0.72662E-04   -0.78003E-04   120   0.843E-02
    580 T=   673. E= -.89361588E+02 F= -.10318265E+03 E0= -.10319231E+03  EK= 0.46134E+01 SP= 0.92E+01 SK= 0.24E-02
 bond charge predicted
 prediction of wavefunctions
       N       E                     dE             d eps       ncg     rms          rms(c)
DAV:   1    -0.103089037052E+03    0.93537E-01   -0.45898E-03   156   0.272E-01    0.131E-02
RMM:   2    -0.103089224378E+03   -0.18733E-03   -0.19621E-03   120   0.129E-01    0.830E-03
RMM:   3    -0.103089242829E+03   -0.18451E-04   -0.19403E-04    77   0.416E-02
    581 T=   663. E= -.89360754E+02 F= -.10308924E+03 E0= -.10309912E+03  EK= 0.45388E+01 SP= 0.92E+01 SK= 0.51E-03
 bond charge predicted
 prediction of wavefunctions
       N       E                     dE             d eps       ncg     rms          rms(c)
DAV:   1    -0.102979920576E+03    0.10930E+00   -0.38107E-03   144   0.231E-01    0.101E-02
RMM:   2    -0.102979995836E+03   -0.75260E-04   -0.79747E-04   120   0.856E-02
    582 T=   648. E= -.89359841E+02 F= -.10298000E+03 E0= -.10298999E+03  EK= 0.44364E+01 SP= 0.92E+01 SK= 0.14E-05
 bond charge predicted
 prediction of wavefunctions
       N       E                     dE             d eps       ncg     rms          rms(c)
DAV:   1    -0.102862220209E+03    0.11770E+00   -0.51828E-03   192   0.274E-01    0.149E-02
RMM:   2    -0.102862423980E+03   -0.20377E-03   -0.21457E-03   120   0.134E-01    0.914E-03
RMM:   3    -0.102862447049E+03   -0.23069E-04   -0.24012E-04    82   0.464E-02
    583 T=   630. E= -.89358628E+02 F= -.10286245E+03 E0= -.10287248E+03  EK= 0.43170E+01 SP= 0.92E+01 SK= 0.20E-03
 bond charge predicted
 prediction of wavefunctions
       N       E                     dE             d eps       ncg     rms          rms(c)
DAV:   1    -0.102744796915E+03    0.11763E+00   -0.47040E-03   204   0.227E-01    0.102E-02
RMM:   2    -0.102744913109E+03   -0.11619E-03   -0.12110E-03   120   0.913E-02    0.693E-03
RMM:   3    -0.102744930758E+03   -0.17650E-04   -0.19494E-04    78   0.379E-02
    584 T=   612. E= -.89357644E+02 F= -.10274493E+03 E0= -.10275495E+03  EK= 0.41920E+01 SP= 0.92E+01 SK= 0.50E-03
Information: wavefunction orthogonal band   60  0.8039
 bond charge predicted
 prediction of wavefunctions
       N       E                     dE             d eps       ncg     rms          rms(c)
DAV:   1    -0.102635165685E+03    0.10975E+00   -0.58032E-03   180   0.231E-01    0.922E-03
RMM:   2    -0.102635354886E+03   -0.18920E-03   -0.19405E-03   120   0.101E-01    0.532E-03
RMM:   3    -0.102635385305E+03   -0.30418E-04   -0.30369E-04    93   0.417E-02
    585 T=   594. E= -.89357024E+02 F= -.10263539E+03 E0= -.10264537E+03  EK= 0.40726E+01 SP= 0.92E+01 SK= 0.57E-03
Information: wavefunction orthogonal band   60  0.8675
 bond charge predicted
 prediction of wavefunctions
       N       E                     dE             d eps       ncg     rms          rms(c)
DAV:   1    -0.102539665687E+03    0.95689E-01   -0.61016E-03   192   0.230E-01    0.857E-03
RMM:   2    -0.102539779061E+03   -0.11337E-03   -0.11606E-03   120   0.995E-02    0.592E-03
RMM:   3    -0.102539790103E+03   -0.11042E-04   -0.10914E-04    74   0.313E-02
    586 T=   579. E= -.89356487E+02 F= -.10253979E+03 E0= -.10254974E+03  EK= 0.39680E+01 SP= 0.92E+01 SK= 0.37E-03
 bond charge predicted
 prediction of wavefunctions
       N       E                     dE             d eps       ncg     rms          rms(c)
DAV:   1    -0.102462023124E+03    0.77756E-01   -0.64763E-03   180   0.221E-01    0.706E-03
RMM:   2    -0.102462124144E+03   -0.10102E-03   -0.10275E-03   120   0.939E-02    0.470E-03
RMM:   3    -0.102462138130E+03   -0.13986E-04   -0.13640E-04    78   0.347E-02
    587 T=   567. E= -.89356091E+02 F= -.10246214E+03 E0= -.10247204E+03  EK= 0.38846E+01 SP= 0.92E+01 SK= 0.86E-04
 bond charge predicted
 prediction of wavefunctions
       N       E                     dE             d eps       ncg     rms          rms(c)
DAV:   1    -0.102403717943E+03    0.58406E-01   -0.55300E-03   204   0.212E-01    0.603E-03
RMM:   2    -0.102403806968E+03   -0.89026E-04   -0.89530E-04   120   0.898E-02
    588 T=   558. E= -.89355862E+02 F= -.10240381E+03 E0= -.10241367E+03  EK= 0.38255E+01 SP= 0.92E+01 SK= 0.21E-04
 bond charge predicted
 prediction of wavefunctions
       N       E                     dE             d eps       ncg     rms          rms(c)
DAV:   1    -0.102363482400E+03    0.40236E-01   -0.56516E-03   192   0.236E-01    0.993E-03
RMM:   2    -0.102363639273E+03   -0.15687E-03   -0.15956E-03   120   0.116E-01    0.721E-03
RMM:   3    -0.102363661406E+03   -0.22133E-04   -0.21250E-04    78   0.430E-02
    589 T=   553. E= -.89355674E+02 F= -.10236366E+03 E0= -.10237349E+03  EK= 0.37909E+01 SP= 0.92E+01 SK= 0.44E-03
 bond charge predicted
 prediction of wavefunctions
       N       E                     dE             d eps       ncg     rms          rms(c)
DAV:   1    -0.102338797399E+03    0.24842E-01   -0.48310E-03   144   0.200E-01    0.580E-03
RMM:   2    -0.102338862010E+03   -0.64611E-04   -0.65647E-04   120   0.752E-02
    590 T=   552. E= -.89355427E+02 F= -.10233886E+03 E0= -.10234865E+03  EK= 0.37787E+01 SP= 0.92E+01 SK= 0.15E-02
 bond charge predicted
 prediction of wavefunctions
       N       E                     dE             d eps       ncg     rms          rms(c)
DAV:   1    -0.102325178698E+03    0.13619E-01   -0.58461E-03   168   0.239E-01    0.886E-03
RMM:   2    -0.102325343516E+03   -0.16482E-03   -0.16603E-03   120   0.116E-01    0.613E-03
RMM:   3    -0.102325358757E+03   -0.15241E-04   -0.13037E-04    70   0.340E-02
    591 T=   552. E= -.89355349E+02 F= -.10232536E+03 E0= -.10233508E+03  EK= 0.37849E+01 SP= 0.92E+01 SK= 0.32E-02
 bond charge predicted
 prediction of wavefunctions
       N       E                     dE             d eps       ncg     rms          rms(c)
DAV:   1    -0.102318885377E+03    0.64581E-02   -0.50220E-03   192   0.188E-01    0.659E-03
RMM:   2    -0.102318929444E+03   -0.44067E-04   -0.46041E-04   119   0.607E-02
    592 T=   555. E= -.89355249E+02 F= -.10231893E+03 E0= -.10232851E+03  EK= 0.38055E+01 SP= 0.92E+01 SK= 0.54E-02
 bond charge predicted
 prediction of wavefunctions
       N       E                     dE             d eps       ncg     rms          rms(c)
DAV:   1    -0.102315573829E+03    0.33115E-02   -0.54033E-03   156   0.232E-01    0.732E-03
RMM:   2    -0.102315724493E+03   -0.15066E-03   -0.15199E-03   120   0.113E-01    0.534E-03
RMM:   3    -0.102315741214E+03   -0.16721E-04   -0.15120E-04    72   0.371E-02
    593 T=   560. E= -.89355127E+02 F= -.10231574E+03 E0= -.10232508E+03  EK= 0.38364E+01 SP= 0.91E+01 SK= 0.79E-02
 bond charge predicted
 prediction of wavefunctions
       N       E                     dE             d eps       ncg     rms          rms(c)
DAV:   1    -0.102312498622E+03    0.32259E-02   -0.45853E-03   156   0.191E-01    0.605E-03
RMM:   2    -0.102312558408E+03   -0.59786E-04   -0.60766E-04   120   0.718E-02
    594 T=   565. E= -.89355053E+02 F= -.10231256E+03 E0= -.10232153E+03  EK= 0.38738E+01 SP= 0.91E+01 SK= 0.10E-01
 bond charge predicted
 prediction of wavefunctions
       N       E                     dE             d eps       ncg     rms          rms(c)
DAV:   1    -0.102306512671E+03    0.59860E-02   -0.59833E-03   192   0.238E-01    0.899E-03
RMM:   2    -0.102306679411E+03   -0.16674E-03   -0.16859E-03   120   0.117E-01    0.665E-03
RMM:   3    -0.102306697386E+03   -0.17976E-04   -0.16162E-04    68   0.376E-02
    595 T=   571. E= -.89354768E+02 F= -.10230670E+03 E0= -.10231524E+03  EK= 0.39144E+01 SP= 0.90E+01 SK= 0.13E-01
 bond charge predicted
 prediction of wavefunctions
       N       E                     dE             d eps       ncg     rms          rms(c)
DAV:   1    -0.102296642595E+03    0.10037E-01   -0.47978E-03   144   0.195E-01    0.584E-03
RMM:   2    -0.102296706120E+03   -0.63525E-04   -0.65008E-04   120   0.766E-02
    596 T=   577. E= -.89354668E+02 F= -.10229671E+03 E0= -.10230480E+03  EK= 0.39556E+01 SP= 0.90E+01 SK= 0.15E-01
 bond charge predicted
 prediction of wavefunctions
       N       E                     dE             d eps       ncg     rms          rms(c)
DAV:   1    -0.102280201110E+03    0.16441E-01   -0.57184E-03   192   0.245E-01    0.835E-03
RMM:   2    -0.102280380696E+03   -0.17959E-03   -0.18071E-03   120   0.122E-01    0.622E-03
RMM:   3    -0.102280399880E+03   -0.19184E-04   -0.17019E-04    68   0.391E-02
    597 T=   583. E= -.89354469E+02 F= -.10228040E+03 E0= -.10228810E+03  EK= 0.39947E+01 SP= 0.89E+01 SK= 0.17E-01
 bond charge predicted
 prediction of wavefunctions
       N       E                     dE             d eps       ncg     rms          rms(c)
DAV:   1    -0.102256913936E+03    0.23467E-01   -0.43414E-03   168   0.197E-01    0.644E-03
RMM:   2    -0.102256977143E+03   -0.63207E-04   -0.64573E-04   120   0.743E-02
    598 T=   588. E= -.89354131E+02 F= -.10225698E+03 E0= -.10226431E+03  EK= 0.40299E+01 SP= 0.89E+01 SK= 0.18E-01
 bond charge predicted
 prediction of wavefunctions
       N       E                     dE             d eps       ncg     rms          rms(c)
DAV:   1    -0.102226718541E+03    0.30195E-01   -0.51802E-03   192   0.246E-01    0.758E-03
RMM:   2    -0.102226892400E+03   -0.17386E-03   -0.17566E-03   120   0.122E-01    0.574E-03
RMM:   3    -0.102226911332E+03   -0.18932E-04   -0.17150E-04    70   0.397E-02
    599 T=   593. E= -.89353716E+02 F= -.10222691E+03 E0= -.10223388E+03  EK= 0.40608E+01 SP= 0.88E+01 SK= 0.19E-01
 bond charge predicted
 prediction of wavefunctions
       N       E                     dE             d eps       ncg     rms          rms(c)
DAV:   1    -0.102190596489E+03    0.36296E-01   -0.41312E-03   144   0.206E-01    0.598E-03
RMM:   2    -0.102190673272E+03   -0.76783E-04   -0.77723E-04   120   0.804E-02
    600 T=   597. E= -.89353346E+02 F= -.10219067E+03 E0= -.10219729E+03  EK= 0.40870E+01 SP= 0.87E+01 SK= 0.19E-01
 bond charge predicted
 prediction of wavefunctions
       N       E                     dE             d eps       ncg     rms          rms(c)
DAV:   1    -0.102148207644E+03    0.42389E-01   -0.54738E-03   216   0.253E-01    0.928E-03
RMM:   2    -0.102148386712E+03   -0.17907E-03   -0.18200E-03   120   0.125E-01    0.704E-03
RMM:   3    -0.102148401802E+03   -0.15090E-04   -0.13462E-04    69   0.355E-02
    601 T=   600. E= -.89352918E+02 F= -.10214840E+03 E0= -.10215467E+03  EK= 0.41079E+01 SP= 0.87E+01 SK= 0.19E-01
 bond charge predicted
 prediction of wavefunctions
       N       E                     dE             d eps       ncg     rms          rms(c)
DAV:   1    -0.102100540874E+03    0.47846E-01   -0.40263E-03   156   0.210E-01    0.567E-03
RMM:   2    -0.102100616143E+03   -0.75269E-04   -0.76771E-04   120   0.800E-02
    602 T=   602. E= -.89352518E+02 F= -.10210062E+03 E0= -.10210660E+03  EK= 0.41234E+01 SP= 0.86E+01 SK= 0.19E-01
 bond charge predicted
 prediction of wavefunctions
       N       E                     dE             d eps       ncg     rms          rms(c)
DAV:   1    -0.102047868647E+03    0.52672E-01   -0.55788E-03   204   0.260E-01    0.103E-02
RMM:   2    -0.102048051433E+03   -0.18279E-03   -0.18786E-03   120   0.127E-01    0.673E-03
RMM:   3    -0.102048068071E+03   -0.16638E-04   -0.15853E-04    70   0.386E-02
    603 T=   603. E= -.89352175E+02 F= -.10204807E+03 E0= -.10205386E+03  EK= 0.41338E+01 SP= 0.85E+01 SK= 0.19E-01
 bond charge predicted
 prediction of wavefunctions
       N       E                     dE             d eps       ncg     rms          rms(c)
DAV:   1    -0.101991319892E+03    0.56732E-01   -0.41988E-03   156   0.217E-01    0.625E-03
RMM:   2    -0.101991411963E+03   -0.92071E-04   -0.94579E-04   120   0.857E-02
    604 T=   604. E= -.89351818E+02 F= -.10199141E+03 E0= -.10199711E+03  EK= 0.41395E+01 SP= 0.85E+01 SK= 0.18E-01
 bond charge predicted
 prediction of wavefunctions
       N       E                     dE             d eps       ncg     rms          rms(c)
DAV:   1    -0.101931457114E+03    0.59863E-01   -0.55688E-03   216   0.261E-01    0.127E-02
RMM:   2    -0.101931648282E+03   -0.19117E-03   -0.20297E-03   120   0.132E-01    0.837E-03
RMM:   3    -0.101931666134E+03   -0.17853E-04   -0.18360E-04    74   0.420E-02
    605 T=   604. E= -.89351434E+02 F= -.10193167E+03 E0= -.10193732E+03  EK= 0.41412E+01 SP= 0.84E+01 SK= 0.18E-01
 bond charge predicted
 prediction of wavefunctions
       N       E                     dE             d eps       ncg     rms          rms(c)
DAV:   1    -0.101869152904E+03    0.62495E-01   -0.47343E-03   192   0.225E-01    0.854E-03
RMM:   2    -0.101869245150E+03   -0.92246E-04   -0.97871E-04   120   0.878E-02
    606 T=   604. E= -.89351074E+02 F= -.10186925E+03 E0= -.10187487E+03  EK= 0.41393E+01 SP= 0.84E+01 SK= 0.17E-01
 bond charge predicted
 prediction of wavefunctions
       N       E                     dE             d eps       ncg     rms          rms(c)
DAV:   1    -0.101803710754E+03    0.65442E-01   -0.61396E-03   204   0.263E-01    0.140E-02
RMM:   2    -0.101803912796E+03   -0.20204E-03   -0.21579E-03   120   0.133E-01    0.831E-03
RMM:   3    -0.101803930935E+03   -0.18138E-04   -0.18513E-04    77   0.423E-02
    607 T=   603. E= -.89350774E+02 F= -.10180393E+03 E0= -.10180955E+03  EK= 0.41334E+01 SP= 0.83E+01 SK= 0.17E-01
 bond charge predicted
 prediction of wavefunctions
       N       E                     dE             d eps       ncg     rms          rms(c)
DAV:   1    -0.101735668732E+03    0.68244E-01   -0.54111E-03   204   0.222E-01    0.987E-03
RMM:   2    -0.101735753277E+03   -0.84545E-04   -0.92439E-04   120   0.862E-02
    608 T=   602. E= -.89350505E+02 F= -.10173575E+03 E0= -.10174140E+03  EK= 0.41238E+01 SP= 0.82E+01 SK= 0.16E-01
 bond charge predicted
 prediction of wavefunctions
       N       E                     dE             d eps       ncg     rms          rms(c)
DAV:   1    -0.101665026624E+03    0.70642E-01   -0.57333E-03   216   0.259E-01    0.133E-02
RMM:   2    -0.101665218700E+03   -0.19208E-03   -0.20520E-03   120   0.131E-01    0.771E-03
RMM:   3    -0.101665239095E+03   -0.20395E-04   -0.20679E-04    78   0.448E-02
    609 T=   600. E= -.89350134E+02 F= -.10166524E+03 E0= -.10167095E+03  EK= 0.41112E+01 SP= 0.82E+01 SK= 0.16E-01
 bond charge predicted
 prediction of wavefunctions
       N       E                     dE             d eps       ncg     rms          rms(c)
DAV:   1    -0.101593770395E+03    0.71448E-01   -0.48911E-03   180   0.223E-01    0.111E-02
RMM:   2    -0.101593849462E+03   -0.79067E-04   -0.89613E-04   120   0.894E-02
    610 T=   598. E= -.89349792E+02 F= -.10159385E+03 E0= -.10159968E+03  EK= 0.40973E+01 SP= 0.81E+01 SK= 0.16E-01
 bond charge predicted
 prediction of wavefunctions
       N       E                     dE             d eps       ncg     rms          rms(c)
DAV:   1    -0.101522846735E+03    0.70924E-01   -0.55372E-03   204   0.257E-01    0.124E-02
RMM:   2    -0.101523031755E+03   -0.18502E-03   -0.19535E-03   120   0.127E-01    0.740E-03
RMM:   3    -0.101523050849E+03   -0.19095E-04   -0.18702E-04    74   0.419E-02
    611 T=   596. E= -.89349339E+02 F= -.10152305E+03 E0= -.10152905E+03  EK= 0.40841E+01 SP= 0.81E+01 SK= 0.16E-01
 bond charge predicted
 prediction of wavefunctions
       N       E                     dE             d eps       ncg     rms          rms(c)
DAV:   1    -0.101455211891E+03    0.67820E-01   -0.44866E-03   168   0.218E-01    0.901E-03
RMM:   2    -0.101455295907E+03   -0.84015E-04   -0.89738E-04   120   0.881E-02
    612 T=   595. E= -.89348928E+02 F= -.10145530E+03 E0= -.10146150E+03  EK= 0.40741E+01 SP= 0.80E+01 SK= 0.17E-01
 bond charge predicted
 prediction of wavefunctions
       N       E                     dE             d eps       ncg     rms          rms(c)
DAV:   1    -0.101393131384E+03    0.62081E-01   -0.52992E-03   192   0.256E-01    0.122E-02
RMM:   2    -0.101393327383E+03   -0.19600E-03   -0.20562E-03   120   0.129E-01    0.732E-03
RMM:   3    -0.101393350829E+03   -0.23446E-04   -0.23088E-04    85   0.466E-02
    613 T=   594. E= -.89348477E+02 F= -.10139335E+03 E0= -.10139980E+03  EK= 0.40705E+01 SP= 0.80E+01 SK= 0.17E-01
 bond charge predicted
 prediction of wavefunctions
       N       E                     dE             d eps       ncg     rms          rms(c)
DAV:   1    -0.101340220610E+03    0.53107E-01   -0.47062E-03   192   0.220E-01    0.900E-03
RMM:   2    -0.101340299993E+03   -0.79383E-04   -0.85823E-04   120   0.840E-02
    614 T=   595. E= -.89348123E+02 F= -.10134030E+03 E0= -.10134701E+03  EK= 0.40765E+01 SP= 0.79E+01 SK= 0.17E-01
 bond charge predicted
 prediction of wavefunctions
       N       E                     dE             d eps       ncg     rms          rms(c)
DAV:   1    -0.101298252507E+03    0.41968E-01   -0.60943E-03   192   0.254E-01    0.127E-02
RMM:   2    -0.101298441881E+03   -0.18937E-03   -0.20046E-03   120   0.127E-01    0.802E-03
RMM:   3    -0.101298461271E+03   -0.19389E-04   -0.19684E-04    77   0.427E-02
    615 T=   598. E= -.89347722E+02 F= -.10129846E+03 E0= -.10130539E+03  EK= 0.40946E+01 SP= 0.78E+01 SK= 0.18E-01
Information: wavefunction orthogonal band   60  0.8767
 bond charge predicted
 prediction of wavefunctions
       N       E                     dE             d eps       ncg     rms          rms(c)
DAV:   1    -0.101269010575E+03    0.29431E-01   -0.52554E-03   192   0.227E-01    0.892E-03
RMM:   2    -0.101269090409E+03   -0.79834E-04   -0.85949E-04   120   0.857E-02
    616 T=   602. E= -.89347470E+02 F= -.10126909E+03 E0= -.10127616E+03  EK= 0.41254E+01 SP= 0.78E+01 SK= 0.18E-01
 bond charge predicted
 prediction of wavefunctions
       N       E                     dE             d eps       ncg     rms          rms(c)
DAV:   1    -0.101251432309E+03    0.17578E-01   -0.65572E-03   204   0.260E-01    0.131E-02
RMM:   2    -0.101251629100E+03   -0.19679E-03   -0.20850E-03   120   0.129E-01    0.745E-03
RMM:   3    -0.101251651213E+03   -0.22113E-04   -0.21994E-04    88   0.444E-02
    617 T=   608. E= -.89347498E+02 F= -.10125165E+03 E0= -.10125876E+03  EK= 0.41678E+01 SP= 0.77E+01 SK= 0.17E-01
 bond charge predicted
 prediction of wavefunctions
       N       E                     dE             d eps       ncg     rms          rms(c)
DAV:   1    -0.101243348234E+03    0.82809E-02   -0.74215E-03   180   0.229E-01    0.924E-03
RMM:   2    -0.101243437029E+03   -0.88796E-04   -0.95215E-04   120   0.880E-02
    618 T=   616. E= -.89347320E+02 F= -.10124344E+03 E0= -.10125048E+03  EK= 0.42187E+01 SP= 0.77E+01 SK= 0.16E-01
 bond charge predicted
 prediction of wavefunctions
       N       E                     dE             d eps       ncg     rms          rms(c)
DAV:   1    -0.101241141564E+03    0.22067E-02   -0.75771E-03   180   0.264E-01    0.115E-02
RMM:   2    -0.101241349316E+03   -0.20775E-03   -0.21703E-03   120   0.132E-01    0.732E-03
RMM:   3    -0.101241371994E+03   -0.22678E-04   -0.22341E-04    83   0.449E-02
    619 T=   624. E= -.89347261E+02 F= -.10124137E+03 E0= -.10124818E+03  EK= 0.42733E+01 SP= 0.76E+01 SK= 0.14E-01
 bond charge predicted
 prediction of wavefunctions
       N       E                     dE             d eps       ncg     rms          rms(c)
DAV:   1    -0.101240863301E+03    0.48601E-03   -0.67606E-03   168   0.230E-01    0.859E-03
RMM:   2    -0.101240947052E+03   -0.83751E-04   -0.88552E-04   120   0.843E-02
    620 T=   631. E= -.89347120E+02 F= -.10124095E+03 E0= -.10124739E+03  EK= 0.43260E+01 SP= 0.76E+01 SK= 0.11E-01
 bond charge predicted
 prediction of wavefunctions
       N       E                     dE             d eps       ncg     rms          rms(c)
DAV:   1    -0.101237522482E+03    0.33408E-02   -0.90363E-03   204   0.265E-01    0.124E-02
RMM:   2    -0.101237742380E+03   -0.21990E-03   -0.22877E-03   120   0.134E-01    0.741E-03
RMM:   3    -0.101237766263E+03   -0.23882E-04   -0.22830E-04    86   0.453E-02
    621 T=   638. E= -.89347127E+02 F= -.10123777E+03 E0= -.10124383E+03  EK= 0.43704E+01 SP= 0.75E+01 SK= 0.86E-02
Information: wavefunction orthogonal band   60  0.8653
 bond charge predicted
 prediction of wavefunctions
       N       E                     dE             d eps       ncg     rms          rms(c)
DAV:   1    -0.101227723632E+03    0.10019E-01   -0.64995E-03   192   0.233E-01    0.846E-03
RMM:   2    -0.101227814353E+03   -0.90721E-04   -0.95946E-04   120   0.883E-02
    622 T=   643. E= -.89346896E+02 F= -.10122781E+03 E0= -.10123351E+03  EK= 0.44017E+01 SP= 0.75E+01 SK= 0.59E-02
 bond charge predicted
 prediction of wavefunctions
       N       E                     dE             d eps       ncg     rms          rms(c)
DAV:   1    -0.101209312656E+03    0.18411E-01   -0.70214E-03   192   0.267E-01    0.107E-02
RMM:   2    -0.101209516885E+03   -0.20423E-03   -0.21022E-03   120   0.133E-01    0.757E-03
RMM:   3    -0.101209537371E+03   -0.20486E-04   -0.19560E-04    78   0.429E-02
    623 T=   645. E= -.89346709E+02 F= -.10120954E+03 E0= -.10121488E+03  EK= 0.44168E+01 SP= 0.74E+01 SK= 0.36E-02
 bond charge predicted
 prediction of wavefunctions
       N       E                     dE             d eps       ncg     rms          rms(c)
DAV:   1    -0.101182497183E+03    0.27020E-01   -0.60873E-03   192   0.229E-01    0.804E-03
RMM:   2    -0.101182587853E+03   -0.90670E-04   -0.94631E-04   120   0.877E-02
    624 T=   644. E= -.89346486E+02 F= -.10118259E+03 E0= -.10118765E+03  EK= 0.44150E+01 SP= 0.74E+01 SK= 0.18E-02
 bond charge predicted
 prediction of wavefunctions
       N       E                     dE             d eps       ncg     rms          rms(c)
DAV:   1    -0.101147336048E+03    0.35161E-01   -0.71255E-03   216   0.268E-01    0.113E-02
RMM:   2    -0.101147552780E+03   -0.21673E-03   -0.22376E-03   120   0.137E-01    0.726E-03
RMM:   3    -0.101147572636E+03   -0.19857E-04   -0.17971E-04    76   0.410E-02
    625 T=   642. E= -.89345998E+02 F= -.10114757E+03 E0= -.10115246E+03  EK= 0.43970E+01 SP= 0.74E+01 SK= 0.66E-03
 bond charge predicted
 prediction of wavefunctions
       N       E                     dE             d eps       ncg     rms          rms(c)
DAV:   1    -0.101106625824E+03    0.40927E-01   -0.65889E-03   192   0.227E-01    0.752E-03
RMM:   2    -0.101106712768E+03   -0.86944E-04   -0.90556E-04   120   0.864E-02
    626 T=   637. E= -.89345454E+02 F= -.10110671E+03 E0= -.10111152E+03  EK= 0.43654E+01 SP= 0.74E+01 SK= 0.11E-03
 bond charge predicted
 prediction of wavefunctions
       N       E                     dE             d eps       ncg     rms          rms(c)
DAV:   1    -0.101062798101E+03    0.43828E-01   -0.63409E-03   192   0.263E-01    0.115E-02
RMM:   2    -0.101063011197E+03   -0.21310E-03   -0.22034E-03   120   0.134E-01    0.767E-03
RMM:   3    -0.101063033981E+03   -0.22784E-04   -0.21534E-04    79   0.446E-02
    627 T=   631. E= -.89344931E+02 F= -.10106303E+03 E0= -.10106780E+03  EK= 0.43239E+01 SP= 0.74E+01 SK= 0.10E-04
 bond charge predicted
 prediction of wavefunctions
       N       E                     dE             d eps       ncg     rms          rms(c)
DAV:   1    -0.101020018920E+03    0.42992E-01   -0.53402E-03   168   0.221E-01    0.700E-03
RMM:   2    -0.101020105605E+03   -0.86685E-04   -0.90095E-04   120   0.862E-02
    628 T=   624. E= -.89344311E+02 F= -.10102011E+03 E0= -.10102486E+03  EK= 0.42775E+01 SP= 0.74E+01 SK= 0.20E-03
 bond charge predicted
 prediction of wavefunctions
       N       E                     dE             d eps       ncg     rms          rms(c)
DAV:   1    -0.100981156691E+03    0.38862E-01   -0.62482E-03   192   0.255E-01    0.111E-02
RMM:   2    -0.100981363006E+03   -0.20631E-03   -0.21277E-03   120   0.130E-01    0.722E-03
RMM:   3    -0.100981387956E+03   -0.24949E-04   -0.23270E-04    89   0.455E-02
    629 T=   618. E= -.89343601E+02 F= -.10098139E+03 E0= -.10098614E+03  EK= 0.42309E+01 SP= 0.74E+01 SK= 0.51E-03
 bond charge predicted
 prediction of wavefunctions
       N       E                     dE             d eps       ncg     rms          rms(c)
DAV:   1    -0.100949931475E+03    0.31432E-01   -0.55036E-03   192   0.217E-01    0.779E-03
RMM:   2    -0.100950020781E+03   -0.89306E-04   -0.94017E-04   120   0.840E-02
    630 T=   611. E= -.89343024E+02 F= -.10095002E+03 E0= -.10095476E+03  EK= 0.41884E+01 SP= 0.74E+01 SK= 0.80E-03
 bond charge predicted
 prediction of wavefunctions
       N       E                     dE             d eps       ncg     rms          rms(c)
DAV:   1    -0.100928482673E+03    0.21449E-01   -0.75510E-03   216   0.249E-01    0.117E-02
RMM:   2    -0.100928664252E+03   -0.18158E-03   -0.18955E-03   120   0.126E-01    0.747E-03
RMM:   3    -0.100928681650E+03   -0.17399E-04   -0.16644E-04    71   0.394E-02
    631 T=   606. E= -.89342532E+02 F= -.10092868E+03 E0= -.10093339E+03  EK= 0.41537E+01 SP= 0.74E+01 SK= 0.10E-02
 bond charge predicted
 prediction of wavefunctions
       N       E                     dE             d eps       ncg     rms          rms(c)
DAV:   1    -0.100919278774E+03    0.93855E-02   -0.53689E-03   192   0.219E-01    0.807E-03
RMM:   2    -0.100919382615E+03   -0.10384E-03   -0.10934E-03   120   0.842E-02    0.526E-03
RMM:   3    -0.100919404183E+03   -0.21568E-04   -0.23075E-04    85   0.382E-02
    632 T=   603. E= -.89342201E+02 F= -.10091940E+03 E0= -.10092407E+03  EK= 0.41297E+01 SP= 0.74E+01 SK= 0.12E-02
 bond charge predicted
 prediction of wavefunctions
       N       E                     dE             d eps       ncg     rms          rms(c)
DAV:   1    -0.100923115028E+03   -0.37324E-02   -0.55881E-03   192   0.220E-01    0.780E-03
RMM:   2    -0.100923218195E+03   -0.10317E-03   -0.10563E-03   120   0.917E-02    0.496E-03
RMM:   3    -0.100923233121E+03   -0.14926E-04   -0.14671E-04    70   0.353E-02
    633 T=   601. E= -.89341971E+02 F= -.10092323E+03 E0= -.10092785E+03  EK= 0.41181E+01 SP= 0.75E+01 SK= 0.12E-02
 bond charge predicted
 prediction of wavefunctions
       N       E                     dE             d eps       ncg     rms          rms(c)
DAV:   1    -0.100940275608E+03   -0.17057E-01   -0.41673E-03   168   0.218E-01    0.614E-03
RMM:   2    -0.100940371946E+03   -0.96338E-04   -0.98243E-04   120   0.879E-02
    634 T=   601. E= -.89341811E+02 F= -.10094037E+03 E0= -.10094491E+03  EK= 0.41193E+01 SP= 0.75E+01 SK= 0.13E-02
 bond charge predicted
 prediction of wavefunctions
       N       E                     dE             d eps       ncg     rms          rms(c)
DAV:   1    -0.100969579826E+03   -0.29304E-01   -0.47495E-03   228   0.242E-01    0.963E-03
RMM:   2    -0.100969728934E+03   -0.14911E-03   -0.15302E-03   120   0.117E-01    0.712E-03
RMM:   3    -0.100969747643E+03   -0.18709E-04   -0.18077E-04    71   0.410E-02
    635 T=   603. E= -.89341520E+02 F= -.10096975E+03 E0= -.10097417E+03  EK= 0.41324E+01 SP= 0.75E+01 SK= 0.14E-02
 bond charge predicted
 prediction of wavefunctions
       N       E                     dE             d eps       ncg     rms          rms(c)
DAV:   1    -0.101009893809E+03   -0.40165E-01   -0.34689E-03   144   0.217E-01    0.629E-03
RMM:   2    -0.101009962546E+03   -0.68737E-04   -0.71181E-04   120   0.741E-02
    636 T=   607. E= -.89341277E+02 F= -.10100996E+03 E0= -.10101425E+03  EK= 0.41554E+01 SP= 0.75E+01 SK= 0.16E-02
 bond charge predicted
 prediction of wavefunctions
       N       E                     dE             d eps       ncg     rms          rms(c)
DAV:   1    -0.101059150538E+03   -0.49257E-01   -0.42330E-03   204   0.254E-01    0.971E-03
RMM:   2    -0.101059336024E+03   -0.18549E-03   -0.18892E-03   120   0.121E-01    0.689E-03
RMM:   3    -0.101059353298E+03   -0.17275E-04   -0.16376E-04    73   0.371E-02
    637 T=   611. E= -.89341087E+02 F= -.10105935E+03 E0= -.10106354E+03  EK= 0.41861E+01 SP= 0.75E+01 SK= 0.19E-02
 bond charge predicted
 prediction of wavefunctions
       N       E                     dE             d eps       ncg     rms          rms(c)
DAV:   1    -0.101116440563E+03   -0.57105E-01   -0.40399E-03   180   0.217E-01    0.659E-03
RMM:   2    -0.101116518559E+03   -0.77997E-04   -0.81042E-04   119   0.685E-02
    638 T=   616. E= -.89340958E+02 F= -.10111652E+03 E0= -.10112068E+03  EK= 0.42222E+01 SP= 0.76E+01 SK= 0.24E-02
Information: wavefunction orthogonal band   60  0.8908
 bond charge predicted
 prediction of wavefunctions
       N       E                     dE             d eps       ncg     rms          rms(c)
DAV:   1    -0.101179770479E+03   -0.63330E-01   -0.59178E-03   204   0.258E-01    0.876E-03
RMM:   2    -0.101179964584E+03   -0.19411E-03   -0.19774E-03   120   0.124E-01    0.653E-03
RMM:   3    -0.101179985236E+03   -0.20651E-04   -0.19247E-04    76   0.409E-02
    639 T=   622. E= -.89340787E+02 F= -.10117999E+03 E0= -.10118428E+03  EK= 0.42613E+01 SP= 0.76E+01 SK= 0.32E-02
 bond charge predicted
 prediction of wavefunctions
       N       E                     dE             d eps       ncg     rms          rms(c)
DAV:   1    -0.101247929123E+03   -0.67965E-01   -0.48149E-03   204   0.237E-01    0.626E-03
RMM:   2    -0.101248028492E+03   -0.99370E-04   -0.10165E-03   120   0.872E-02    0.411E-03
RMM:   3    -0.101248047919E+03   -0.19427E-04   -0.19330E-04    72   0.392E-02
    640 T=   628. E= -.89340733E+02 F= -.10124805E+03 E0= -.10125272E+03  EK= 0.43006E+01 SP= 0.76E+01 SK= 0.44E-02
 bond charge predicted
 prediction of wavefunctions
       N       E                     dE             d eps       ncg     rms          rms(c)
DAV:   1    -0.101319166417E+03   -0.71138E-01   -0.42298E-03   216   0.237E-01    0.864E-03
RMM:   2    -0.101319248636E+03   -0.82219E-04   -0.86087E-04   120   0.879E-02
    641 T=   633. E= -.89340508E+02 F= -.10131925E+03 E0= -.10132464E+03  EK= 0.43378E+01 SP= 0.76E+01 SK= 0.61E-02
 bond charge predicted
 prediction of wavefunctions
       N       E                     dE             d eps       ncg     rms          rms(c)
DAV:   1    -0.101391627460E+03   -0.72461E-01   -0.48102E-03   168   0.267E-01    0.769E-03
RMM:   2    -0.101391816353E+03   -0.18889E-03   -0.19167E-03   120   0.125E-01    0.597E-03
RMM:   3    -0.101391843013E+03   -0.26660E-04   -0.25651E-04    88   0.461E-02
    642 T=   638. E= -.89340104E+02 F= -.10139184E+03 E0= -.10139817E+03  EK= 0.43701E+01 SP= 0.77E+01 SK= 0.85E-02
 bond charge predicted
 prediction of wavefunctions
       N       E                     dE             d eps       ncg     rms          rms(c)
DAV:   1    -0.101463636213E+03   -0.71820E-01   -0.48808E-03   192   0.236E-01    0.212E-02
RMM:   2    -0.101463673270E+03   -0.37056E-04   -0.83140E-04   120   0.776E-02
    643 T=   641. E= -.89339546E+02 F= -.10146367E+03 E0= -.10147050E+03  EK= 0.43945E+01 SP= 0.77E+01 SK= 0.12E-01
 bond charge predicted
 prediction of wavefunctions
       N       E                     dE             d eps       ncg     rms          rms(c)
DAV:   1    -0.101532945428E+03   -0.69309E-01   -0.64882E-03   180   0.266E-01    0.193E-02
RMM:   2    -0.101533122153E+03   -0.17672E-03   -0.20644E-03   120   0.125E-01    0.921E-03
RMM:   3    -0.101533135812E+03   -0.13659E-04   -0.15172E-04    76   0.368E-02
    644 T=   643. E= -.89339147E+02 F= -.10153314E+03 E0= -.10153986E+03  EK= 0.44084E+01 SP= 0.78E+01 SK= 0.15E-01
 bond charge predicted
 prediction of wavefunctions
       N       E                     dE             d eps       ncg     rms          rms(c)
DAV:   1    -0.101598097191E+03   -0.64975E-01   -0.60730E-03   156   0.223E-01    0.189E-02
RMM:   2    -0.101598144521E+03   -0.47330E-04   -0.78957E-04   120   0.687E-02
    645 T=   644. E= -.89338989E+02 F= -.10159814E+03 E0= -.10160462E+03  EK= 0.44094E+01 SP= 0.78E+01 SK= 0.20E-01
 bond charge predicted
 prediction of wavefunctions
       N       E                     dE             d eps       ncg     rms          rms(c)
DAV:   1    -0.101656005769E+03   -0.57909E-01   -0.10937E-02   156   0.261E-01    0.192E-02
RMM:   2    -0.101656187955E+03   -0.18219E-03   -0.20368E-03   120   0.123E-01    0.972E-03
RMM:   3    -0.101656214608E+03   -0.26653E-04   -0.28351E-04    93   0.480E-02
    646 T=   642. E= -.89338867E+02 F= -.10165621E+03 E0= -.10166250E+03  EK= 0.43954E+01 SP= 0.79E+01 SK= 0.25E-01
 bond charge predicted
 prediction of wavefunctions
       N       E                     dE             d eps       ncg     rms          rms(c)
DAV:   1    -0.101704464256E+03   -0.48276E-01   -0.65713E-03   144   0.231E-01    0.994E-03
RMM:   2    -0.101704552568E+03   -0.88312E-04   -0.96466E-04   120   0.883E-02
    647 T=   637. E= -.89338601E+02 F= -.10170455E+03 E0= -.10171071E+03  EK= 0.43644E+01 SP= 0.80E+01 SK= 0.30E-01
 bond charge predicted
 prediction of wavefunctions
       N       E                     dE             d eps       ncg     rms          rms(c)
DAV:   1    -0.101739752994E+03   -0.35289E-01   -0.74678E-03   156   0.265E-01    0.197E-02
RMM:   2    -0.101739898462E+03   -0.14547E-03   -0.18914E-03   120   0.126E-01    0.125E-02
RMM:   3    -0.101739899031E+03   -0.56938E-06   -0.19565E-04    91   0.396E-02
    648 T=   630. E= -.89338130E+02 F= -.10173990E+03 E0= -.10174566E+03  EK= 0.43145E+01 SP= 0.81E+01 SK= 0.35E-01
 bond charge predicted
 prediction of wavefunctions
       N       E                     dE             d eps       ncg     rms          rms(c)
DAV:   1    -0.101759769312E+03   -0.19871E-01   -0.70626E-03   180   0.236E-01    0.103E-02
RMM:   2    -0.101759842256E+03   -0.72944E-04   -0.80184E-04   120   0.817E-02
    649 T=   620. E= -.89337538E+02 F= -.10175984E+03 E0= -.10176456E+03  EK= 0.42452E+01 SP= 0.81E+01 SK= 0.38E-01
 bond charge predicted
 prediction of wavefunctions
       N       E                     dE             d eps       ncg     rms          rms(c)
DAV:   1    -0.101763819806E+03   -0.40505E-02   -0.84195E-03   180   0.276E-01    0.205E-02
RMM:   2    -0.101763978954E+03   -0.15915E-03   -0.20833E-03   120   0.132E-01    0.118E-02
RMM:   3    -0.101763983894E+03   -0.49402E-05   -0.21325E-04    86   0.430E-02
    650 T=   607. E= -.89336843E+02 F= -.10176398E+03 E0= -.10176759E+03  EK= 0.41581E+01 SP= 0.82E+01 SK= 0.41E-01
 bond charge predicted
 prediction of wavefunctions
       N       E                     dE             d eps       ncg     rms          rms(c)
DAV:   1    -0.101753504009E+03    0.10475E-01   -0.78354E-03   120   0.227E-01    0.181E-02
RMM:   2    -0.101753578415E+03   -0.74406E-04   -0.98215E-04   120   0.825E-02
    651 T=   592. E= -.89336077E+02 F= -.10175358E+03 E0= -.10175653E+03  EK= 0.40573E+01 SP= 0.83E+01 SK= 0.41E-01
 bond charge predicted
 prediction of wavefunctions
       N       E                     dE             d eps       ncg     rms          rms(c)
DAV:   1    -0.101731282816E+03    0.22221E-01   -0.85047E-03   180   0.256E-01    0.115E-02
RMM:   2    -0.101731454834E+03   -0.17202E-03   -0.17901E-03   120   0.123E-01    0.721E-03
RMM:   3    -0.101731475937E+03   -0.21103E-04   -0.21869E-04    81   0.441E-02
    652 T=   576. E= -.89335256E+02 F= -.10173148E+03 E0= -.10173409E+03  EK= 0.39484E+01 SP= 0.84E+01 SK= 0.39E-01
 bond charge predicted
 prediction of wavefunctions
       N       E                     dE             d eps       ncg     rms          rms(c)
DAV:   1    -0.101702217255E+03    0.29238E-01   -0.78612E-03   180   0.222E-01    0.140E-02
RMM:   2    -0.101702300214E+03   -0.82958E-04   -0.95000E-04   120   0.861E-02
    653 T=   560. E= -.89334524E+02 F= -.10170230E+03 E0= -.10170472E+03  EK= 0.38383E+01 SP= 0.85E+01 SK= 0.34E-01
 bond charge predicted
 prediction of wavefunctions
       N       E                     dE             d eps       ncg     rms          rms(c)
DAV:   1    -0.101670409663E+03    0.31808E-01   -0.83845E-03   180   0.256E-01    0.123E-02
RMM:   2    -0.101670602859E+03   -0.19320E-03   -0.19930E-03   120   0.128E-01    0.822E-03
RMM:   3    -0.101670622202E+03   -0.19343E-04   -0.19242E-04    78   0.420E-02
    654 T=   545. E= -.89333780E+02 F= -.10167062E+03 E0= -.10167293E+03  EK= 0.37340E+01 SP= 0.86E+01 SK= 0.28E-01
 bond charge predicted
 prediction of wavefunctions
       N       E                     dE             d eps       ncg     rms          rms(c)
DAV:   1    -0.101641191084E+03    0.29412E-01   -0.73907E-03   168   0.211E-01    0.101E-02
RMM:   2    -0.101641264707E+03   -0.73623E-04   -0.78706E-04   120   0.762E-02
    655 T=   532. E= -.89333117E+02 F= -.10164126E+03 E0= -.10164354E+03  EK= 0.36421E+01 SP= 0.86E+01 SK= 0.21E-01
 bond charge predicted
 prediction of wavefunctions
       N       E                     dE             d eps       ncg     rms          rms(c)
DAV:   1    -0.101619431527E+03    0.21760E-01   -0.80263E-03   204   0.244E-01    0.125E-02
RMM:   2    -0.101619596936E+03   -0.16541E-03   -0.17414E-03   120   0.121E-01    0.766E-03
RMM:   3    -0.101619613965E+03   -0.17029E-04   -0.18293E-04    69   0.413E-02
    656 T=   521. E= -.89332589E+02 F= -.10161961E+03 E0= -.10162188E+03  EK= 0.35691E+01 SP= 0.87E+01 SK= 0.14E-01
 bond charge predicted
 prediction of wavefunctions
       N       E                     dE             d eps       ncg     rms          rms(c)
DAV:   1    -0.101609952096E+03    0.96448E-02   -0.71748E-03   132   0.209E-01    0.987E-03
RMM:   2    -0.101610029044E+03   -0.76947E-04   -0.82387E-04   120   0.786E-02
    657 T=   514. E= -.89332103E+02 F= -.10161003E+03 E0= -.10161232E+03  EK= 0.35204E+01 SP= 0.88E+01 SK= 0.75E-02
 bond charge predicted
 prediction of wavefunctions
       N       E                     dE             d eps       ncg     rms          rms(c)
DAV:   1    -0.101615615510E+03   -0.56634E-02   -0.80374E-03   192   0.242E-01    0.143E-02
RMM:   2    -0.101615766530E+03   -0.15102E-03   -0.16799E-03   120   0.117E-01    0.842E-03
RMM:   3    -0.101615783407E+03   -0.16876E-04   -0.20095E-04    73   0.425E-02
    658 T=   511. E= -.89331697E+02 F= -.10161578E+03 E0= -.10161816E+03  EK= 0.34996E+01 SP= 0.88E+01 SK= 0.29E-02
 bond charge predicted
 prediction of wavefunctions
       N       E                     dE             d eps       ncg     rms          rms(c)
DAV:   1    -0.101638782000E+03   -0.23015E-01   -0.69721E-03   168   0.213E-01    0.120E-02
RMM:   2    -0.101638851579E+03   -0.69578E-04   -0.80782E-04   120   0.812E-02
    659 T=   512. E= -.89331333E+02 F= -.10163885E+03 E0= -.10164138E+03  EK= 0.35088E+01 SP= 0.88E+01 SK= 0.42E-03
 bond charge predicted
 prediction of wavefunctions
       N       E                     dE             d eps       ncg     rms          rms(c)
DAV:   1    -0.101679320294E+03   -0.40538E-01   -0.69882E-03   168   0.246E-01    0.118E-02
RMM:   2    -0.101679482590E+03   -0.16230E-03   -0.17180E-03   120   0.119E-01    0.689E-03
RMM:   3    -0.101679504218E+03   -0.21628E-04   -0.21666E-04    78   0.453E-02
    660 T=   518. E= -.89330999E+02 F= -.10167950E+03 E0= -.10168226E+03  EK= 0.35481E+01 SP= 0.88E+01 SK= 0.13E-03
 bond charge predicted
 prediction of wavefunctions
       N       E                     dE             d eps       ncg     rms          rms(c)
DAV:   1    -0.101736273857E+03   -0.56791E-01   -0.61712E-03   180   0.215E-01    0.108E-02
RMM:   2    -0.101736335091E+03   -0.61233E-04   -0.71479E-04   120   0.782E-02
    661 T=   528. E= -.89330788E+02 F= -.10173634E+03 E0= -.10173945E+03  EK= 0.36152E+01 SP= 0.88E+01 SK= 0.16E-02
 bond charge predicted
 prediction of wavefunctions
       N       E                     dE             d eps       ncg     rms          rms(c)
DAV:   1    -0.101806030773E+03   -0.69757E-01   -0.69519E-03   168   0.251E-01    0.104E-02
RMM:   2    -0.101806188046E+03   -0.15727E-03   -0.16443E-03   120   0.117E-01    0.631E-03
RMM:   3    -0.101806206152E+03   -0.18106E-04   -0.17687E-04    67   0.396E-02
    662 T=   541. E= -.89330771E+02 F= -.10180621E+03 E0= -.10180992E+03  EK= 0.37062E+01 SP= 0.88E+01 SK= 0.42E-02
 bond charge predicted
 prediction of wavefunctions
       N       E                     dE             d eps       ncg     rms          rms(c)
DAV:   1    -0.101884137979E+03   -0.77950E-01   -0.63696E-03   156   0.224E-01    0.845E-03
RMM:   2    -0.101884203454E+03   -0.65475E-04   -0.70880E-04   120   0.791E-02
    663 T=   557. E= -.89330772E+02 F= -.10188420E+03 E0= -.10188885E+03  EK= 0.38148E+01 SP= 0.87E+01 SK= 0.70E-02
 bond charge predicted
 prediction of wavefunctions
       N       E                     dE             d eps       ncg     rms          rms(c)
DAV:   1    -0.101964375188E+03   -0.80237E-01   -0.73744E-03   168   0.261E-01    0.107E-02
RMM:   2    -0.101964529901E+03   -0.15471E-03   -0.15884E-03   120   0.119E-01    0.715E-03
RMM:   3    -0.101964549362E+03   -0.19462E-04   -0.19416E-04    71   0.422E-02
    664 T=   574. E= -.89330784E+02 F= -.10196455E+03 E0= -.10197042E+03  EK= 0.39334E+01 SP= 0.87E+01 SK= 0.93E-02
 bond charge predicted
 prediction of wavefunctions
       N       E                     dE             d eps       ncg     rms          rms(c)
DAV:   1    -0.102041340968E+03   -0.76811E-01   -0.70322E-03   156   0.236E-01    0.989E-03
RMM:   2    -0.102041409011E+03   -0.68043E-04   -0.75569E-04   120   0.825E-02
    665 T=   592. E= -.89330727E+02 F= -.10204141E+03 E0= -.10204845E+03  EK= 0.40539E+01 SP= 0.86E+01 SK= 0.10E-01
 bond charge predicted
 prediction of wavefunctions
       N       E                     dE             d eps       ncg     rms          rms(c)
DAV:   1    -0.102109721885E+03   -0.68381E-01   -0.82978E-03   144   0.272E-01    0.189E-02
RMM:   2    -0.102109879990E+03   -0.15811E-03   -0.18259E-03   120   0.125E-01    0.113E-02
RMM:   3    -0.102109894738E+03   -0.14747E-04   -0.21323E-04    79   0.428E-02
    666 T=   608. E= -.89330697E+02 F= -.10210989E+03 E0= -.10211758E+03  EK= 0.41685E+01 SP= 0.86E+01 SK= 0.10E-01
 bond charge predicted
 prediction of wavefunctions
       N       E                     dE             d eps       ncg     rms          rms(c)
DAV:   1    -0.102165429046E+03   -0.55549E-01   -0.78140E-03   156   0.243E-01    0.881E-03
RMM:   2    -0.102165500519E+03   -0.71473E-04   -0.77156E-04   120   0.852E-02
    667 T=   623. E= -.89330622E+02 F= -.10216550E+03 E0= -.10217343E+03  EK= 0.42698E+01 SP= 0.86E+01 SK= 0.91E-02
 bond charge predicted
 prediction of wavefunctions
       N       E                     dE             d eps       ncg     rms          rms(c)
DAV:   1    -0.102204363717E+03   -0.38935E-01   -0.91747E-03   144   0.280E-01    0.135E-02
RMM:   2    -0.102204549184E+03   -0.18547E-03   -0.19359E-03   120   0.129E-01    0.838E-03
RMM:   3    -0.102204569313E+03   -0.20130E-04   -0.20228E-04    76   0.419E-02
    668 T=   635. E= -.89330458E+02 F= -.10220457E+03 E0= -.10221253E+03  EK= 0.43514E+01 SP= 0.85E+01 SK= 0.70E-02
 bond charge predicted
 prediction of wavefunctions
       N       E                     dE             d eps       ncg     rms          rms(c)
DAV:   1    -0.102225192276E+03   -0.20643E-01   -0.88931E-03   132   0.245E-01    0.643E-03
RMM:   2    -0.102225266131E+03   -0.73856E-04   -0.75570E-04   120   0.828E-02
    669 T=   644. E= -.89330202E+02 F= -.10222527E+03 E0= -.10223318E+03  EK= 0.44088E+01 SP= 0.85E+01 SK= 0.46E-02
 bond charge predicted
 prediction of wavefunctions
       N       E                     dE             d eps       ncg     rms          rms(c)
DAV:   1    -0.102226915357E+03   -0.17231E-02   -0.10698E-02   204   0.281E-01    0.133E-02
RMM:   2    -0.102227103282E+03   -0.18793E-03   -0.19503E-03   120   0.131E-01    0.909E-03
RMM:   3    -0.102227121559E+03   -0.18277E-04   -0.19156E-04    73   0.415E-02
    670 T=   648. E= -.89329760E+02 F= -.10222712E+03 E0= -.10223499E+03  EK= 0.44399E+01 SP= 0.85E+01 SK= 0.25E-02
 bond charge predicted
 prediction of wavefunctions
       N       E                     dE             d eps       ncg     rms          rms(c)
DAV:   1    -0.102211426870E+03    0.15676E-01   -0.11504E-02   192   0.248E-01    0.725E-03
RMM:   2    -0.102211511973E+03   -0.85102E-04   -0.88052E-04   120   0.873E-02
    671 T=   649. E= -.89329268E+02 F= -.10221151E+03 E0= -.10221939E+03  EK= 0.44447E+01 SP= 0.84E+01 SK= 0.98E-03
 bond charge predicted
 prediction of wavefunctions
       N       E                     dE             d eps       ncg     rms          rms(c)
DAV:   1    -0.102180790155E+03    0.30637E-01   -0.12572E-02   156   0.282E-01    0.146E-02
RMM:   2    -0.102180993143E+03   -0.20299E-03   -0.21069E-03   120   0.135E-01    0.991E-03
RMM:   3    -0.102181013070E+03   -0.19928E-04   -0.21029E-04    79   0.438E-02
    672 T=   646. E= -.89328465E+02 F= -.10218101E+03 E0= -.10218895E+03  EK= 0.44257E+01 SP= 0.84E+01 SK= 0.16E-03
 bond charge predicted
 prediction of wavefunctions
       N       E                     dE             d eps       ncg     rms          rms(c)
DAV:   1    -0.102140105874E+03    0.40887E-01   -0.11745E-02   156   0.243E-01    0.832E-03
RMM:   2    -0.102140189456E+03   -0.83583E-04   -0.86900E-04   120   0.872E-02
    673 T=   640. E= -.89327685E+02 F= -.10214019E+03 E0= -.10214822E+03  EK= 0.43878E+01 SP= 0.84E+01 SK= 0.16E-04
 bond charge predicted
 prediction of wavefunctions
       N       E                     dE             d eps       ncg     rms          rms(c)
DAV:   1    -0.102093746953E+03    0.46359E-01   -0.12630E-02   180   0.279E-01    0.148E-02
RMM:   2    -0.102093960160E+03   -0.21321E-03   -0.22239E-03   120   0.135E-01    0.976E-03
RMM:   3    -0.102093979939E+03   -0.19779E-04   -0.20969E-04    82   0.426E-02
    674 T=   633. E= -.89326817E+02 F= -.10209398E+03 E0= -.10210211E+03  EK= 0.43371E+01 SP= 0.84E+01 SK= 0.34E-03
 bond charge predicted
 prediction of wavefunctions
       N       E                     dE             d eps       ncg     rms          rms(c)
DAV:   1    -0.102048125361E+03    0.45835E-01   -0.11563E-02   156   0.237E-01    0.100E-02
RMM:   2    -0.102048205127E+03   -0.79766E-04   -0.85864E-04   120   0.878E-02
    675 T=   625. E= -.89325905E+02 F= -.10204821E+03 E0= -.10205640E+03  EK= 0.42809E+01 SP= 0.84E+01 SK= 0.88E-03
 bond charge predicted
 prediction of wavefunctions
       N       E                     dE             d eps       ncg     rms          rms(c)
DAV:   1    -0.102009048863E+03    0.39076E-01   -0.12085E-02   180   0.273E-01    0.152E-02
RMM:   2    -0.102009244361E+03   -0.19550E-03   -0.20780E-03   120   0.134E-01    0.960E-03
RMM:   3    -0.102009263824E+03   -0.19464E-04   -0.20622E-04    75   0.441E-02
    676 T=   617. E= -.89325037E+02 F= -.10200926E+03 E0= -.10201747E+03  EK= 0.42270E+01 SP= 0.85E+01 SK= 0.14E-02
 bond charge predicted
 prediction of wavefunctions
       N       E                     dE             d eps       ncg     rms          rms(c)
DAV:   1    -0.101983165165E+03    0.26079E-01   -0.10566E-02   156   0.231E-01    0.108E-02
RMM:   2    -0.101983250397E+03   -0.85232E-04   -0.91257E-04   120   0.898E-02
    677 T=   611. E= -.89324468E+02 F= -.10198325E+03 E0= -.10199145E+03  EK= 0.41828E+01 SP= 0.85E+01 SK= 0.19E-02
 bond charge predicted
 prediction of wavefunctions
       N       E                     dE             d eps       ncg     rms          rms(c)
DAV:   1    -0.101974668924E+03    0.84962E-02   -0.11102E-02   132   0.267E-01    0.147E-02
RMM:   2    -0.101974876434E+03   -0.20751E-03   -0.21638E-03   120   0.132E-01    0.938E-03
RMM:   3    -0.101974898761E+03   -0.22327E-04   -0.23018E-04    85   0.455E-02
    678 T=   606. E= -.89323780E+02 F= -.10197490E+03 E0= -.10198307E+03  EK= 0.41545E+01 SP= 0.85E+01 SK= 0.22E-02
 bond charge predicted
 prediction of wavefunctions
       N       E                     dE             d eps       ncg     rms          rms(c)
DAV:   1    -0.101988549359E+03   -0.13673E-01   -0.97545E-03   192   0.226E-01    0.103E-02
RMM:   2    -0.101988631499E+03   -0.82140E-04   -0.88579E-04   120   0.890E-02
    679 T=   605. E= -.89323151E+02 F= -.10198863E+03 E0= -.10199678E+03  EK= 0.41469E+01 SP= 0.85E+01 SK= 0.24E-02
 bond charge predicted
 prediction of wavefunctions
       N       E                     dE             d eps       ncg     rms          rms(c)
DAV:   1    -0.102026675059E+03   -0.38126E-01   -0.10045E-02   180   0.261E-01    0.139E-02
RMM:   2    -0.102026872018E+03   -0.19696E-03   -0.20552E-03   120   0.131E-01    0.900E-03
RMM:   3    -0.102026894172E+03   -0.22153E-04   -0.21818E-04    81   0.448E-02
    680 T=   608. E= -.89322718E+02 F= -.10202689E+03 E0= -.10203500E+03  EK= 0.41626E+01 SP= 0.85E+01 SK= 0.27E-02
 bond charge predicted
 prediction of wavefunctions
       N       E                     dE             d eps       ncg     rms          rms(c)
DAV:   1    -0.102089793619E+03   -0.62922E-01   -0.87279E-03   144   0.221E-01    0.974E-03
RMM:   2    -0.102089871677E+03   -0.78058E-04   -0.83016E-04   120   0.861E-02
    681 T=   613. E= -.89322343E+02 F= -.10208987E+03 E0= -.10209790E+03  EK= 0.42012E+01 SP= 0.86E+01 SK= 0.31E-02
 bond charge predicted
 prediction of wavefunctions
       N       E                     dE             d eps       ncg     rms          rms(c)
DAV:   1    -0.102176442162E+03   -0.86649E-01   -0.92722E-03   192   0.258E-01    0.143E-02
RMM:   2    -0.102176626427E+03   -0.18427E-03   -0.19268E-03   120   0.128E-01    0.946E-03
RMM:   3    -0.102176643030E+03   -0.16603E-04   -0.17780E-04    74   0.403E-02
    682 T=   622. E= -.89322305E+02 F= -.10217664E+03 E0= -.10218458E+03  EK= 0.42604E+01 SP= 0.86E+01 SK= 0.40E-02
 bond charge predicted
 prediction of wavefunctions
       N       E                     dE             d eps       ncg     rms          rms(c)
DAV:   1    -0.102283613334E+03   -0.10699E+00   -0.84310E-03   144   0.223E-01    0.914E-03
RMM:   2    -0.102283687901E+03   -0.74567E-04   -0.78581E-04   120   0.840E-02
    683 T=   633. E= -.89322293E+02 F= -.10228369E+03 E0= -.10229152E+03  EK= 0.43352E+01 SP= 0.86E+01 SK= 0.54E-02
 bond charge predicted
 prediction of wavefunctions
       N       E                     dE             d eps       ncg     rms          rms(c)
DAV:   1    -0.102405097181E+03   -0.12148E+00   -0.92932E-03   168   0.264E-01    0.146E-02
RMM:   2    -0.102405284699E+03   -0.18752E-03   -0.19714E-03   120   0.130E-01    0.914E-03
RMM:   3    -0.102405304594E+03   -0.19894E-04   -0.20513E-04    74   0.430E-02
    684 T=   645. E= -.89322085E+02 F= -.10240530E+03 E0= -.10241299E+03  EK= 0.44181E+01 SP= 0.87E+01 SK= 0.78E-02
 bond charge predicted
 prediction of wavefunctions
       N       E                     dE             d eps       ncg     rms          rms(c)
DAV:   1    -0.102534530426E+03   -0.12925E+00   -0.86360E-03   156   0.229E-01    0.922E-03
RMM:   2    -0.102534610423E+03   -0.79996E-04   -0.84560E-04   120   0.866E-02
    685 T=   657. E= -.89322176E+02 F= -.10253461E+03 E0= -.10254215E+03  EK= 0.44992E+01 SP= 0.87E+01 SK= 0.12E-01
 bond charge predicted
 prediction of wavefunctions
       N       E                     dE             d eps       ncg     rms          rms(c)
DAV:   1    -0.102663044667E+03   -0.12851E+00   -0.95291E-03   180   0.268E-01    0.156E-02
RMM:   2    -0.102663236752E+03   -0.19209E-03   -0.20358E-03   120   0.132E-01    0.103E-02
RMM:   3    -0.102663256832E+03   -0.20080E-04   -0.22960E-04    80   0.454E-02
    686 T=   667. E= -.89322402E+02 F= -.10266326E+03 E0= -.10267066E+03  EK= 0.45678E+01 SP= 0.88E+01 SK= 0.17E-01
 bond charge predicted
 prediction of wavefunctions
       N       E                     dE             d eps       ncg     rms          rms(c)
DAV:   1    -0.102781986997E+03   -0.11875E+00   -0.86900E-03   156   0.236E-01    0.108E-02
RMM:   2    -0.102782064301E+03   -0.77305E-04   -0.83362E-04   120   0.880E-02
    687 T=   673. E= -.89322226E+02 F= -.10278206E+03 E0= -.10278937E+03  EK= 0.46133E+01 SP= 0.88E+01 SK= 0.25E-01
 bond charge predicted
 prediction of wavefunctions
       N       E                     dE             d eps       ncg     rms          rms(c)
DAV:   1    -0.102883115471E+03   -0.10113E+00   -0.88072E-03   168   0.273E-01    0.154E-02
RMM:   2    -0.102883309809E+03   -0.19434E-03   -0.20599E-03   120   0.133E-01    0.950E-03
RMM:   3    -0.102883329693E+03   -0.19884E-04   -0.21391E-04    77   0.440E-02
    688 T=   675. E= -.89321909E+02 F= -.10288333E+03 E0= -.10289055E+03  EK= 0.46268E+01 SP= 0.89E+01 SK= 0.35E-01
 bond charge predicted
 prediction of wavefunctions
       N       E                     dE             d eps       ncg     rms          rms(c)
DAV:   1    -0.102961193494E+03   -0.77884E-01   -0.76707E-03   168   0.235E-01    0.109E-02
RMM:   2    -0.102961259218E+03   -0.65724E-04   -0.71886E-04   120   0.829E-02
    689 T=   672. E= -.89321353E+02 F= -.10296126E+03 E0= -.10296844E+03  EK= 0.46027E+01 SP= 0.90E+01 SK= 0.47E-01
 bond charge predicted
 prediction of wavefunctions
       N       E                     dE             d eps       ncg     rms          rms(c)
DAV:   1    -0.103012045480E+03   -0.50852E-01   -0.78440E-03   144   0.269E-01    0.137E-02
RMM:   2    -0.103012222018E+03   -0.17654E-03   -0.18627E-03   120   0.129E-01    0.851E-03
RMM:   3    -0.103012242077E+03   -0.20059E-04   -0.21411E-04    76   0.446E-02
    690 T=   663. E= -.89320723E+02 F= -.10301224E+03 E0= -.10301942E+03  EK= 0.45390E+01 SP= 0.91E+01 SK= 0.59E-01
 bond charge predicted
 prediction of wavefunctions
       N       E                     dE             d eps       ncg     rms          rms(c)
DAV:   1    -0.103034708806E+03   -0.22487E-01   -0.68795E-03   180   0.234E-01    0.105E-02
RMM:   2    -0.103034784952E+03   -0.76146E-04   -0.82349E-04   120   0.846E-02
    691 T=   648. E= -.89319790E+02 F= -.10303478E+03 E0= -.10304201E+03  EK= 0.44375E+01 SP= 0.92E+01 SK= 0.70E-01
 bond charge predicted
 prediction of wavefunctions
       N       E                     dE             d eps       ncg     rms          rms(c)
DAV:   1    -0.103031006445E+03    0.37024E-02   -0.72090E-03   192   0.263E-01    0.132E-02
RMM:   2    -0.103031187779E+03   -0.18133E-03   -0.19013E-03   120   0.126E-01    0.853E-03
RMM:   3    -0.103031208735E+03   -0.20956E-04   -0.22289E-04    77   0.449E-02
    692 T=   628. E= -.89318630E+02 F= -.10303121E+03 E0= -.10303849E+03  EK= 0.43046E+01 SP= 0.93E+01 SK= 0.78E-01
 bond charge predicted
 prediction of wavefunctions
       N       E                     dE             d eps       ncg     rms          rms(c)
DAV:   1    -0.103006720744E+03    0.24467E-01   -0.59862E-03   132   0.228E-01    0.948E-03
RMM:   2    -0.103006790093E+03   -0.69349E-04   -0.74476E-04   120   0.818E-02
    693 T=   606. E= -.89317491E+02 F= -.10300679E+03 E0= -.10301413E+03  EK= 0.41500E+01 SP= 0.95E+01 SK= 0.82E-01
 bond charge predicted
 prediction of wavefunctions
       N       E                     dE             d eps       ncg     rms          rms(c)
DAV:   1    -0.102968063451E+03    0.38657E-01   -0.63300E-03   192   0.256E-01    0.126E-02
RMM:   2    -0.102968228512E+03   -0.16506E-03   -0.17348E-03   120   0.122E-01    0.797E-03
RMM:   3    -0.102968246714E+03   -0.18202E-04   -0.19118E-04    72   0.417E-02
    694 T=   582. E= -.89316429E+02 F= -.10296825E+03 E0= -.10297561E+03  EK= 0.39852E+01 SP= 0.96E+01 SK= 0.81E-01
 bond charge predicted
 prediction of wavefunctions
       N       E                     dE             d eps       ncg     rms          rms(c)
DAV:   1    -0.102923358727E+03    0.44870E-01   -0.53817E-03   132   0.219E-01    0.897E-03
RMM:   2    -0.102923421911E+03   -0.63184E-04   -0.67960E-04   120   0.772E-02
    695 T=   558. E= -.89315472E+02 F= -.10292342E+03 E0= -.10293076E+03  EK= 0.38220E+01 SP= 0.97E+01 SK= 0.75E-01
 bond charge predicted
 prediction of wavefunctions
       N       E                     dE             d eps       ncg     rms          rms(c)
DAV:   1    -0.102880059833E+03    0.43299E-01   -0.58266E-03   180   0.243E-01    0.123E-02
RMM:   2    -0.102880205466E+03   -0.14563E-03   -0.15312E-03   120   0.114E-01    0.809E-03
RMM:   3    -0.102880222937E+03   -0.17471E-04   -0.19069E-04    73   0.411E-02
    696 T=   536. E= -.89314739E+02 F= -.10288022E+03 E0= -.10288748E+03  EK= 0.36713E+01 SP= 0.98E+01 SK= 0.64E-01
 bond charge predicted
 prediction of wavefunctions
       N       E                     dE             d eps       ncg     rms          rms(c)
DAV:   1    -0.102845329251E+03    0.34876E-01   -0.52045E-03   144   0.213E-01    0.846E-03
RMM:   2    -0.102845391276E+03   -0.62026E-04   -0.65954E-04   120   0.756E-02
    697 T=   517. E= -.89314086E+02 F= -.10284539E+03 E0= -.10285254E+03  EK= 0.35423E+01 SP= 0.99E+01 SK= 0.51E-01
 bond charge predicted
 prediction of wavefunctions
       N       E                     dE             d eps       ncg     rms          rms(c)
DAV:   1    -0.102824459493E+03    0.20870E-01   -0.54969E-03   192   0.236E-01    0.133E-02
RMM:   2    -0.102824593446E+03   -0.13395E-03   -0.14293E-03   120   0.110E-01    0.812E-03
RMM:   3    -0.102824609889E+03   -0.16442E-04   -0.18194E-04    71   0.404E-02
    698 T=   502. E= -.89313647E+02 F= -.10282461E+03 E0= -.10283165E+03  EK= 0.34420E+01 SP= 0.10E+02 SK= 0.37E-01
 bond charge predicted
 prediction of wavefunctions
       N       E                     dE             d eps       ncg     rms          rms(c)
DAV:   1    -0.102820976705E+03    0.36167E-02   -0.50933E-03   156   0.211E-01    0.978E-03
RMM:   2    -0.102821034413E+03   -0.57708E-04   -0.63079E-04   120   0.747E-02
    699 T=   493. E= -.89313258E+02 F= -.10282103E+03 E0= -.10282800E+03  EK= 0.33742E+01 SP= 0.10E+02 SK= 0.24E-01
 bond charge predicted
 prediction of wavefunctions
       N       E                     dE             d eps       ncg     rms          rms(c)
DAV:   1    -0.102835810741E+03   -0.14834E-01   -0.55082E-03   168   0.234E-01    0.127E-02
RMM:   2    -0.102835932967E+03   -0.12223E-03   -0.13059E-03   120   0.106E-01    0.829E-03
RMM:   3    -0.102835947135E+03   -0.14168E-04   -0.16612E-04    70   0.384E-02
    700 T=   488. E= -.89313166E+02 F= -.10283595E+03 E0= -.10284287E+03  EK= 0.33403E+01 SP= 0.10E+02 SK= 0.13E-01
 bond charge predicted
 prediction of wavefunctions
       N       E                     dE             d eps       ncg     rms          rms(c)
DAV:   1    -0.102867855370E+03   -0.31922E-01   -0.55310E-03   180   0.213E-01    0.980E-03
RMM:   2    -0.102867906868E+03   -0.51498E-04   -0.56700E-04   120   0.704E-02
    701 T=   487. E= -.89313183E+02 F= -.10286791E+03 E0= -.10287485E+03  EK= 0.33389E+01 SP= 0.10E+02 SK= 0.49E-02
 bond charge predicted
 prediction of wavefunctions
       N       E                     dE             d eps       ncg     rms          rms(c)
DAV:   1    -0.102913618382E+03   -0.45763E-01   -0.61102E-03   192   0.236E-01    0.128E-02
RMM:   2    -0.102913740628E+03   -0.12225E-03   -0.13059E-03   120   0.105E-01    0.774E-03
RMM:   3    -0.102913754339E+03   -0.13712E-04   -0.15580E-04    66   0.374E-02
    702 T=   491. E= -.89313222E+02 F= -.10291375E+03 E0= -.10292081E+03  EK= 0.33665E+01 SP= 0.10E+02 SK= 0.82E-03
 bond charge predicted
 prediction of wavefunctions
       N       E                     dE             d eps       ncg     rms          rms(c)
DAV:   1    -0.102968885497E+03   -0.55145E-01   -0.61766E-03   156   0.220E-01    0.991E-03
RMM:   2    -0.102968944443E+03   -0.58946E-04   -0.64430E-04   120   0.740E-02
    703 T=   499. E= -.89313316E+02 F= -.10296894E+03 E0= -.10297621E+03  EK= 0.34183E+01 SP= 0.10E+02 SK= 0.11E-03
 bond charge predicted
 prediction of wavefunctions
       N       E                     dE             d eps       ncg     rms          rms(c)
DAV:   1    -0.103027667689E+03   -0.58782E-01   -0.70273E-03   168   0.245E-01    0.121E-02
RMM:   2    -0.103027802424E+03   -0.13474E-03   -0.14210E-03   120   0.109E-01    0.809E-03
RMM:   3    -0.103027817793E+03   -0.15369E-04   -0.17477E-04    69   0.391E-02
    704 T=   509. E= -.89313416E+02 F= -.10302782E+03 E0= -.10303539E+03  EK= 0.34878E+01 SP= 0.10E+02 SK= 0.22E-02
 bond charge predicted
 prediction of wavefunctions
       N       E                     dE             d eps       ncg     rms          rms(c)
DAV:   1    -0.103084419853E+03   -0.56617E-01   -0.74023E-03   156   0.227E-01    0.947E-03
RMM:   2    -0.103084478988E+03   -0.59135E-04   -0.63951E-04   120   0.746E-02
    705 T=   521. E= -.89313520E+02 F= -.10308448E+03 E0= -.10309245E+03  EK= 0.35685E+01 SP= 0.10E+02 SK= 0.61E-02
 bond charge predicted
 prediction of wavefunctions
       N       E                     dE             d eps       ncg     rms          rms(c)
DAV:   1    -0.103133006334E+03   -0.48586E-01   -0.78882E-03   180   0.251E-01    0.131E-02
RMM:   2    -0.103133144846E+03   -0.13851E-03   -0.14664E-03   120   0.111E-01    0.813E-03
RMM:   3    -0.103133162445E+03   -0.17599E-04   -0.19742E-04    71   0.417E-02
    706 T=   533. E= -.89313575E+02 F= -.10313316E+03 E0= -.10314158E+03  EK= 0.36534E+01 SP= 0.10E+02 SK= 0.11E-01
 bond charge predicted
 prediction of wavefunctions
       N       E                     dE             d eps       ncg     rms          rms(c)
DAV:   1    -0.103168544260E+03   -0.35399E-01   -0.76172E-03   156   0.231E-01    0.981E-03
RMM:   2    -0.103168601198E+03   -0.56938E-04   -0.61891E-04   120   0.752E-02
    707 T=   545. E= -.89313432E+02 F= -.10316860E+03 E0= -.10317746E+03  EK= 0.37361E+01 SP= 0.10E+02 SK= 0.16E-01
 bond charge predicted
 prediction of wavefunctions
       N       E                     dE             d eps       ncg     rms          rms(c)
DAV:   1    -0.103187219682E+03   -0.18675E-01   -0.78259E-03   168   0.256E-01    0.122E-02
RMM:   2    -0.103187355550E+03   -0.13587E-03   -0.14394E-03   120   0.112E-01    0.786E-03
RMM:   3    -0.103187370701E+03   -0.15151E-04   -0.17054E-04    68   0.388E-02
    708 T=   556. E= -.89313165E+02 F= -.10318737E+03 E0= -.10319660E+03  EK= 0.38117E+01 SP= 0.10E+02 SK= 0.21E-01
 bond charge predicted
 prediction of wavefunctions
       N       E                     dE             d eps       ncg     rms          rms(c)
DAV:   1    -0.103187616384E+03   -0.26083E-03   -0.73512E-03   180   0.235E-01    0.100E-02
RMM:   2    -0.103187674571E+03   -0.58187E-04   -0.63552E-04   120   0.760E-02
    709 T=   566. E= -.89313012E+02 F= -.10318767E+03 E0= -.10319714E+03  EK= 0.38765E+01 SP= 0.10E+02 SK= 0.25E-01
 bond charge predicted
 prediction of wavefunctions
       N       E                     dE             d eps       ncg     rms          rms(c)
DAV:   1    -0.103168169189E+03    0.19447E-01   -0.73896E-03   192   0.261E-01    0.122E-02
RMM:   2    -0.103168316260E+03   -0.14707E-03   -0.15418E-03   120   0.117E-01    0.806E-03
RMM:   3    -0.103168333044E+03   -0.16784E-04   -0.19113E-04    71   0.419E-02
    710 T=   573. E= -.89312736E+02 F= -.10316833E+03 E0= -.10317787E+03  EK= 0.39282E+01 SP= 0.99E+01 SK= 0.29E-01
 bond charge predicted
 prediction of wavefunctions
       N       E                     dE             d eps       ncg     rms          rms(c)
DAV:   1    -0.103130087870E+03    0.38228E-01   -0.63712E-03   156   0.236E-01    0.898E-03
RMM:   2    -0.103130150917E+03   -0.63047E-04   -0.67436E-04   120   0.782E-02
    711 T=   579. E= -.89312189E+02 F= -.10313015E+03 E0= -.10313962E+03  EK= 0.39662E+01 SP= 0.98E+01 SK= 0.32E-01
 bond charge predicted
 prediction of wavefunctions
       N       E                     dE             d eps       ncg     rms          rms(c)
DAV:   1    -0.103075441857E+03    0.54646E-01   -0.65061E-03   144   0.262E-01    0.122E-02
RMM:   2    -0.103075588287E+03   -0.14643E-03   -0.15400E-03   120   0.117E-01    0.763E-03
RMM:   3    -0.103075605137E+03   -0.16849E-04   -0.18613E-04    76   0.407E-02
    712 T=   583. E= -.89311708E+02 F= -.10307561E+03 E0= -.10308494E+03  EK= 0.39917E+01 SP= 0.97E+01 SK= 0.34E-01
 bond charge predicted
 prediction of wavefunctions
       N       E                     dE             d eps       ncg     rms          rms(c)
DAV:   1    -0.103007328392E+03    0.68260E-01   -0.57966E-03   156   0.235E-01    0.838E-03
RMM:   2    -0.103007391632E+03   -0.63240E-04   -0.66935E-04   120   0.794E-02
    713 T=   585. E= -.89311193E+02 F= -.10300739E+03 E0= -.10301659E+03  EK= 0.40067E+01 SP= 0.97E+01 SK= 0.37E-01
 bond charge predicted
 prediction of wavefunctions
       N       E                     dE             d eps       ncg     rms          rms(c)
DAV:   1    -0.102928648392E+03    0.78680E-01   -0.63162E-03   180   0.259E-01    0.133E-02
RMM:   2    -0.102928793620E+03   -0.14523E-03   -0.15407E-03   120   0.119E-01    0.837E-03
RMM:   3    -0.102928810029E+03   -0.16409E-04   -0.18654E-04    71   0.414E-02
    714 T=   586. E= -.89310717E+02 F= -.10292881E+03 E0= -.10293791E+03  EK= 0.40139E+01 SP= 0.96E+01 SK= 0.38E-01
 bond charge predicted
 prediction of wavefunctions
       N       E                     dE             d eps       ncg     rms          rms(c)
DAV:   1    -0.102842951966E+03    0.85842E-01   -0.59676E-03   132   0.227E-01    0.896E-03
RMM:   2    -0.102843015274E+03   -0.63308E-04   -0.67343E-04   120   0.791E-02
    715 T=   586. E= -.89310114E+02 F= -.10284302E+03 E0= -.10285195E+03  EK= 0.40162E+01 SP= 0.95E+01 SK= 0.40E-01
 bond charge predicted
 prediction of wavefunctions
       N       E                     dE             d eps       ncg     rms          rms(c)
DAV:   1    -0.102753465886E+03    0.89486E-01   -0.64212E-03   192   0.255E-01    0.147E-02
RMM:   2    -0.102753619031E+03   -0.15314E-03   -0.16555E-03   120   0.122E-01    0.880E-03
RMM:   3    -0.102753635948E+03   -0.16917E-04   -0.19796E-04    70   0.425E-02
    716 T=   586. E= -.89309594E+02 F= -.10275364E+03 E0= -.10276220E+03  EK= 0.40169E+01 SP= 0.94E+01 SK= 0.42E-01
 bond charge predicted
 prediction of wavefunctions
       N       E                     dE             d eps       ncg     rms          rms(c)
DAV:   1    -0.102663176034E+03    0.90443E-01   -0.54489E-03   168   0.223E-01    0.111E-02
RMM:   2    -0.102663237541E+03   -0.61507E-04   -0.68589E-04   120   0.792E-02
    717 T=   587. E= -.89309273E+02 F= -.10266324E+03 E0= -.10267121E+03  EK= 0.40186E+01 SP= 0.93E+01 SK= 0.44E-01
 bond charge predicted
 prediction of wavefunctions
       N       E                     dE             d eps       ncg     rms          rms(c)
DAV:   1    -0.102572558201E+03    0.90618E-01   -0.52908E-03   144   0.251E-01    0.140E-02
RMM:   2    -0.102572718337E+03   -0.16014E-03   -0.17197E-03   120   0.121E-01    0.851E-03
RMM:   3    -0.102572737135E+03   -0.18798E-04   -0.21315E-04    80   0.439E-02
    718 T=   587. E= -.89308784E+02 F= -.10257274E+03 E0= -.10258010E+03  EK= 0.40223E+01 SP= 0.92E+01 SK= 0.46E-01
 bond charge predicted
 prediction of wavefunctions
       N       E                     dE             d eps       ncg     rms          rms(c)
DAV:   1    -0.102483081950E+03    0.89636E-01   -0.42821E-03   144   0.219E-01    0.101E-02
RMM:   2    -0.102483152548E+03   -0.70598E-04   -0.76236E-04   120   0.848E-02
    719 T=   588. E= -.89308165E+02 F= -.10248315E+03 E0= -.10249000E+03  EK= 0.40292E+01 SP= 0.91E+01 SK= 0.48E-01
 bond charge predicted
 prediction of wavefunctions
       N       E                     dE             d eps       ncg     rms          rms(c)
DAV:   1    -0.102395418111E+03    0.87664E-01   -0.51961E-03   144   0.249E-01    0.118E-02
RMM:   2    -0.102395580843E+03   -0.16273E-03   -0.17019E-03   120   0.120E-01    0.752E-03
RMM:   3    -0.102395597453E+03   -0.16610E-04   -0.17361E-04    74   0.393E-02
    720 T=   590. E= -.89307708E+02 F= -.10239560E+03 E0= -.10240209E+03  EK= 0.40400E+01 SP= 0.90E+01 SK= 0.50E-01
 bond charge predicted
 prediction of wavefunctions
       N       E                     dE             d eps       ncg     rms          rms(c)
DAV:   1    -0.102310731002E+03    0.84850E-01   -0.47590E-03   168   0.214E-01    0.821E-03
RMM:   2    -0.102310795859E+03   -0.64858E-04   -0.69023E-04   120   0.792E-02
    721 T=   592. E= -.89307412E+02 F= -.10231080E+03 E0= -.10231706E+03  EK= 0.40551E+01 SP= 0.89E+01 SK= 0.51E-01
 bond charge predicted
 prediction of wavefunctions
       N       E                     dE             d eps       ncg     rms          rms(c)
DAV:   1    -0.102228914223E+03    0.81817E-01   -0.53863E-03   192   0.248E-01    0.124E-02
RMM:   2    -0.102229078067E+03   -0.16384E-03   -0.17204E-03   120   0.121E-01    0.802E-03
RMM:   3    -0.102229096774E+03   -0.18706E-04   -0.19853E-04    69   0.427E-02
    722 T=   595. E= -.89307133E+02 F= -.10222910E+03 E0= -.10223521E+03  EK= 0.40749E+01 SP= 0.88E+01 SK= 0.52E-01
 bond charge predicted
 prediction of wavefunctions
       N       E                     dE             d eps       ncg     rms          rms(c)
DAV:   1    -0.102151271092E+03    0.77807E-01   -0.47812E-03   144   0.215E-01    0.768E-03
RMM:   2    -0.102151335164E+03   -0.64072E-04   -0.67381E-04   120   0.783E-02
    723 T=   598. E= -.89306731E+02 F= -.10215134E+03 E0= -.10215735E+03  EK= 0.41000E+01 SP= 0.87E+01 SK= 0.52E-01
 bond charge predicted
 prediction of wavefunctions
       N       E                     dE             d eps       ncg     rms          rms(c)
DAV:   1    -0.102078697627E+03    0.72573E-01   -0.52006E-03   192   0.247E-01    0.128E-02
RMM:   2    -0.102078858027E+03   -0.16040E-03   -0.16854E-03   120   0.120E-01    0.828E-03
RMM:   3    -0.102078875719E+03   -0.17692E-04   -0.19058E-04    66   0.419E-02
    724 T=   603. E= -.89306312E+02 F= -.10207888E+03 E0= -.10208486E+03  EK= 0.41311E+01 SP= 0.86E+01 SK= 0.52E-01
 bond charge predicted
 prediction of wavefunctions
       N       E                     dE             d eps       ncg     rms          rms(c)
DAV:   1    -0.102013044250E+03    0.65814E-01   -0.43503E-03   180   0.217E-01    0.784E-03
RMM:   2    -0.102013107998E+03   -0.63747E-04   -0.67289E-04   120   0.797E-02
    725 T=   609. E= -.89305929E+02 F= -.10201311E+03 E0= -.10201913E+03  EK= 0.41690E+01 SP= 0.85E+01 SK= 0.51E-01
 bond charge predicted
 prediction of wavefunctions
       N       E                     dE             d eps       ncg     rms          rms(c)
DAV:   1    -0.101954558654E+03    0.58486E-01   -0.47059E-03   144   0.253E-01    0.136E-02
RMM:   2    -0.101954720579E+03   -0.16192E-03   -0.17252E-03   120   0.121E-01    0.847E-03
RMM:   3    -0.101954739026E+03   -0.18448E-04   -0.20064E-04    71   0.427E-02
    726 T=   615. E= -.89305558E+02 F= -.10195474E+03 E0= -.10196090E+03  EK= 0.42137E+01 SP= 0.84E+01 SK= 0.49E-01
 bond charge predicted
 prediction of wavefunctions
       N       E                     dE             d eps       ncg     rms          rms(c)
DAV:   1    -0.101903869952E+03    0.50851E-01   -0.38805E-03   132   0.221E-01    0.869E-03
RMM:   2    -0.101903930895E+03   -0.60943E-04   -0.65603E-04   120   0.780E-02
    727 T=   622. E= -.89305153E+02 F= -.10190393E+03 E0= -.10191034E+03  EK= 0.42642E+01 SP= 0.83E+01 SK= 0.45E-01
 bond charge predicted
 prediction of wavefunctions
       N       E                     dE             d eps       ncg     rms          rms(c)
DAV:   1    -0.101860916499E+03    0.42953E-01   -0.45639E-03   192   0.254E-01    0.138E-02
RMM:   2    -0.101861065869E+03   -0.14937E-03   -0.15933E-03   120   0.119E-01    0.853E-03
RMM:   3    -0.101861082666E+03   -0.16797E-04   -0.18496E-04    66   0.416E-02
    728 T=   631. E= -.89304871E+02 F= -.10186108E+03 E0= -.10186786E+03  EK= 0.43196E+01 SP= 0.82E+01 SK= 0.41E-01
 bond charge predicted
 prediction of wavefunctions
       N       E                     dE             d eps       ncg     rms          rms(c)
DAV:   1    -0.101825659092E+03    0.35407E-01   -0.43059E-03   156   0.229E-01    0.901E-03
RMM:   2    -0.101825727253E+03   -0.68160E-04   -0.73174E-04   120   0.822E-02
    729 T=   639. E= -.89304502E+02 F= -.10182573E+03 E0= -.10183299E+03  EK= 0.43782E+01 SP= 0.81E+01 SK= 0.36E-01
 bond charge predicted
 prediction of wavefunctions
       N       E                     dE             d eps       ncg     rms          rms(c)
DAV:   1    -0.101796827529E+03    0.28832E-01   -0.55516E-03   168   0.265E-01    0.142E-02
RMM:   2    -0.101796995320E+03   -0.16779E-03   -0.17871E-03   120   0.124E-01    0.877E-03
RMM:   3    -0.101797013972E+03   -0.18653E-04   -0.20391E-04    77   0.431E-02
    730 T=   648. E= -.89304202E+02 F= -.10179701E+03 E0= -.10180487E+03  EK= 0.44373E+01 SP= 0.80E+01 SK= 0.30E-01
 bond charge predicted
 prediction of wavefunctions
       N       E                     dE             d eps       ncg     rms          rms(c)
DAV:   1    -0.101773569811E+03    0.23426E-01   -0.58877E-03   168   0.235E-01    0.983E-03
RMM:   2    -0.101773632061E+03   -0.62250E-04   -0.68485E-04   120   0.800E-02
    731 T=   656. E= -.89303917E+02 F= -.10177363E+03 E0= -.10178216E+03  EK= 0.44939E+01 SP= 0.80E+01 SK= 0.23E-01
 bond charge predicted
 prediction of wavefunctions
       N       E                     dE             d eps       ncg     rms          rms(c)
DAV:   1    -0.101753735250E+03    0.19835E-01   -0.73420E-03   168   0.267E-01    0.136E-02
RMM:   2    -0.101753894538E+03   -0.15929E-03   -0.16917E-03   120   0.122E-01    0.840E-03
RMM:   3    -0.101753911728E+03   -0.17190E-04   -0.18564E-04    71   0.411E-02
    732 T=   663. E= -.89303792E+02 F= -.10175391E+03 E0= -.10176313E+03  EK= 0.45442E+01 SP= 0.79E+01 SK= 0.17E-01
 bond charge predicted
 prediction of wavefunctions
       N       E                     dE             d eps       ncg     rms          rms(c)
DAV:   1    -0.101735130527E+03    0.18764E-01   -0.77489E-03   132   0.241E-01    0.930E-03
RMM:   2    -0.101735198508E+03   -0.67981E-04   -0.73226E-04   120   0.809E-02
    733 T=   669. E= -.89303566E+02 F= -.10173520E+03 E0= -.10174501E+03  EK= 0.45843E+01 SP= 0.78E+01 SK= 0.11E-01
 bond charge predicted
 prediction of wavefunctions
       N       E                     dE             d eps       ncg     rms          rms(c)
DAV:   1    -0.101714562674E+03    0.20568E-01   -0.89684E-03   168   0.275E-01    0.141E-02
RMM:   2    -0.101714740577E+03   -0.17790E-03   -0.18767E-03   120   0.125E-01    0.896E-03
RMM:   3    -0.101714761189E+03   -0.20612E-04   -0.22308E-04    81   0.439E-02
    734 T=   673. E= -.89303120E+02 F= -.10171476E+03 E0= -.10172493E+03  EK= 0.46099E+01 SP= 0.78E+01 SK= 0.59E-02
 bond charge predicted
 prediction of wavefunctions
       N       E                     dE             d eps       ncg     rms          rms(c)
DAV:   1    -0.101690006836E+03    0.24734E-01   -0.85561E-03   144   0.249E-01    0.950E-03
RMM:   2    -0.101690076711E+03   -0.69875E-04   -0.75066E-04   120   0.826E-02
    735 T=   674. E= -.89302803E+02 F= -.10169008E+03 E0= -.10170027E+03  EK= 0.46172E+01 SP= 0.78E+01 SK= 0.23E-02
 bond charge predicted
 prediction of wavefunctions
       N       E                     dE             d eps       ncg     rms          rms(c)
DAV:   1    -0.101658187083E+03    0.31820E-01   -0.86202E-03   168   0.277E-01    0.143E-02
RMM:   2    -0.101658348593E+03   -0.16151E-03   -0.17159E-03   120   0.124E-01    0.923E-03
RMM:   3    -0.101658365353E+03   -0.16760E-04   -0.19117E-04    75   0.418E-02
    736 T=   672. E= -.89302415E+02 F= -.10165837E+03 E0= -.10166832E+03  EK= 0.46032E+01 SP= 0.78E+01 SK= 0.41E-03
 bond charge predicted
 prediction of wavefunctions
       N       E                     dE             d eps       ncg     rms          rms(c)
DAV:   1    -0.101617891606E+03    0.40457E-01   -0.76488E-03   180   0.248E-01    0.933E-03
RMM:   2    -0.101617956162E+03   -0.64557E-04   -0.69517E-04   120   0.788E-02
    737 T=   667. E= -.89302163E+02 F= -.10161796E+03 E0= -.10162748E+03  EK= 0.45665E+01 SP= 0.77E+01 SK= 0.43E-04
 bond charge predicted
 prediction of wavefunctions
       N       E                     dE             d eps       ncg     rms          rms(c)
DAV:   1    -0.101567181203E+03    0.50710E-01   -0.77219E-03   168   0.275E-01    0.146E-02
RMM:   2    -0.101567347952E+03   -0.16675E-03   -0.17873E-03   120   0.123E-01    0.903E-03
RMM:   3    -0.101567366537E+03   -0.18585E-04   -0.21053E-04    76   0.432E-02
    738 T=   658. E= -.89301662E+02 F= -.10156737E+03 E0= -.10157634E+03  EK= 0.45071E+01 SP= 0.78E+01 SK= 0.94E-03
 bond charge predicted
 prediction of wavefunctions
       N       E                     dE             d eps       ncg     rms          rms(c)
DAV:   1    -0.101506987330E+03    0.60361E-01   -0.67393E-03   132   0.244E-01    0.993E-03
RMM:   2    -0.101507055186E+03   -0.67855E-04   -0.72961E-04   120   0.807E-02
    739 T=   646. E= -.89301060E+02 F= -.10150706E+03 E0= -.10151547E+03  EK= 0.44274E+01 SP= 0.78E+01 SK= 0.26E-02
 bond charge predicted
 prediction of wavefunctions
       N       E                     dE             d eps       ncg     rms          rms(c)
DAV:   1    -0.101438742608E+03    0.68245E-01   -0.76304E-03   168   0.269E-01    0.136E-02
RMM:   2    -0.101438906454E+03   -0.16385E-03   -0.17220E-03   120   0.121E-01    0.893E-03
RMM:   3    -0.101438924906E+03   -0.18452E-04   -0.20484E-04    77   0.425E-02
    740 T=   632. E= -.89300331E+02 F= -.10143892E+03 E0= -.10144683E+03  EK= 0.43318E+01 SP= 0.78E+01 SK= 0.44E-02
 bond charge predicted
 prediction of wavefunctions
       N       E                     dE             d eps       ncg     rms          rms(c)
DAV:   1    -0.101365664255E+03    0.73242E-01   -0.83088E-03   120   0.236E-01    0.970E-03
RMM:   2    -0.101365729880E+03   -0.65625E-04   -0.69583E-04   120   0.785E-02
    741 T=   617. E= -.89299481E+02 F= -.10136573E+03 E0= -.10137322E+03  EK= 0.42260E+01 SP= 0.78E+01 SK= 0.58E-02
 bond charge predicted
 prediction of wavefunctions
       N       E                     dE             d eps       ncg     rms          rms(c)
DAV:   1    -0.101291640914E+03    0.74023E-01   -0.88388E-03   192   0.261E-01    0.147E-02
RMM:   2    -0.101291797658E+03   -0.15674E-03   -0.16764E-03   120   0.119E-01    0.893E-03
RMM:   3    -0.101291814380E+03   -0.16722E-04   -0.19118E-04    75   0.410E-02
    742 T=   601. E= -.89298734E+02 F= -.10129181E+03 E0= -.10129897E+03  EK= 0.41172E+01 SP= 0.79E+01 SK= 0.64E-02
 bond charge predicted
 prediction of wavefunctions
       N       E                     dE             d eps       ncg     rms          rms(c)
DAV:   1    -0.101222262814E+03    0.69535E-01   -0.78615E-03   180   0.227E-01    0.984E-03
RMM:   2    -0.101222326997E+03   -0.64183E-04   -0.69706E-04   120   0.773E-02
    743 T=   586. E= -.89297885E+02 F= -.10122233E+03 E0= -.10122917E+03  EK= 0.40134E+01 SP= 0.79E+01 SK= 0.60E-02
 bond charge predicted
 prediction of wavefunctions
       N       E                     dE             d eps       ncg     rms          rms(c)
DAV:   1    -0.101162875697E+03    0.59387E-01   -0.83648E-03   168   0.253E-01    0.150E-02
RMM:   2    -0.101163032027E+03   -0.15633E-03   -0.17041E-03   120   0.118E-01    0.932E-03
RMM:   3    -0.101163049117E+03   -0.17090E-04   -0.20721E-04    78   0.418E-02
    744 T=   573. E= -.89297085E+02 F= -.10116305E+03 E0= -.10116952E+03  EK= 0.39227E+01 SP= 0.79E+01 SK= 0.49E-02
 bond charge predicted
 prediction of wavefunctions
       N       E                     dE             d eps       ncg     rms          rms(c)
DAV:   1    -0.101119545676E+03    0.43486E-01   -0.79621E-03   228   0.222E-01    0.102E-02
RMM:   2    -0.101119620638E+03   -0.74962E-04   -0.79916E-04   120   0.794E-02
    745 T=   562. E= -.89296389E+02 F= -.10111962E+03 E0= -.10112549E+03  EK= 0.38526E+01 SP= 0.80E+01 SK= 0.34E-02
 bond charge predicted
 prediction of wavefunctions
       N       E                     dE             d eps       ncg     rms          rms(c)
DAV:   1    -0.101096758013E+03    0.22788E-01   -0.92033E-03   204   0.251E-01    0.160E-02
RMM:   2    -0.101096924150E+03   -0.16614E-03   -0.17935E-03   120   0.123E-01    0.982E-03
RMM:   3    -0.101096939091E+03   -0.14941E-04   -0.17745E-04    72   0.409E-02
    746 T=   556. E= -.89295789E+02 F= -.10109694E+03 E0= -.10110184E+03  EK= 0.38092E+01 SP= 0.80E+01 SK= 0.19E-02
 bond charge predicted
 prediction of wavefunctions
       N       E                     dE             d eps       ncg     rms          rms(c)
DAV:   1    -0.101099017684E+03   -0.20935E-02   -0.83874E-03   192   0.226E-01    0.157E-02
RMM:   2    -0.101099096492E+03   -0.78808E-04   -0.99441E-04   120   0.832E-02
    747 T=   554. E= -.89295394E+02 F= -.10109910E+03 E0= -.10110295E+03  EK= 0.37973E+01 SP= 0.80E+01 SK= 0.69E-03
 bond charge predicted
 prediction of wavefunctions
       N       E                     dE             d eps       ncg     rms          rms(c)
DAV:   1    -0.101128314203E+03   -0.29297E-01   -0.97403E-03   180   0.261E-01    0.215E-02
RMM:   2    -0.101128501456E+03   -0.18725E-03   -0.22492E-03   120   0.130E-01    0.123E-02
RMM:   3    -0.101128515324E+03   -0.13868E-04   -0.20629E-04    83   0.428E-02
    748 T=   558. E= -.89295161E+02 F= -.10112852E+03 E0= -.10113175E+03  EK= 0.38195E+01 SP= 0.80E+01 SK= 0.96E-04
 bond charge predicted
 prediction of wavefunctions
       N       E                     dE             d eps       ncg     rms          rms(c)
DAV:   1    -0.101184980455E+03   -0.56479E-01   -0.82442E-03   204   0.222E-01    0.116E-02
RMM:   2    -0.101185060058E+03   -0.79603E-04   -0.89301E-04   120   0.834E-02
    749 T=   566. E= -.89294996E+02 F= -.10118506E+03 E0= -.10118795E+03  EK= 0.38751E+01 SP= 0.80E+01 SK= 0.21E-04
 bond charge predicted
 prediction of wavefunctions
       N       E                     dE             d eps       ncg     rms          rms(c)
DAV:   1    -0.101266193357E+03   -0.81213E-01   -0.88416E-03   204   0.256E-01    0.149E-02
RMM:   2    -0.101266386468E+03   -0.19311E-03   -0.20555E-03   120   0.128E-01    0.832E-03
RMM:   3    -0.101266407342E+03   -0.20874E-04   -0.20929E-04    80   0.436E-02
    750 T=   578. E= -.89295102E+02 F= -.10126641E+03 E0= -.10126909E+03  EK= 0.39605E+01 SP= 0.80E+01 SK= 0.22E-03
 bond charge predicted
 prediction of wavefunctions
       N       E                     dE             d eps       ncg     rms          rms(c)
DAV:   1    -0.101367023628E+03   -0.10064E+00   -0.82364E-03   204   0.223E-01    0.895E-03
RMM:   2    -0.101367104051E+03   -0.80423E-04   -0.86061E-04   120   0.833E-02
    751 T=   594. E= -.89295257E+02 F= -.10136710E+03 E0= -.10136972E+03  EK= 0.40687E+01 SP= 0.80E+01 SK= 0.40E-03
 bond charge predicted
 prediction of wavefunctions
       N       E                     dE             d eps       ncg     rms          rms(c)
DAV:   1    -0.101479789657E+03   -0.11277E+00   -0.82474E-03   168   0.256E-01    0.122E-02
RMM:   2    -0.101479976225E+03   -0.18657E-03   -0.19323E-03   120   0.125E-01    0.835E-03
RMM:   3    -0.101479995192E+03   -0.18966E-04   -0.19703E-04    74   0.417E-02
    752 T=   612. E= -.89295523E+02 F= -.10148000E+03 E0= -.10148265E+03  EK= 0.41900E+01 SP= 0.80E+01 SK= 0.34E-03
 bond charge predicted
 prediction of wavefunctions
       N       E                     dE             d eps       ncg     rms          rms(c)
DAV:   1    -0.101596840744E+03   -0.11686E+00   -0.71641E-03   192   0.225E-01    0.731E-03
RMM:   2    -0.101596918883E+03   -0.78138E-04   -0.81076E-04   120   0.824E-02
    753 T=   630. E= -.89295857E+02 F= -.10159692E+03 E0= -.10159970E+03  EK= 0.43133E+01 SP= 0.80E+01 SK= 0.11E-03
 bond charge predicted
 prediction of wavefunctions
       N       E                     dE             d eps       ncg     rms          rms(c)
DAV:   1    -0.101708787379E+03   -0.11195E+00   -0.73449E-03   192   0.263E-01    0.142E-02
RMM:   2    -0.101708984533E+03   -0.19715E-03   -0.20770E-03   120   0.131E-01    0.864E-03
RMM:   3    -0.101709007814E+03   -0.23281E-04   -0.24145E-04    83   0.465E-02
    754 T=   646. E= -.89295828E+02 F= -.10170901E+03 E0= -.10171203E+03  EK= 0.44268E+01 SP= 0.80E+01 SK= 0.21E-04
 bond charge predicted
 prediction of wavefunctions
       N       E                     dE             d eps       ncg     rms          rms(c)
DAV:   1    -0.101808791713E+03   -0.99807E-01   -0.63813E-03   168   0.228E-01    0.836E-03
RMM:   2    -0.101808879168E+03   -0.87455E-04   -0.92048E-04   120   0.855E-02
    755 T=   660. E= -.89295645E+02 F= -.10180888E+03 E0= -.10181226E+03  EK= 0.45195E+01 SP= 0.80E+01 SK= 0.64E-03
 bond charge predicted
 prediction of wavefunctions
       N       E                     dE             d eps       ncg     rms          rms(c)
DAV:   1    -0.101890782180E+03   -0.81990E-01   -0.76709E-03   204   0.268E-01    0.135E-02
RMM:   2    -0.101890978932E+03   -0.19675E-03   -0.20718E-03   120   0.132E-01    0.866E-03
RMM:   3    -0.101890995467E+03   -0.16536E-04   -0.17221E-04    79   0.398E-02
    756 T=   669. E= -.89295444E+02 F= -.10189100E+03 E0= -.10189484E+03  EK= 0.45830E+01 SP= 0.80E+01 SK= 0.25E-02
 bond charge predicted
 prediction of wavefunctions
       N       E                     dE             d eps       ncg     rms          rms(c)
DAV:   1    -0.101951911493E+03   -0.60933E-01   -0.69829E-03   180   0.234E-01    0.924E-03
RMM:   2    -0.101952011634E+03   -0.10014E-03   -0.10521E-03   120   0.883E-02    0.653E-03
RMM:   3    -0.101952030205E+03   -0.18571E-04   -0.20368E-04    82   0.396E-02
    757 T=   673. E= -.89295193E+02 F= -.10195203E+03 E0= -.10195640E+03  EK= 0.46119E+01 SP= 0.80E+01 SK= 0.61E-02
 bond charge predicted
 prediction of wavefunctions
       N       E                     dE             d eps       ncg     rms          rms(c)
DAV:   1    -0.101991886449E+03   -0.39875E-01   -0.62554E-03   216   0.239E-01    0.901E-03
RMM:   2    -0.101991994229E+03   -0.10778E-03   -0.11153E-03   120   0.100E-01    0.566E-03
RMM:   3    -0.101992008223E+03   -0.13994E-04   -0.14409E-04    73   0.365E-02
    758 T=   672. E= -.89294628E+02 F= -.10199201E+03 E0= -.10199689E+03  EK= 0.46059E+01 SP= 0.81E+01 SK= 0.11E-01
 bond charge predicted
 prediction of wavefunctions
       N       E                     dE             d eps       ncg     rms          rms(c)
DAV:   1    -0.102013929815E+03   -0.21936E-01   -0.63851E-03   192   0.237E-01    0.735E-03
RMM:   2    -0.102014029999E+03   -0.10018E-03   -0.10324E-03   120   0.958E-02    0.517E-03
RMM:   3    -0.102014043584E+03   -0.13586E-04   -0.14001E-04    66   0.345E-02
    759 T=   667. E= -.89293950E+02 F= -.10201404E+03 E0= -.10201934E+03  EK= 0.45684E+01 SP= 0.81E+01 SK= 0.18E-01
 bond charge predicted
 prediction of wavefunctions
       N       E                     dE             d eps       ncg     rms          rms(c)
DAV:   1    -0.102022246482E+03   -0.82165E-02   -0.61926E-03   192   0.232E-01    0.699E-03
RMM:   2    -0.102022333920E+03   -0.87438E-04   -0.89280E-04   120   0.907E-02
    760 T=   658. E= -.89292877E+02 F= -.10202233E+03 E0= -.10202792E+03  EK= 0.45055E+01 SP= 0.82E+01 SK= 0.25E-01
 bond charge predicted
 prediction of wavefunctions
       N       E                     dE             d eps       ncg     rms          rms(c)
DAV:   1    -0.102022780739E+03   -0.53426E-03   -0.72464E-03   192   0.260E-01    0.828E-03
RMM:   2    -0.102022956912E+03   -0.17617E-03   -0.17800E-03   120   0.126E-01    0.630E-03
RMM:   3    -0.102022982187E+03   -0.25275E-04   -0.24180E-04    80   0.464E-02
    761 T=   646. E= -.89291627E+02 F= -.10202298E+03 E0= -.10202877E+03  EK= 0.44255E+01 SP= 0.83E+01 SK= 0.31E-01
 bond charge predicted
 prediction of wavefunctions
       N       E                     dE             d eps       ncg     rms          rms(c)
DAV:   1    -0.102022533914E+03    0.42300E-03   -0.73855E-03   192   0.225E-01    0.671E-03
RMM:   2    -0.102022605044E+03   -0.71131E-04   -0.72668E-04   120   0.806E-02
    762 T=   633. E= -.89290516E+02 F= -.10202261E+03 E0= -.10202855E+03  EK= 0.43374E+01 SP= 0.84E+01 SK= 0.37E-01
 bond charge predicted
 prediction of wavefunctions
       N       E                     dE             d eps       ncg     rms          rms(c)
DAV:   1    -0.102026757925E+03   -0.42240E-02   -0.85800E-03   192   0.260E-01    0.912E-03
RMM:   2    -0.102026937065E+03   -0.17914E-03   -0.18139E-03   120   0.127E-01    0.667E-03
RMM:   3    -0.102026952685E+03   -0.15620E-04   -0.14305E-04    66   0.362E-02
    763 T=   620. E= -.89289782E+02 F= -.10202695E+03 E0= -.10203304E+03  EK= 0.42494E+01 SP= 0.84E+01 SK= 0.41E-01
 bond charge predicted
 prediction of wavefunctions
       N       E                     dE             d eps       ncg     rms          rms(c)
DAV:   1    -0.102039648338E+03   -0.12711E-01   -0.85187E-03   168   0.213E-01    0.471E-03
RMM:   2    -0.102039691986E+03   -0.43648E-04   -0.44265E-04   119   0.569E-02
    764 T=   608. E= -.89289217E+02 F= -.10203969E+03 E0= -.10204592E+03  EK= 0.41678E+01 SP= 0.85E+01 SK= 0.43E-01
 bond charge predicted
 prediction of wavefunctions
       N       E                     dE             d eps       ncg     rms          rms(c)
DAV:   1    -0.102062709030E+03   -0.23061E-01   -0.96941E-03   180   0.247E-01    0.918E-03
RMM:   2    -0.102062867991E+03   -0.15896E-03   -0.16184E-03   120   0.117E-01    0.582E-03
RMM:   3    -0.102062886875E+03   -0.18884E-04   -0.18254E-04    69   0.399E-02
    765 T=   598. E= -.89288848E+02 F= -.10206289E+03 E0= -.10206928E+03  EK= 0.40965E+01 SP= 0.86E+01 SK= 0.44E-01
 bond charge predicted
 prediction of wavefunctions
       N       E                     dE             d eps       ncg     rms          rms(c)
DAV:   1    -0.102096746340E+03   -0.33878E-01   -0.89448E-03   132   0.214E-01    0.517E-03
RMM:   2    -0.102096813464E+03   -0.67124E-04   -0.68567E-04   120   0.748E-02
    766 T=   589. E= -.89288706E+02 F= -.10209681E+03 E0= -.10210339E+03  EK= 0.40373E+01 SP= 0.87E+01 SK= 0.43E-01
 bond charge predicted
 prediction of wavefunctions
       N       E                     dE             d eps       ncg     rms          rms(c)
DAV:   1    -0.102138353966E+03   -0.41608E-01   -0.98084E-03   204   0.247E-01    0.911E-03
RMM:   2    -0.102138510425E+03   -0.15646E-03   -0.16017E-03   120   0.118E-01    0.678E-03
RMM:   3    -0.102138528083E+03   -0.17658E-04   -0.17564E-04    75   0.395E-02
    767 T=   582. E= -.89288391E+02 F= -.10213853E+03 E0= -.10214530E+03  EK= 0.39890E+01 SP= 0.88E+01 SK= 0.41E-01
 bond charge predicted
 prediction of wavefunctions
       N       E                     dE             d eps       ncg     rms          rms(c)
DAV:   1    -0.102184337802E+03   -0.45827E-01   -0.88097E-03   156   0.211E-01    0.481E-03
RMM:   2    -0.102184401363E+03   -0.63560E-04   -0.64613E-04   120   0.726E-02
    768 T=   576. E= -.89288360E+02 F= -.10218440E+03 E0= -.10219135E+03  EK= 0.39481E+01 SP= 0.89E+01 SK= 0.38E-01
 bond charge predicted
 prediction of wavefunctions
       N       E                     dE             d eps       ncg     rms          rms(c)
DAV:   1    -0.102229859112E+03   -0.45521E-01   -0.91921E-03   192   0.242E-01    0.958E-03
RMM:   2    -0.102230015468E+03   -0.15636E-03   -0.16045E-03   120   0.116E-01    0.612E-03
RMM:   3    -0.102230032649E+03   -0.17181E-04   -0.16640E-04    67   0.382E-02
    769 T=   571. E= -.89288356E+02 F= -.10223003E+03 E0= -.10223713E+03  EK= 0.39116E+01 SP= 0.90E+01 SK= 0.35E-01
 bond charge predicted
 prediction of wavefunctions
       N       E                     dE             d eps       ncg     rms          rms(c)
DAV:   1    -0.102270652934E+03   -0.40637E-01   -0.84319E-03   180   0.205E-01    0.566E-03
RMM:   2    -0.102270706115E+03   -0.53181E-04   -0.55180E-04   120   0.675E-02
    770 T=   566. E= -.89288291E+02 F= -.10227071E+03 E0= -.10227793E+03  EK= 0.38753E+01 SP= 0.91E+01 SK= 0.30E-01
 bond charge predicted
 prediction of wavefunctions
       N       E                     dE             d eps       ncg     rms          rms(c)
DAV:   1    -0.102301771468E+03   -0.31119E-01   -0.87204E-03   168   0.234E-01    0.990E-03
RMM:   2    -0.102301912665E+03   -0.14120E-03   -0.14736E-03   120   0.112E-01    0.659E-03
RMM:   3    -0.102301932190E+03   -0.19525E-04   -0.20582E-04    73   0.422E-02
    771 T=   560. E= -.89288125E+02 F= -.10230193E+03 E0= -.10230932E+03  EK= 0.38358E+01 SP= 0.92E+01 SK= 0.26E-01
 bond charge predicted
 prediction of wavefunctions
       N       E                     dE             d eps       ncg     rms          rms(c)
DAV:   1    -0.102319956327E+03   -0.18044E-01   -0.83984E-03   156   0.205E-01    0.606E-03
RMM:   2    -0.102320016070E+03   -0.59743E-04   -0.62131E-04   120   0.739E-02
    772 T=   553. E= -.89287797E+02 F= -.10232002E+03 E0= -.10232768E+03  EK= 0.37902E+01 SP= 0.92E+01 SK= 0.21E-01
 bond charge predicted
 prediction of wavefunctions
       N       E                     dE             d eps       ncg     rms          rms(c)
DAV:   1    -0.102322403130E+03   -0.24468E-02   -0.88090E-03   168   0.231E-01    0.110E-02
RMM:   2    -0.102322545396E+03   -0.14227E-03   -0.15003E-03   120   0.112E-01    0.662E-03
RMM:   3    -0.102322564435E+03   -0.19039E-04   -0.19186E-04    70   0.411E-02
    773 T=   545. E= -.89287455E+02 F= -.10232256E+03 E0= -.10233059E+03  EK= 0.37370E+01 SP= 0.93E+01 SK= 0.16E-01
 bond charge predicted
 prediction of wavefunctions
       N       E                     dE             d eps       ncg     rms          rms(c)
DAV:   1    -0.102308085468E+03    0.14460E-01   -0.80374E-03   156   0.197E-01    0.707E-03
RMM:   2    -0.102308135663E+03   -0.50195E-04   -0.53741E-04   120   0.680E-02
    774 T=   537. E= -.89287144E+02 F= -.10230814E+03 E0= -.10231657E+03  EK= 0.36758E+01 SP= 0.93E+01 SK= 0.11E-01
 bond charge predicted
 prediction of wavefunctions
       N       E                     dE             d eps       ncg     rms          rms(c)
DAV:   1    -0.102276345664E+03    0.31740E-01   -0.85789E-03   132   0.223E-01    0.102E-02
RMM:   2    -0.102276468565E+03   -0.12290E-03   -0.12961E-03   120   0.106E-01    0.611E-03
RMM:   3    -0.102276484035E+03   -0.15470E-04   -0.16431E-04    72   0.377E-02
    775 T=   527. E= -.89286817E+02 F= -.10227648E+03 E0= -.10228532E+03  EK= 0.36077E+01 SP= 0.94E+01 SK= 0.63E-02
 bond charge predicted
 prediction of wavefunctions
       N       E                     dE             d eps       ncg     rms          rms(c)
DAV:   1    -0.102228678930E+03    0.47790E-01   -0.80386E-03   156   0.193E-01    0.896E-03
RMM:   2    -0.102228724867E+03   -0.45936E-04   -0.52398E-04   120   0.684E-02
    776 T=   516. E= -.89286389E+02 F= -.10222872E+03 E0= -.10223781E+03  EK= 0.35349E+01 SP= 0.94E+01 SK= 0.25E-02
 bond charge predicted
 prediction of wavefunctions
       N       E                     dE             d eps       ncg     rms          rms(c)
DAV:   1    -0.102167004117E+03    0.61675E-01   -0.84425E-03   168   0.218E-01    0.122E-02
RMM:   2    -0.102167121757E+03   -0.11764E-03   -0.13043E-03   120   0.106E-01    0.669E-03
RMM:   3    -0.102167137660E+03   -0.15903E-04   -0.17734E-04    67   0.398E-02
    777 T=   505. E= -.89285890E+02 F= -.10216714E+03 E0= -.10217622E+03  EK= 0.34609E+01 SP= 0.94E+01 SK= 0.29E-03
 bond charge predicted
 prediction of wavefunctions
       N       E                     dE             d eps       ncg     rms          rms(c)
DAV:   1    -0.102094963461E+03    0.72158E-01   -0.79007E-03   156   0.187E-01    0.864E-03
RMM:   2    -0.102095013521E+03   -0.50059E-04   -0.55985E-04   120   0.690E-02
    778 T=   495. E= -.89285336E+02 F= -.10209501E+03 E0= -.10210396E+03  EK= 0.33899E+01 SP= 0.94E+01 SK= 0.41E-03
 bond charge predicted
 prediction of wavefunctions
       N       E                     dE             d eps       ncg     rms          rms(c)
DAV:   1    -0.102016644991E+03    0.78318E-01   -0.82708E-03   144   0.214E-01    0.109E-02
RMM:   2    -0.102016764307E+03   -0.11932E-03   -0.12806E-03   120   0.103E-01    0.647E-03
RMM:   3    -0.102016778950E+03   -0.14643E-04   -0.16002E-04    66   0.376E-02
    779 T=   486. E= -.89284812E+02 F= -.10201678E+03 E0= -.10202552E+03  EK= 0.33272E+01 SP= 0.94E+01 SK= 0.37E-02
 bond charge predicted
 prediction of wavefunctions
       N       E                     dE             d eps       ncg     rms          rms(c)
DAV:   1    -0.101937683443E+03    0.79081E-01   -0.73195E-03   156   0.186E-01    0.770E-03
RMM:   2    -0.101937736796E+03   -0.53353E-04   -0.57314E-04   120   0.698E-02
    780 T=   479. E= -.89284240E+02 F= -.10193774E+03 E0= -.10194627E+03  EK= 0.32789E+01 SP= 0.94E+01 SK= 0.11E-01
 bond charge predicted
 prediction of wavefunctions
       N       E                     dE             d eps       ncg     rms          rms(c)
DAV:   1    -0.101863436140E+03    0.74247E-01   -0.72994E-03   168   0.212E-01    0.123E-02
RMM:   2    -0.101863552250E+03   -0.11611E-03   -0.12756E-03   120   0.103E-01    0.740E-03
RMM:   3    -0.101863566666E+03   -0.14417E-04   -0.17222E-04    67   0.390E-02
    781 T=   475. E= -.89283701E+02 F= -.10186357E+03 E0= -.10187193E+03  EK= 0.32512E+01 SP= 0.93E+01 SK= 0.23E-01
 bond charge predicted
 prediction of wavefunctions
       N       E                     dE             d eps       ncg     rms          rms(c)
DAV:   1    -0.101799646468E+03    0.63906E-01   -0.63191E-03   132   0.187E-01    0.876E-03
RMM:   2    -0.101799701217E+03   -0.54749E-04   -0.59788E-04   119   0.703E-02
    782 T=   474. E= -.89283063E+02 F= -.10179970E+03 E0= -.10180795E+03  EK= 0.32503E+01 SP= 0.92E+01 SK= 0.39E-01
 bond charge predicted
 prediction of wavefunctions
       N       E                     dE             d eps       ncg     rms          rms(c)
DAV:   1    -0.101751812612E+03    0.47834E-01   -0.63767E-03   192   0.215E-01    0.137E-02
RMM:   2    -0.101751928879E+03   -0.11627E-03   -0.13164E-03   120   0.104E-01    0.786E-03
RMM:   3    -0.101751941601E+03   -0.12721E-04   -0.16582E-04    64   0.384E-02
    783 T=   479. E= -.89282462E+02 F= -.10175194E+03 E0= -.10176013E+03  EK= 0.32824E+01 SP= 0.91E+01 SK= 0.60E-01
 bond charge predicted
 prediction of wavefunctions
       N       E                     dE             d eps       ncg     rms          rms(c)
DAV:   1    -0.101725090345E+03    0.26839E-01   -0.58840E-03   156   0.193E-01    0.107E-02
RMM:   2    -0.101725147797E+03   -0.57452E-04   -0.65185E-04   120   0.738E-02
    784 T=   489. E= -.89281928E+02 F= -.10172515E+03 E0= -.10173333E+03  EK= 0.33530E+01 SP= 0.90E+01 SK= 0.83E-01
 bond charge predicted
 prediction of wavefunctions
       N       E                     dE             d eps       ncg     rms          rms(c)
DAV:   1    -0.101722360971E+03    0.27294E-02   -0.57278E-03   168   0.224E-01    0.131E-02
RMM:   2    -0.101722490193E+03   -0.12922E-03   -0.14302E-03   120   0.109E-01    0.731E-03
RMM:   3    -0.101722506610E+03   -0.16417E-04   -0.19169E-04    72   0.416E-02
    785 T=   506. E= -.89281409E+02 F= -.10172251E+03 E0= -.10173073E+03  EK= 0.34657E+01 SP= 0.89E+01 SK= 0.11E+00
 bond charge predicted
 prediction of wavefunctions
       N       E                     dE             d eps       ncg     rms          rms(c)
DAV:   1    -0.101745071900E+03   -0.22582E-01   -0.51952E-03   156   0.201E-01    0.106E-02
RMM:   2    -0.101745133943E+03   -0.62043E-04   -0.69906E-04   120   0.771E-02
    786 T=   529. E= -.89280908E+02 F= -.10174513E+03 E0= -.10175343E+03  EK= 0.36218E+01 SP= 0.87E+01 SK= 0.13E+00
 bond charge predicted
 prediction of wavefunctions
       N       E                     dE             d eps       ncg     rms          rms(c)
DAV:   1    -0.101791783094E+03   -0.46711E-01   -0.57556E-03   168   0.236E-01    0.130E-02
RMM:   2    -0.101791929564E+03   -0.14647E-03   -0.15978E-03   120   0.114E-01    0.730E-03
RMM:   3    -0.101791945798E+03   -0.16234E-04   -0.18239E-04    68   0.407E-02
    787 T=   557. E= -.89280592E+02 F= -.10179195E+03 E0= -.10180032E+03  EK= 0.38191E+01 SP= 0.85E+01 SK= 0.14E+00
 bond charge predicted
 prediction of wavefunctions
       N       E                     dE             d eps       ncg     rms          rms(c)
DAV:   1    -0.101859629220E+03   -0.67700E-01   -0.53097E-03   132   0.212E-01    0.103E-02
RMM:   2    -0.101859696506E+03   -0.67286E-04   -0.74878E-04   120   0.824E-02
    788 T=   592. E= -.89280639E+02 F= -.10185970E+03 E0= -.10186815E+03  EK= 0.40525E+01 SP= 0.84E+01 SK= 0.15E+00
 bond charge predicted
 prediction of wavefunctions
       N       E                     dE             d eps       ncg     rms          rms(c)
DAV:   1    -0.101941989326E+03   -0.82360E-01   -0.63727E-03   168   0.252E-01    0.124E-02
RMM:   2    -0.101942153277E+03   -0.16395E-03   -0.17470E-03   120   0.123E-01    0.718E-03
RMM:   3    -0.101942172308E+03   -0.19030E-04   -0.20096E-04    73   0.430E-02
    789 T=   629. E= -.89280852E+02 F= -.10194217E+03 E0= -.10195066E+03  EK= 0.43121E+01 SP= 0.82E+01 SK= 0.15E+00
 bond charge predicted
 prediction of wavefunctions
       N       E                     dE             d eps       ncg     rms          rms(c)
DAV:   1    -0.102031645102E+03   -0.89492E-01   -0.59322E-03   156   0.226E-01    0.892E-03
RMM:   2    -0.102031726514E+03   -0.81412E-04   -0.86909E-04   120   0.891E-02
    790 T=   669. E= -.89281227E+02 F= -.10203173E+03 E0= -.10204023E+03  EK= 0.45844E+01 SP= 0.80E+01 SK= 0.13E+00
 bond charge predicted
 prediction of wavefunctions
       N       E                     dE             d eps       ncg     rms          rms(c)
DAV:   1    -0.102119222208E+03   -0.87577E-01   -0.70083E-03   144   0.272E-01    0.138E-02
RMM:   2    -0.102119418112E+03   -0.19590E-03   -0.20971E-03   120   0.134E-01    0.799E-03
RMM:   3    -0.102119440139E+03   -0.22026E-04   -0.23305E-04    90   0.463E-02
    791 T=   708. E= -.89281843E+02 F= -.10211944E+03 E0= -.10212794E+03  EK= 0.48522E+01 SP= 0.79E+01 SK= 0.11E+00
 bond charge predicted
 prediction of wavefunctions
       N       E                     dE             d eps       ncg     rms          rms(c)
DAV:   1    -0.102195975797E+03   -0.76558E-01   -0.62384E-03   180   0.238E-01    0.959E-03
RMM:   2    -0.102196063874E+03   -0.88077E-04   -0.94715E-04   120   0.936E-02
    792 T=   744. E= -.89282300E+02 F= -.10219606E+03 E0= -.10220458E+03  EK= 0.50965E+01 SP= 0.77E+01 SK= 0.80E-01
 bond charge predicted
 prediction of wavefunctions
       N       E                     dE             d eps       ncg     rms          rms(c)
DAV:   1    -0.102254421215E+03   -0.58445E-01   -0.73378E-03   180   0.284E-01    0.141E-02
RMM:   2    -0.102254639196E+03   -0.21798E-03   -0.23089E-03   120   0.142E-01    0.882E-03
RMM:   3    -0.102254659300E+03   -0.20103E-04   -0.21027E-04    83   0.444E-02
    793 T=   774. E= -.89282642E+02 F= -.10225466E+03 E0= -.10226326E+03  EK= 0.52994E+01 SP= 0.76E+01 SK= 0.50E-01
 bond charge predicted
 prediction of wavefunctions
       N       E                     dE             d eps       ncg     rms          rms(c)
DAV:   1    -0.102289807854E+03   -0.35169E-01   -0.65341E-03   168   0.245E-01    0.944E-03
RMM:   2    -0.102289917555E+03   -0.10970E-03   -0.11617E-03   120   0.959E-02    0.729E-03
RMM:   3    -0.102289936485E+03   -0.18930E-04   -0.22586E-04    85   0.416E-02
    794 T=   795. E= -.89283125E+02 F= -.10228994E+03 E0= -.10229872E+03  EK= 0.54450E+01 SP= 0.75E+01 SK= 0.23E-01
 bond charge predicted
 prediction of wavefunctions
       N       E                     dE             d eps       ncg     rms          rms(c)
DAV:   1    -0.102298286929E+03   -0.83694E-02   -0.81373E-03   180   0.257E-01    0.999E-03
RMM:   2    -0.102298426185E+03   -0.13926E-03   -0.14479E-03   120   0.111E-01    0.578E-03
RMM:   3    -0.102298445471E+03   -0.19286E-04   -0.18983E-04    84   0.413E-02
    795 T=   806. E= -.89283117E+02 F= -.10229845E+03 E0= -.10230745E+03  EK= 0.55222E+01 SP= 0.75E+01 SK= 0.57E-02
 bond charge predicted
 prediction of wavefunctions
       N       E                     dE             d eps       ncg     rms          rms(c)
DAV:   1    -0.102280588028E+03    0.17838E-01   -0.74162E-03   228   0.260E-01    0.879E-03
RMM:   2    -0.102280731816E+03   -0.14379E-03   -0.14727E-03   120   0.114E-01    0.630E-03
RMM:   3    -0.102280746123E+03   -0.14307E-04   -0.14732E-04    79   0.358E-02
    796 T=   807. E= -.89282697E+02 F= -.10228075E+03 E0= -.10228999E+03  EK= 0.55268E+01 SP= 0.75E+01 SK= 0.12E-04
 bond charge predicted
 prediction of wavefunctions
       N       E                     dE             d eps       ncg     rms          rms(c)
DAV:   1    -0.102239716006E+03    0.41016E-01   -0.78490E-03   180   0.251E-01    0.736E-03
RMM:   2    -0.102239832640E+03   -0.11663E-03   -0.11816E-03   120   0.104E-01    0.483E-03
RMM:   3    -0.102239849284E+03   -0.16644E-04   -0.16047E-04    77   0.380E-02
    797 T=   797. E= -.89281836E+02 F= -.10223985E+03 E0= -.10224929E+03  EK= 0.54613E+01 SP= 0.75E+01 SK= 0.65E-02
 bond charge predicted
 prediction of wavefunctions
       N       E                     dE             d eps       ncg     rms          rms(c)
DAV:   1    -0.102180540655E+03    0.59292E-01   -0.78510E-03   168   0.248E-01    0.794E-03
RMM:   2    -0.102180661781E+03   -0.12113E-03   -0.12344E-03   120   0.106E-01    0.553E-03
RMM:   3    -0.102180675950E+03   -0.14169E-04   -0.13905E-04    79   0.365E-02
    798 T=   779. E= -.89280604E+02 F= -.10218068E+03 E0= -.10219024E+03  EK= 0.53342E+01 SP= 0.75E+01 SK= 0.23E-01
 bond charge predicted
 prediction of wavefunctions
       N       E                     dE             d eps       ncg     rms          rms(c)
DAV:   1    -0.102108957918E+03    0.71704E-01   -0.72389E-03   168   0.240E-01    0.706E-03
RMM:   2    -0.102109067165E+03   -0.10925E-03   -0.11050E-03   120   0.100E-01    0.496E-03
RMM:   3    -0.102109081595E+03   -0.14430E-04   -0.14153E-04    76   0.357E-02
    799 T=   753. E= -.89279211E+02 F= -.10210908E+03 E0= -.10211865E+03  EK= 0.51579E+01 SP= 0.76E+01 SK= 0.47E-01
 bond charge predicted
 prediction of wavefunctions
       N       E                     dE             d eps       ncg     rms          rms(c)
DAV:   1    -0.102030689990E+03    0.78377E-01   -0.65510E-03   180   0.234E-01    0.672E-03
RMM:   2    -0.102030786872E+03   -0.96881E-04   -0.98247E-04   120   0.958E-02
    800 T=   722. E= -.89277777E+02 F= -.10203079E+03 E0= -.10204021E+03  EK= 0.49467E+01 SP= 0.77E+01 SK= 0.72E-01
 bond charge predicted
 prediction of wavefunctions
       N       E                     dE             d eps       ncg     rms          rms(c)
DAV:   1    -0.101950731399E+03    0.79959E-01   -0.63419E-03   144   0.260E-01    0.932E-03
RMM:   2    -0.101950923237E+03   -0.19184E-03   -0.19388E-03   120   0.129E-01    0.676E-03
RMM:   3    -0.101950950678E+03   -0.27441E-04   -0.25967E-04    97   0.482E-02
    801 T=   688. E= -.89276586E+02 F= -.10195095E+03 E0= -.10196006E+03  EK= 0.47150E+01 SP= 0.79E+01 SK= 0.95E-01
 bond charge predicted
 prediction of wavefunctions
       N       E                     dE             d eps       ncg     rms          rms(c)
DAV:   1    -0.101873504778E+03    0.77418E-01   -0.54880E-03   216   0.218E-01    0.646E-03
RMM:   2    -0.101873580027E+03   -0.75249E-04   -0.77278E-04   120   0.826E-02
    802 T=   653. E= -.89275516E+02 F= -.10187358E+03 E0= -.10188228E+03  EK= 0.44763E+01 SP= 0.80E+01 SK= 0.11E+00
 bond charge predicted
 prediction of wavefunctions
       N       E                     dE             d eps       ncg     rms          rms(c)
DAV:   1    -0.101801565564E+03    0.71939E-01   -0.57785E-03   204   0.252E-01    0.938E-03
RMM:   2    -0.101801758348E+03   -0.19278E-03   -0.19572E-03   120   0.123E-01    0.662E-03
RMM:   3    -0.101801773984E+03   -0.15636E-04   -0.13698E-04    72   0.337E-02
    803 T=   619. E= -.89274689E+02 F= -.10180177E+03 E0= -.10181008E+03  EK= 0.42415E+01 SP= 0.82E+01 SK= 0.12E+00
 bond charge predicted
 prediction of wavefunctions
       N       E                     dE             d eps       ncg     rms          rms(c)
DAV:   1    -0.101737830643E+03    0.63928E-01   -0.52907E-03   204   0.198E-01    0.521E-03
RMM:   2    -0.101737891030E+03   -0.60387E-04   -0.61544E-04   118   0.588E-02
    804 T=   587. E= -.89274212E+02 F= -.10173789E+03 E0= -.10174588E+03  EK= 0.40194E+01 SP= 0.83E+01 SK= 0.12E+00
Information: wavefunction orthogonal band   60  0.8210
 bond charge predicted
 prediction of wavefunctions
       N       E                     dE             d eps       ncg     rms          rms(c)
DAV:   1    -0.101683953941E+03    0.53877E-01   -0.58411E-03   192   0.235E-01    0.763E-03
RMM:   2    -0.101684112632E+03   -0.15869E-03   -0.16016E-03   120   0.115E-01    0.563E-03
RMM:   3    -0.101684128235E+03   -0.15602E-04   -0.13712E-04    72   0.354E-02
    805 T=   557. E= -.89273853E+02 F= -.10168413E+03 E0= -.10169190E+03  EK= 0.38174E+01 SP= 0.85E+01 SK= 0.12E+00
 bond charge predicted
 prediction of wavefunctions
       N       E                     dE             d eps       ncg     rms          rms(c)
DAV:   1    -0.101642361920E+03    0.41751E-01   -0.53500E-03   192   0.196E-01    0.538E-03
RMM:   2    -0.101642440567E+03   -0.78647E-04   -0.79802E-04   120   0.730E-02
    806 T=   531. E= -.89273596E+02 F= -.10164244E+03 E0= -.10165008E+03  EK= 0.36410E+01 SP= 0.86E+01 SK= 0.10E+00
 bond charge predicted
 prediction of wavefunctions
       N       E                     dE             d eps       ncg     rms          rms(c)
DAV:   1    -0.101613649447E+03    0.28712E-01   -0.66116E-03   180   0.227E-01    0.831E-03
RMM:   2    -0.101613804153E+03   -0.15471E-03   -0.15733E-03   120   0.114E-01    0.653E-03
RMM:   3    -0.101613822062E+03   -0.17909E-04   -0.16512E-04    73   0.385E-02
    807 T=   510. E= -.89273457E+02 F= -.10161382E+03 E0= -.10162141E+03  EK= 0.34933E+01 SP= 0.88E+01 SK= 0.84E-01
 bond charge predicted
 prediction of wavefunctions
       N       E                     dE             d eps       ncg     rms          rms(c)
DAV:   1    -0.101599254405E+03    0.14550E-01   -0.48483E-03   168   0.186E-01    0.508E-03
RMM:   2    -0.101599313422E+03   -0.59017E-04   -0.60739E-04   120   0.686E-02
    808 T=   493. E= -.89273311E+02 F= -.10159931E+03 E0= -.10160689E+03  EK= 0.33766E+01 SP= 0.89E+01 SK= 0.64E-01
 bond charge predicted
 prediction of wavefunctions
       N       E                     dE             d eps       ncg     rms          rms(c)
DAV:   1    -0.101599983296E+03   -0.72889E-03   -0.52298E-03   192   0.213E-01    0.833E-03
RMM:   2    -0.101600124043E+03   -0.14075E-03   -0.14344E-03   120   0.104E-01    0.602E-03
RMM:   3    -0.101600138138E+03   -0.14094E-04   -0.13135E-04    66   0.332E-02
    809 T=   481. E= -.89273166E+02 F= -.10160014E+03 E0= -.10160772E+03  EK= 0.32928E+01 SP= 0.90E+01 SK= 0.44E-01
 bond charge predicted
 prediction of wavefunctions
       N       E                     dE             d eps       ncg     rms          rms(c)
DAV:   1    -0.101616772098E+03   -0.16648E-01   -0.45475E-03   180   0.176E-01    0.554E-03
RMM:   2    -0.101616818924E+03   -0.46825E-04   -0.48934E-04   120   0.615E-02
    810 T=   473. E= -.89273055E+02 F= -.10161682E+03 E0= -.10162439E+03  EK= 0.32425E+01 SP= 0.91E+01 SK= 0.27E-01
 bond charge predicted
 prediction of wavefunctions
       N       E                     dE             d eps       ncg     rms          rms(c)
DAV:   1    -0.101649611114E+03   -0.32839E-01   -0.49938E-03   168   0.204E-01    0.758E-03
RMM:   2    -0.101649728394E+03   -0.11728E-03   -0.12008E-03   120   0.101E-01    0.541E-03
RMM:   3    -0.101649742954E+03   -0.14560E-04   -0.13825E-04    69   0.356E-02
    811 T=   471. E= -.89273004E+02 F= -.10164974E+03 E0= -.10165725E+03  EK= 0.32256E+01 SP= 0.91E+01 SK= 0.14E-01
 bond charge predicted
 prediction of wavefunctions
       N       E                     dE             d eps       ncg     rms          rms(c)
DAV:   1    -0.101698811573E+03   -0.49083E-01   -0.43665E-03   168   0.179E-01    0.538E-03
RMM:   2    -0.101698873275E+03   -0.61702E-04   -0.63288E-04   120   0.694E-02
    812 T=   473. E= -.89272707E+02 F= -.10169887E+03 E0= -.10170626E+03  EK= 0.32423E+01 SP= 0.92E+01 SK= 0.47E-02
 bond charge predicted
 prediction of wavefunctions
       N       E                     dE             d eps       ncg     rms          rms(c)
DAV:   1    -0.101764482172E+03   -0.65671E-01   -0.51080E-03   192   0.209E-01    0.874E-03
RMM:   2    -0.101764621202E+03   -0.13903E-03   -0.14363E-03   120   0.105E-01    0.622E-03
RMM:   3    -0.101764639201E+03   -0.17999E-04   -0.17452E-04    71   0.388E-02
    813 T=   481. E= -.89272414E+02 F= -.10176464E+03 E0= -.10177186E+03  EK= 0.32921E+01 SP= 0.92E+01 SK= 0.50E-03
 bond charge predicted
 prediction of wavefunctions
       N       E                     dE             d eps       ncg     rms          rms(c)
DAV:   1    -0.101846949923E+03   -0.82329E-01   -0.48856E-03   180   0.178E-01    0.522E-03
RMM:   2    -0.101847000888E+03   -0.50966E-04   -0.52702E-04   120   0.650E-02
    814 T=   493. E= -.89272194E+02 F= -.10184700E+03 E0= -.10185402E+03  EK= 0.33743E+01 SP= 0.92E+01 SK= 0.41E-03
 bond charge predicted
 prediction of wavefunctions
       N       E                     dE             d eps       ncg     rms          rms(c)
DAV:   1    -0.101945355758E+03   -0.98406E-01   -0.57519E-03   156   0.212E-01    0.942E-03
RMM:   2    -0.101945485655E+03   -0.12990E-03   -0.13561E-03   120   0.105E-01    0.605E-03
RMM:   3    -0.101945500846E+03   -0.15190E-04   -0.14987E-04    72   0.365E-02
    815 T=   509. E= -.89271923E+02 F= -.10194550E+03 E0= -.10195231E+03  EK= 0.34877E+01 SP= 0.92E+01 SK= 0.33E-02
 bond charge predicted
 prediction of wavefunctions
       N       E                     dE             d eps       ncg     rms          rms(c)
DAV:   1    -0.102059004261E+03   -0.11352E+00   -0.54031E-03   192   0.188E-01    0.598E-03
RMM:   2    -0.102059069482E+03   -0.65221E-04   -0.67656E-04   120   0.714E-02
    816 T=   530. E= -.89271716E+02 F= -.10205907E+03 E0= -.10206565E+03  EK= 0.36297E+01 SP= 0.91E+01 SK= 0.77E-02
 bond charge predicted
 prediction of wavefunctions
       N       E                     dE             d eps       ncg     rms          rms(c)
DAV:   1    -0.102185266866E+03   -0.12626E+00   -0.62223E-03   216   0.228E-01    0.106E-02
RMM:   2    -0.102185416595E+03   -0.14973E-03   -0.15788E-03   120   0.116E-01    0.717E-03
RMM:   3    -0.102185430226E+03   -0.13631E-04   -0.14153E-04    67   0.371E-02
    817 T=   554. E= -.89271626E+02 F= -.10218543E+03 E0= -.10219178E+03  EK= 0.37962E+01 SP= 0.91E+01 SK= 0.12E-01
 bond charge predicted
 prediction of wavefunctions
       N       E                     dE             d eps       ncg     rms          rms(c)
DAV:   1    -0.102321328674E+03   -0.13591E+00   -0.53787E-03   168   0.203E-01    0.689E-03
RMM:   2    -0.102321397973E+03   -0.69299E-04   -0.72905E-04   120   0.753E-02
    818 T=   581. E= -.89271644E+02 F= -.10232140E+03 E0= -.10232748E+03  EK= 0.39813E+01 SP= 0.91E+01 SK= 0.15E-01
 bond charge predicted
 prediction of wavefunctions
       N       E                     dE             d eps       ncg     rms          rms(c)
DAV:   1    -0.102462266075E+03   -0.14094E+00   -0.62602E-03   192   0.247E-01    0.127E-02
RMM:   2    -0.102462439266E+03   -0.17319E-03   -0.18570E-03   120   0.124E-01    0.754E-03
RMM:   3    -0.102462454708E+03   -0.15442E-04   -0.16102E-04    68   0.393E-02
    819 T=   610. E= -.89271702E+02 F= -.10246245E+03 E0= -.10246824E+03  EK= 0.41768E+01 SP= 0.90E+01 SK= 0.15E-01
 bond charge predicted
 prediction of wavefunctions
       N       E                     dE             d eps       ncg     rms          rms(c)
DAV:   1    -0.102602714443E+03   -0.14028E+00   -0.54176E-03   168   0.219E-01    0.792E-03
RMM:   2    -0.102602797656E+03   -0.83213E-04   -0.87987E-04   120   0.843E-02
    820 T=   638. E= -.89271889E+02 F= -.10260280E+03 E0= -.10260827E+03  EK= 0.43723E+01 SP= 0.89E+01 SK= 0.13E-01
 bond charge predicted
 prediction of wavefunctions
       N       E                     dE             d eps       ncg     rms          rms(c)
DAV:   1    -0.102735101913E+03   -0.13239E+00   -0.63256E-03   180   0.268E-01    0.147E-02
RMM:   2    -0.102735301282E+03   -0.19937E-03   -0.21622E-03   120   0.136E-01    0.877E-03
RMM:   3    -0.102735322005E+03   -0.20724E-04   -0.23025E-04    87   0.465E-02
    821 T=   665. E= -.89272201E+02 F= -.10273532E+03 E0= -.10274053E+03  EK= 0.45550E+01 SP= 0.89E+01 SK= 0.87E-02
 bond charge predicted
 prediction of wavefunctions
       N       E                     dE             d eps       ncg     rms          rms(c)
DAV:   1    -0.102852765193E+03   -0.11746E+00   -0.52172E-03   192   0.235E-01    0.108E-02
RMM:   2    -0.102852863282E+03   -0.98088E-04   -0.10769E-03   120   0.926E-02    0.766E-03
RMM:   3    -0.102852878036E+03   -0.14754E-04   -0.19407E-04    78   0.399E-02
    822 T=   688. E= -.89272456E+02 F= -.10285288E+03 E0= -.10285792E+03  EK= 0.47122E+01 SP= 0.89E+01 SK= 0.40E-02
 bond charge predicted
 prediction of wavefunctions
       N       E                     dE             d eps       ncg     rms          rms(c)
DAV:   1    -0.102949210885E+03   -0.96348E-01   -0.53562E-03   204   0.246E-01    0.901E-03
RMM:   2    -0.102949342316E+03   -0.13143E-03   -0.13670E-03   120   0.105E-01    0.527E-03
RMM:   3    -0.102949360620E+03   -0.18304E-04   -0.18458E-04    73   0.400E-02
    823 T=   705. E= -.89272802E+02 F= -.10294936E+03 E0= -.10295437E+03  EK= 0.48320E+01 SP= 0.88E+01 SK= 0.70E-03
 bond charge predicted
 prediction of wavefunctions
       N       E                     dE             d eps       ncg     rms          rms(c)
DAV:   1    -0.103018968015E+03   -0.69626E-01   -0.58643E-03   192   0.251E-01    0.905E-03
RMM:   2    -0.103019111673E+03   -0.14366E-03   -0.14728E-03   120   0.111E-01    0.588E-03
RMM:   3    -0.103019126257E+03   -0.14584E-04   -0.13886E-04    79   0.349E-02
    824 T=   716. E= -.89272601E+02 F= -.10301913E+03 E0= -.10302423E+03  EK= 0.49047E+01 SP= 0.88E+01 SK= 0.26E-03
 bond charge predicted
 prediction of wavefunctions
       N       E                     dE             d eps       ncg     rms          rms(c)
DAV:   1    -0.103059981398E+03   -0.40870E-01   -0.52509E-03   192   0.254E-01    0.686E-03
RMM:   2    -0.103060120664E+03   -0.13927E-03   -0.14071E-03   120   0.106E-01    0.471E-03
RMM:   3    -0.103060139579E+03   -0.18916E-04   -0.17987E-04    78   0.381E-02
    825 T=   719. E= -.89272297E+02 F= -.10306014E+03 E0= -.10306539E+03  EK= 0.49251E+01 SP= 0.89E+01 SK= 0.38E-02
 bond charge predicted
 prediction of wavefunctions
       N       E                     dE             d eps       ncg     rms          rms(c)
DAV:   1    -0.103071841068E+03   -0.11720E-01   -0.61535E-03   204   0.253E-01    0.867E-03
RMM:   2    -0.103071966566E+03   -0.12550E-03   -0.12745E-03   120   0.108E-01    0.593E-03
RMM:   3    -0.103071982488E+03   -0.15921E-04   -0.15213E-04    76   0.374E-02
    826 T=   714. E= -.89271787E+02 F= -.10307198E+03 E0= -.10307734E+03  EK= 0.48923E+01 SP= 0.89E+01 SK= 0.11E-01
 bond charge predicted
 prediction of wavefunctions
       N       E                     dE             d eps       ncg     rms          rms(c)
DAV:   1    -0.103056742545E+03    0.15224E-01   -0.53344E-03   192   0.249E-01    0.682E-03
RMM:   2    -0.103056855061E+03   -0.11252E-03   -0.11361E-03   120   0.105E-01    0.464E-03
RMM:   3    -0.103056867697E+03   -0.12636E-04   -0.12224E-04    67   0.338E-02
    827 T=   702. E= -.89270901E+02 F= -.10305687E+03 E0= -.10306226E+03  EK= 0.48104E+01 SP= 0.90E+01 SK= 0.22E-01
 bond charge predicted
 prediction of wavefunctions
       N       E                     dE             d eps       ncg     rms          rms(c)
DAV:   1    -0.103019648998E+03    0.37206E-01   -0.56698E-03   204   0.244E-01    0.666E-03
RMM:   2    -0.103019752770E+03   -0.10377E-03   -0.10439E-03   120   0.102E-01    0.490E-03
RMM:   3    -0.103019763695E+03   -0.10925E-04   -0.10707E-04    65   0.324E-02
    828 T=   684. E= -.89269923E+02 F= -.10301976E+03 E0= -.10302514E+03  EK= 0.46879E+01 SP= 0.90E+01 SK= 0.34E-01
 bond charge predicted
 prediction of wavefunctions
       N       E                     dE             d eps       ncg     rms          rms(c)
DAV:   1    -0.102966403942E+03    0.53349E-01   -0.55577E-03   144   0.239E-01    0.624E-03
RMM:   2    -0.102966505166E+03   -0.10122E-03   -0.10206E-03   120   0.102E-01    0.462E-03
RMM:   3    -0.102966515880E+03   -0.10713E-04   -0.10606E-04    66   0.322E-02
    829 T=   662. E= -.89268809E+02 F= -.10296652E+03 E0= -.10297188E+03  EK= 0.45356E+01 SP= 0.91E+01 SK= 0.45E-01
 bond charge predicted
 prediction of wavefunctions
       N       E                     dE             d eps       ncg     rms          rms(c)
DAV:   1    -0.102904230864E+03    0.62274E-01   -0.51171E-03   168   0.234E-01    0.625E-03
RMM:   2    -0.102904329470E+03   -0.98607E-04   -0.99588E-04   120   0.992E-02
    830 T=   637. E= -.89267770E+02 F= -.10290433E+03 E0= -.10290970E+03  EK= 0.43664E+01 SP= 0.92E+01 SK= 0.53E-01
 bond charge predicted
 prediction of wavefunctions
       N       E                     dE             d eps       ncg     rms          rms(c)
DAV:   1    -0.102839681531E+03    0.64549E-01   -0.48650E-03   144   0.257E-01    0.931E-03
RMM:   2    -0.102839860206E+03   -0.17868E-03   -0.18145E-03   120   0.129E-01    0.706E-03
RMM:   3    -0.102839884876E+03   -0.24670E-04   -0.24170E-04    88   0.461E-02
    831 T=   612. E= -.89266577E+02 F= -.10283988E+03 E0= -.10284525E+03  EK= 0.41924E+01 SP= 0.93E+01 SK= 0.58E-01
 bond charge predicted
 prediction of wavefunctions
       N       E                     dE             d eps       ncg     rms          rms(c)
DAV:   1    -0.102779643408E+03    0.60217E-01   -0.34423E-03   156   0.218E-01    0.510E-03
RMM:   2    -0.102779721838E+03   -0.78430E-04   -0.78941E-04   120   0.862E-02
    832 T=   587. E= -.89265588E+02 F= -.10277972E+03 E0= -.10278499E+03  EK= 0.40248E+01 SP= 0.94E+01 SK= 0.58E-01
 bond charge predicted
 prediction of wavefunctions
       N       E                     dE             d eps       ncg     rms          rms(c)
DAV:   1    -0.102728223207E+03    0.51420E-01   -0.41131E-03   192   0.257E-01    0.785E-03
RMM:   2    -0.102728413271E+03   -0.19006E-03   -0.19092E-03   120   0.126E-01    0.592E-03
RMM:   3    -0.102728428226E+03   -0.14954E-04   -0.12859E-04    68   0.337E-02
    833 T=   565. E= -.89264653E+02 F= -.10272843E+03 E0= -.10273348E+03  EK= 0.38721E+01 SP= 0.95E+01 SK= 0.54E-01
 bond charge predicted
 prediction of wavefunctions
       N       E                     dE             d eps       ncg     rms          rms(c)
DAV:   1    -0.102690249475E+03    0.38164E-01   -0.21156E-03   168   0.196E-01    0.640E-03
RMM:   2    -0.102690291763E+03   -0.42288E-04   -0.44093E-04   118   0.563E-02
    834 T=   546. E= -.89264406E+02 F= -.10269029E+03 E0= -.10269507E+03  EK= 0.37409E+01 SP= 0.96E+01 SK= 0.46E-01
 bond charge predicted
 prediction of wavefunctions
       N       E                     dE             d eps       ncg     rms          rms(c)
DAV:   1    -0.102666929875E+03    0.23320E-01   -0.29511E-03   192   0.234E-01    0.800E-03
RMM:   2    -0.102667075291E+03   -0.14542E-03   -0.14837E-03   120   0.113E-01    0.529E-03
RMM:   3    -0.102667088591E+03   -0.13300E-04   -0.12548E-04    66   0.338E-02
    835 T=   531. E= -.89264247E+02 F= -.10266709E+03 E0= -.10267167E+03  EK= 0.36354E+01 SP= 0.97E+01 SK= 0.37E-01
 bond charge predicted
 prediction of wavefunctions
       N       E                     dE             d eps       ncg     rms          rms(c)
DAV:   1    -0.102659630464E+03    0.74448E-02   -0.17558E-03   192   0.196E-01    0.480E-03
RMM:   2    -0.102659687865E+03   -0.57401E-04   -0.58484E-04   120   0.664E-02
    836 T=   519. E= -.89263979E+02 F= -.10265969E+03 E0= -.10266421E+03  EK= 0.35580E+01 SP= 0.98E+01 SK= 0.27E-01
 bond charge predicted
 prediction of wavefunctions
       N       E                     dE             d eps       ncg     rms          rms(c)
DAV:   1    -0.102667435832E+03   -0.78054E-02   -0.25790E-03   180   0.227E-01    0.738E-03
RMM:   2    -0.102667589387E+03   -0.15355E-03   -0.15515E-03   120   0.111E-01    0.599E-03
RMM:   3    -0.102667607628E+03   -0.18241E-04   -0.17236E-04    68   0.385E-02
    837 T=   512. E= -.89263675E+02 F= -.10266761E+03 E0= -.10267220E+03  EK= 0.35087E+01 SP= 0.99E+01 SK= 0.18E-01
 bond charge predicted
 prediction of wavefunctions
       N       E                     dE             d eps       ncg     rms          rms(c)
DAV:   1    -0.102689018528E+03   -0.21429E-01   -0.21099E-03   144   0.193E-01    0.564E-03
RMM:   2    -0.102689070516E+03   -0.51988E-04   -0.53402E-04   120   0.688E-02
    838 T=   509. E= -.89263509E+02 F= -.10268907E+03 E0= -.10269384E+03  EK= 0.34858E+01 SP= 0.99E+01 SK= 0.98E-02
 bond charge predicted
 prediction of wavefunctions
       N       E                     dE             d eps       ncg     rms          rms(c)
DAV:   1    -0.102721450183E+03   -0.32432E-01   -0.33873E-03   168   0.225E-01    0.622E-03
RMM:   2    -0.102721594790E+03   -0.14461E-03   -0.14604E-03   120   0.107E-01    0.482E-03
RMM:   3    -0.102721611817E+03   -0.17027E-04   -0.15756E-04    68   0.361E-02
    839 T=   509. E= -.89263439E+02 F= -.10272161E+03 E0= -.10272660E+03  EK= 0.34870E+01 SP= 0.10E+02 SK= 0.42E-02
 bond charge predicted
 prediction of wavefunctions
       N       E                     dE             d eps       ncg     rms          rms(c)
DAV:   1    -0.102762109404E+03   -0.40515E-01   -0.34338E-03   192   0.186E-01    0.639E-03
RMM:   2    -0.102762164835E+03   -0.55431E-04   -0.56916E-04   118   0.606E-02
    840 T=   512. E= -.89263345E+02 F= -.10276216E+03 E0= -.10276737E+03  EK= 0.35091E+01 SP= 0.10E+02 SK= 0.10E-02
 bond charge predicted
 prediction of wavefunctions
       N       E                     dE             d eps       ncg     rms          rms(c)
DAV:   1    -0.102807405460E+03   -0.45296E-01   -0.58197E-03   216   0.216E-01    0.765E-03
RMM:   2    -0.102807537787E+03   -0.13233E-03   -0.13528E-03   120   0.103E-01    0.565E-03
RMM:   3    -0.102807553027E+03   -0.15240E-04   -0.14819E-04    70   0.349E-02
    841 T=   518. E= -.89263323E+02 F= -.10280755E+03 E0= -.10281295E+03  EK= 0.35483E+01 SP= 0.10E+02 SK= 0.55E-08
 bond charge predicted
 prediction of wavefunctions
       N       E                     dE             d eps       ncg     rms          rms(c)
DAV:   1    -0.102854138502E+03   -0.46601E-01   -0.67318E-03   168   0.198E-01    0.551E-03
RMM:   2    -0.102854217892E+03   -0.79390E-04   -0.80721E-04   120   0.767E-02
    842 T=   526. E= -.89263251E+02 F= -.10285422E+03 E0= -.10285978E+03  EK= 0.36007E+01 SP= 0.10E+02 SK= 0.84E-03
 bond charge predicted
 prediction of wavefunctions
       N       E                     dE             d eps       ncg     rms          rms(c)
DAV:   1    -0.102898489630E+03   -0.44351E-01   -0.63136E-03   192   0.224E-01    0.824E-03
RMM:   2    -0.102898639527E+03   -0.14990E-03   -0.15360E-03   120   0.110E-01    0.546E-03
RMM:   3    -0.102898654759E+03   -0.15232E-04   -0.13682E-04    73   0.350E-02
    843 T=   535. E= -.89263301E+02 F= -.10289865E+03 E0= -.10290438E+03  EK= 0.36619E+01 SP= 0.10E+02 SK= 0.30E-02
 bond charge predicted
 prediction of wavefunctions
       N       E                     dE             d eps       ncg     rms          rms(c)
DAV:   1    -0.102936600433E+03   -0.37961E-01   -0.63244E-03   192   0.196E-01    0.602E-03
RMM:   2    -0.102936666207E+03   -0.65774E-04   -0.67932E-04   119   0.676E-02
    844 T=   544. E= -.89263366E+02 F= -.10293667E+03 E0= -.10294258E+03  EK= 0.37267E+01 SP= 0.99E+01 SK= 0.60E-02
 bond charge predicted
 prediction of wavefunctions
       N       E                     dE             d eps       ncg     rms          rms(c)
DAV:   1    -0.102964271177E+03   -0.27671E-01   -0.73309E-03   204   0.221E-01    0.969E-03
RMM:   2    -0.102964408543E+03   -0.13737E-03   -0.14251E-03   120   0.108E-01    0.661E-03
RMM:   3    -0.102964421358E+03   -0.12815E-04   -0.12636E-04    68   0.340E-02
    845 T=   553. E= -.89263381E+02 F= -.10296442E+03 E0= -.10297063E+03  EK= 0.37903E+01 SP= 0.99E+01 SK= 0.93E-02
 bond charge predicted
 prediction of wavefunctions
       N       E                     dE             d eps       ncg     rms          rms(c)
DAV:   1    -0.102978457950E+03   -0.14049E-01   -0.67496E-03   180   0.199E-01    0.695E-03
RMM:   2    -0.102978533078E+03   -0.75128E-04   -0.78222E-04   120   0.739E-02
    846 T=   562. E= -.89263414E+02 F= -.10297853E+03 E0= -.10298519E+03  EK= 0.38480E+01 SP= 0.99E+01 SK= 0.13E-01
 bond charge predicted
 prediction of wavefunctions
       N       E                     dE             d eps       ncg     rms          rms(c)
DAV:   1    -0.102976222651E+03    0.22353E-02   -0.66864E-03   192   0.228E-01    0.123E-02
RMM:   2    -0.102976370634E+03   -0.14798E-03   -0.15830E-03   120   0.114E-01    0.768E-03
RMM:   3    -0.102976384107E+03   -0.13473E-04   -0.14204E-04    67   0.362E-02
    847 T=   569. E= -.89263322E+02 F= -.10297638E+03 E0= -.10298368E+03  EK= 0.38962E+01 SP= 0.98E+01 SK= 0.15E-01
 bond charge predicted
 prediction of wavefunctions
       N       E                     dE             d eps       ncg     rms          rms(c)
DAV:   1    -0.102956803578E+03    0.19567E-01   -0.65392E-03   192   0.206E-01    0.901E-03
RMM:   2    -0.102956869686E+03   -0.66108E-04   -0.72068E-04   120   0.739E-02
    848 T=   574. E= -.89263159E+02 F= -.10295687E+03 E0= -.10296496E+03  EK= 0.39326E+01 SP= 0.97E+01 SK= 0.18E-01
 bond charge predicted
 prediction of wavefunctions
       N       E                     dE             d eps       ncg     rms          rms(c)
DAV:   1    -0.102919324412E+03    0.37479E-01   -0.68600E-03   168   0.234E-01    0.130E-02
RMM:   2    -0.102919489130E+03   -0.16472E-03   -0.17659E-03   120   0.117E-01    0.787E-03
RMM:   3    -0.102919508763E+03   -0.19633E-04   -0.20711E-04    77   0.433E-02
    849 T=   577. E= -.89262783E+02 F= -.10291951E+03 E0= -.10292841E+03  EK= 0.39558E+01 SP= 0.97E+01 SK= 0.21E-01
 bond charge predicted
 prediction of wavefunctions
       N       E                     dE             d eps       ncg     rms          rms(c)
DAV:   1    -0.102866550732E+03    0.52938E-01   -0.69485E-03   216   0.206E-01    0.122E-02
RMM:   2    -0.102866607891E+03   -0.57159E-04   -0.68918E-04   120   0.726E-02
    850 T=   579. E= -.89262335E+02 F= -.10286661E+03 E0= -.10287619E+03  EK= 0.39673E+01 SP= 0.96E+01 SK= 0.23E-01
 bond charge predicted
 prediction of wavefunctions
       N       E                     dE             d eps       ncg     rms          rms(c)
DAV:   1    -0.102801949829E+03    0.64601E-01   -0.91944E-03   204   0.235E-01    0.128E-02
RMM:   2    -0.102802110838E+03   -0.16101E-03   -0.17272E-03   120   0.116E-01    0.706E-03
RMM:   3    -0.102802130216E+03   -0.19377E-04   -0.19826E-04    79   0.414E-02
    851 T=   580. E= -.89261731E+02 F= -.10280213E+03 E0= -.10281223E+03  EK= 0.39708E+01 SP= 0.95E+01 SK= 0.25E-01
 bond charge predicted
 prediction of wavefunctions
       N       E                     dE             d eps       ncg     rms          rms(c)
DAV:   1    -0.102730972137E+03    0.71139E-01   -0.86689E-03   168   0.211E-01    0.118E-02
RMM:   2    -0.102731062910E+03   -0.90773E-04   -0.10253E-03   120   0.837E-02    0.674E-03
RMM:   3    -0.102731078285E+03   -0.15375E-04   -0.18463E-04    84   0.363E-02
    852 T=   580. E= -.89261172E+02 F= -.10273108E+03 E0= -.10274155E+03  EK= 0.39708E+01 SP= 0.95E+01 SK= 0.27E-01
 bond charge predicted
 prediction of wavefunctions
       N       E                     dE             d eps       ncg     rms          rms(c)
DAV:   1    -0.102658954278E+03    0.72109E-01   -0.87843E-03   204   0.219E-01    0.105E-02
RMM:   2    -0.102659038053E+03   -0.83776E-04   -0.91664E-04   120   0.879E-02
    853 T=   580. E= -.89260589E+02 F= -.10265904E+03 E0= -.10266964E+03  EK= 0.39730E+01 SP= 0.94E+01 SK= 0.30E-01
 bond charge predicted
 prediction of wavefunctions
       N       E                     dE             d eps       ncg     rms          rms(c)
DAV:   1    -0.102590813697E+03    0.68141E-01   -0.64474E-03   192   0.250E-01    0.116E-02
RMM:   2    -0.102590989674E+03   -0.17598E-03   -0.18472E-03   120   0.124E-01    0.773E-03
RMM:   3    -0.102591012342E+03   -0.22668E-04   -0.23927E-04    91   0.456E-02
    854 T=   581. E= -.89260070E+02 F= -.10259101E+03 E0= -.10260143E+03  EK= 0.39824E+01 SP= 0.93E+01 SK= 0.32E-01
 bond charge predicted
 prediction of wavefunctions
       N       E                     dE             d eps       ncg     rms          rms(c)
DAV:   1    -0.102531414474E+03    0.59575E-01   -0.49907E-03   168   0.219E-01    0.980E-03
RMM:   2    -0.102531497020E+03   -0.82546E-04   -0.88549E-04   120   0.788E-02
    855 T=   584. E= -.89259387E+02 F= -.10253150E+03 E0= -.10254147E+03  EK= 0.40036E+01 SP= 0.92E+01 SK= 0.35E-01
 bond charge predicted
 prediction of wavefunctions
       N       E                     dE             d eps       ncg     rms          rms(c)
DAV:   1    -0.102483811884E+03    0.47603E-01   -0.62452E-03   204   0.260E-01    0.134E-02
RMM:   2    -0.102484030288E+03   -0.21840E-03   -0.22733E-03   120   0.129E-01    0.842E-03
RMM:   3    -0.102484049266E+03   -0.18978E-04   -0.18754E-04    85   0.394E-02
    856 T=   590. E= -.89258690E+02 F= -.10248405E+03 E0= -.10249357E+03  EK= 0.40398E+01 SP= 0.91E+01 SK= 0.36E-01
Information: wavefunction orthogonal band   60  0.5747
 bond charge predicted
 prediction of wavefunctions
       N       E                     dE             d eps       ncg     rms          rms(c)
DAV:   1    -0.102450302689E+03    0.33728E-01   -0.85051E-03   156   0.233E-01    0.708E-03
RMM:   2    -0.102450412076E+03   -0.10939E-03   -0.11210E-03   120   0.836E-02    0.444E-03
RMM:   3    -0.102450434378E+03   -0.22301E-04   -0.21620E-04    80   0.386E-02
    857 T=   597. E= -.89258657E+02 F= -.10245043E+03 E0= -.10245955E+03  EK= 0.40916E+01 SP= 0.91E+01 SK= 0.37E-01
 bond charge predicted
 prediction of wavefunctions
       N       E                     dE             d eps       ncg     rms          rms(c)
DAV:   1    -0.102429458574E+03    0.20954E-01   -0.69223E-03   192   0.244E-01    0.946E-03
RMM:   2    -0.102429601662E+03   -0.14309E-03   -0.14706E-03   120   0.103E-01    0.583E-03
RMM:   3    -0.102429620713E+03   -0.19051E-04   -0.19073E-04    87   0.376E-02
    858 T=   607. E= -.89258809E+02 F= -.10242962E+03 E0= -.10243838E+03  EK= 0.41575E+01 SP= 0.90E+01 SK= 0.37E-01
 bond charge predicted
 prediction of wavefunctions
       N       E                     dE             d eps       ncg     rms          rms(c)
DAV:   1    -0.102419012597E+03    0.10589E-01   -0.84417E-03   168   0.238E-01    0.618E-03
RMM:   2    -0.102419130368E+03   -0.11777E-03   -0.11875E-03   120   0.101E-01    0.462E-03
RMM:   3    -0.102419146200E+03   -0.15832E-04   -0.15085E-04    77   0.364E-02
    859 T=   618. E= -.89259168E+02 F= -.10241915E+03 E0= -.10242764E+03  EK= 0.42337E+01 SP= 0.89E+01 SK= 0.35E-01
 bond charge predicted
 prediction of wavefunctions
       N       E                     dE             d eps       ncg     rms          rms(c)
DAV:   1    -0.102414255516E+03    0.48749E-02   -0.77171E-03   192   0.238E-01    0.753E-03
RMM:   2    -0.102414353849E+03   -0.98333E-04   -0.99855E-04   120   0.951E-02
    860 T=   630. E= -.89259445E+02 F= -.10241435E+03 E0= -.10242269E+03  EK= 0.43139E+01 SP= 0.88E+01 SK= 0.31E-01
 bond charge predicted
 prediction of wavefunctions
       N       E                     dE             d eps       ncg     rms          rms(c)
DAV:   1    -0.102409082314E+03    0.51732E-02   -0.88852E-03   180   0.264E-01    0.827E-03
RMM:   2    -0.102409268584E+03   -0.18627E-03   -0.18740E-03   120   0.127E-01    0.677E-03
RMM:   3    -0.102409292250E+03   -0.23666E-04   -0.22512E-04    84   0.443E-02
    861 T=   641. E= -.89259492E+02 F= -.10240929E+03 E0= -.10241760E+03  EK= 0.43900E+01 SP= 0.87E+01 SK= 0.27E-01
 bond charge predicted
 prediction of wavefunctions
       N       E                     dE             d eps       ncg     rms          rms(c)
DAV:   1    -0.102398828274E+03    0.10440E-01   -0.79108E-03   168   0.231E-01    0.639E-03
RMM:   2    -0.102398910474E+03   -0.82200E-04   -0.83128E-04   120   0.883E-02
    862 T=   650. E= -.89259481E+02 F= -.10239891E+03 E0= -.10240733E+03  EK= 0.44546E+01 SP= 0.87E+01 SK= 0.21E-01
 bond charge predicted
 prediction of wavefunctions
       N       E                     dE             d eps       ncg     rms          rms(c)
DAV:   1    -0.102378519355E+03    0.20309E-01   -0.86197E-03   192   0.278E-01    0.860E-03
RMM:   2    -0.102378742435E+03   -0.22308E-03   -0.22321E-03   120   0.138E-01    0.677E-03
RMM:   3    -0.102378761476E+03   -0.19041E-04   -0.16340E-04    71   0.389E-02
    863 T=   657. E= -.89259449E+02 F= -.10237876E+03 E0= -.10238739E+03  EK= 0.45009E+01 SP= 0.86E+01 SK= 0.16E-01
 bond charge predicted
 prediction of wavefunctions
       N       E                     dE             d eps       ncg     rms          rms(c)
DAV:   1    -0.102345205234E+03    0.33537E-01   -0.70542E-03   192   0.221E-01    0.763E-03
RMM:   2    -0.102345253727E+03   -0.48493E-04   -0.50020E-04   120   0.677E-02
    864 T=   660. E= -.89259179E+02 F= -.10234525E+03 E0= -.10235410E+03  EK= 0.45238E+01 SP= 0.86E+01 SK= 0.10E-01
 bond charge predicted
 prediction of wavefunctions
       N       E                     dE             d eps       ncg     rms          rms(c)
DAV:   1    -0.102297513861E+03    0.47691E-01   -0.72878E-03   180   0.273E-01    0.761E-03
RMM:   2    -0.102297711707E+03   -0.19785E-03   -0.19853E-03   120   0.133E-01    0.514E-03
RMM:   3    -0.102297731439E+03   -0.19732E-04   -0.17677E-04    70   0.403E-02
    865 T=   660. E= -.89258750E+02 F= -.10229773E+03 E0= -.10230671E+03  EK= 0.45215E+01 SP= 0.85E+01 SK= 0.62E-02
 bond charge predicted
 prediction of wavefunctions
       N       E                     dE             d eps       ncg     rms          rms(c)
DAV:   1    -0.102237447908E+03    0.60264E-01   -0.53891E-03   132   0.221E-01    0.733E-03
RMM:   2    -0.102237522894E+03   -0.74987E-04   -0.76685E-04   120   0.809E-02
    866 T=   656. E= -.89258176E+02 F= -.10223752E+03 E0= -.10224650E+03  EK= 0.44952E+01 SP= 0.85E+01 SK= 0.31E-02
 bond charge predicted
 prediction of wavefunctions
       N       E                     dE             d eps       ncg     rms          rms(c)
DAV:   1    -0.102166967362E+03    0.70481E-01   -0.59771E-03   156   0.269E-01    0.802E-03
RMM:   2    -0.102167173375E+03   -0.20601E-03   -0.20706E-03   120   0.133E-01    0.610E-03
RMM:   3    -0.102167198755E+03   -0.25380E-04   -0.23555E-04    84   0.459E-02
    867 T=   649. E= -.89257270E+02 F= -.10216720E+03 E0= -.10217598E+03  EK= 0.44482E+01 SP= 0.85E+01 SK= 0.13E-02
 bond charge predicted
 prediction of wavefunctions
       N       E                     dE             d eps       ncg     rms          rms(c)
DAV:   1    -0.102091926717E+03    0.75247E-01   -0.45863E-03   132   0.221E-01    0.698E-03
RMM:   2    -0.102092008788E+03   -0.82072E-04   -0.83452E-04   120   0.888E-02
    868 T=   640. E= -.89256323E+02 F= -.10209201E+03 E0= -.10210045E+03  EK= 0.43869E+01 SP= 0.84E+01 SK= 0.33E-03
 bond charge predicted
 prediction of wavefunctions
       N       E                     dE             d eps       ncg     rms          rms(c)
DAV:   1    -0.102016586835E+03    0.75340E-01   -0.56612E-03   168   0.269E-01    0.909E-03
RMM:   2    -0.102016796185E+03   -0.20935E-03   -0.21150E-03   120   0.134E-01    0.689E-03
RMM:   3    -0.102016818499E+03   -0.22314E-04   -0.20658E-04    75   0.435E-02
    869 T=   630. E= -.89255480E+02 F= -.10201682E+03 E0= -.10202484E+03  EK= 0.43179E+01 SP= 0.84E+01 SK= 0.18E-04
 bond charge predicted
 prediction of wavefunctions
       N       E                     dE             d eps       ncg     rms          rms(c)
DAV:   1    -0.101946183095E+03    0.70613E-01   -0.45452E-03   156   0.211E-01    0.734E-03
RMM:   2    -0.101946244261E+03   -0.61166E-04   -0.63610E-04   120   0.744E-02
    870 T=   620. E= -.89254747E+02 F= -.10194624E+03 E0= -.10195384E+03  EK= 0.42478E+01 SP= 0.84E+01 SK= 0.31E-04
 bond charge predicted
 prediction of wavefunctions
       N       E                     dE             d eps       ncg     rms          rms(c)
DAV:   1    -0.101884826986E+03    0.61356E-01   -0.59983E-03   192   0.253E-01    0.965E-03
RMM:   2    -0.101885019454E+03   -0.19247E-03   -0.19599E-03   120   0.125E-01    0.630E-03
RMM:   3    -0.101885038603E+03   -0.19148E-04   -0.18378E-04    80   0.391E-02
    871 T=   611. E= -.89254231E+02 F= -.10188504E+03 E0= -.10189224E+03  EK= 0.41831E+01 SP= 0.84E+01 SK= 0.14E-03
Information: wavefunction orthogonal band   60  0.7205
 bond charge predicted
 prediction of wavefunctions
       N       E                     dE             d eps       ncg     rms          rms(c)
DAV:   1    -0.101835257290E+03    0.49762E-01   -0.55574E-03   192   0.215E-01    0.656E-03
RMM:   2    -0.101835374116E+03   -0.11683E-03   -0.11933E-03   120   0.838E-02    0.413E-03
RMM:   3    -0.101835393706E+03   -0.19591E-04   -0.19290E-04    84   0.365E-02
    872 T=   603. E= -.89253927E+02 F= -.10183539E+03 E0= -.10184225E+03  EK= 0.41278E+01 SP= 0.85E+01 SK= 0.21E-03
 bond charge predicted
 prediction of wavefunctions
       N       E                     dE             d eps       ncg     rms          rms(c)
DAV:   1    -0.101798019342E+03    0.37355E-01   -0.48799E-03   228   0.225E-01    0.949E-03
RMM:   2    -0.101798111548E+03   -0.92206E-04   -0.98227E-04   120   0.941E-02
    873 T=   596. E= -.89253628E+02 F= -.10179811E+03 E0= -.10180466E+03  EK= 0.40842E+01 SP= 0.85E+01 SK= 0.21E-03
 bond charge predicted
 prediction of wavefunctions
       N       E                     dE             d eps       ncg     rms          rms(c)
DAV:   1    -0.101772296177E+03    0.25723E-01   -0.52883E-03   168   0.257E-01    0.723E-03
RMM:   2    -0.101772486077E+03   -0.18990E-03   -0.19201E-03   120   0.131E-01    0.553E-03
RMM:   3    -0.101772508581E+03   -0.22504E-04   -0.20885E-04    82   0.435E-02
    874 T=   592. E= -.89253260E+02 F= -.10177251E+03 E0= -.10177880E+03  EK= 0.40530E+01 SP= 0.85E+01 SK= 0.16E-03
 bond charge predicted
 prediction of wavefunctions
       N       E                     dE             d eps       ncg     rms          rms(c)
DAV:   1    -0.101756949852E+03    0.15536E-01   -0.36174E-03   144   0.213E-01    0.771E-03
RMM:   2    -0.101757017166E+03   -0.67314E-04   -0.71108E-04   120   0.743E-02
    875 T=   589. E= -.89252971E+02 F= -.10175702E+03 E0= -.10176315E+03  EK= 0.40330E+01 SP= 0.85E+01 SK= 0.83E-04
 bond charge predicted
 prediction of wavefunctions
       N       E                     dE             d eps       ncg     rms          rms(c)
DAV:   1    -0.101749503481E+03    0.74464E-02   -0.48757E-03   204   0.248E-01    0.766E-03
RMM:   2    -0.101749676959E+03   -0.17348E-03   -0.17594E-03   120   0.120E-01    0.558E-03
RMM:   3    -0.101749692331E+03   -0.15373E-04   -0.13954E-04    67   0.358E-02
    876 T=   587. E= -.89252810E+02 F= -.10174969E+03 E0= -.10175579E+03  EK= 0.40227E+01 SP= 0.85E+01 SK= 0.24E-04
 bond charge predicted
 prediction of wavefunctions
       N       E                     dE             d eps       ncg     rms          rms(c)
DAV:   1    -0.101748402352E+03    0.12746E-02   -0.48570E-03   192   0.207E-01    0.677E-03
RMM:   2    -0.101748453109E+03   -0.50757E-04   -0.53974E-04   120   0.606E-02
    877 T=   587. E= -.89252618E+02 F= -.10174845E+03 E0= -.10175465E+03  EK= 0.40205E+01 SP= 0.85E+01 SK= 0.13E-06
 bond charge predicted
 prediction of wavefunctions
       N       E                     dE             d eps       ncg     rms          rms(c)
DAV:   1    -0.101751112869E+03   -0.27105E-02   -0.65119E-03   180   0.241E-01    0.710E-03
RMM:   2    -0.101751278088E+03   -0.16522E-03   -0.16647E-03   120   0.117E-01    0.553E-03
RMM:   3    -0.101751296320E+03   -0.18232E-04   -0.17095E-04    73   0.387E-02
    878 T=   587. E= -.89252525E+02 F= -.10175130E+03 E0= -.10175768E+03  EK= 0.40243E+01 SP= 0.85E+01 SK= 0.17E-04
 bond charge predicted
 prediction of wavefunctions
       N       E                     dE             d eps       ncg     rms          rms(c)
DAV:   1    -0.101756067599E+03   -0.47895E-02   -0.63619E-03   168   0.211E-01    0.735E-03
RMM:   2    -0.101756147506E+03   -0.79907E-04   -0.83159E-04   120   0.778E-02
    879 T=   589. E= -.89252286E+02 F= -.10175615E+03 E0= -.10176275E+03  EK= 0.40321E+01 SP= 0.85E+01 SK= 0.68E-04
 bond charge predicted
 prediction of wavefunctions
       N       E                     dE             d eps       ncg     rms          rms(c)
DAV:   1    -0.101762225672E+03   -0.61581E-02   -0.85257E-03   216   0.245E-01    0.786E-03
RMM:   2    -0.101762394919E+03   -0.16925E-03   -0.17246E-03   120   0.121E-01    0.644E-03
RMM:   3    -0.101762410939E+03   -0.16020E-04   -0.15300E-04    69   0.382E-02
    880 T=   590. E= -.89252175E+02 F= -.10176241E+03 E0= -.10176920E+03  EK= 0.40429E+01 SP= 0.85E+01 SK= 0.14E-03
 bond charge predicted
 prediction of wavefunctions
       N       E                     dE             d eps       ncg     rms          rms(c)
DAV:   1    -0.101769740097E+03   -0.73452E-02   -0.80294E-03   192   0.212E-01    0.626E-03
RMM:   2    -0.101769819360E+03   -0.79263E-04   -0.81476E-04   120   0.751E-02
    881 T=   592. E= -.89252021E+02 F= -.10176982E+03 E0= -.10177674E+03  EK= 0.40565E+01 SP= 0.85E+01 SK= 0.22E-03
 bond charge predicted
 prediction of wavefunctions
       N       E                     dE             d eps       ncg     rms          rms(c)
DAV:   1    -0.101777996210E+03   -0.82561E-02   -0.95269E-03   180   0.243E-01    0.102E-02
RMM:   2    -0.101778169678E+03   -0.17347E-03   -0.18104E-03   120   0.123E-01    0.713E-03
RMM:   3    -0.101778184994E+03   -0.15317E-04   -0.15551E-04    70   0.380E-02
    882 T=   594. E= -.89251829E+02 F= -.10177818E+03 E0= -.10178514E+03  EK= 0.40721E+01 SP= 0.85E+01 SK= 0.29E-03
 bond charge predicted
 prediction of wavefunctions
       N       E                     dE             d eps       ncg     rms          rms(c)
DAV:   1    -0.101787101936E+03   -0.89323E-02   -0.86193E-03   180   0.211E-01    0.629E-03
RMM:   2    -0.101787180772E+03   -0.78836E-04   -0.81469E-04   120   0.776E-02
    883 T=   597. E= -.89251492E+02 F= -.10178718E+03 E0= -.10179406E+03  EK= 0.40894E+01 SP= 0.84E+01 SK= 0.33E-03
 bond charge predicted
 prediction of wavefunctions
       N       E                     dE             d eps       ncg     rms          rms(c)
DAV:   1    -0.101796800117E+03   -0.96982E-02   -0.90463E-03   168   0.243E-01    0.126E-02
RMM:   2    -0.101796973586E+03   -0.17347E-03   -0.18670E-03   120   0.123E-01    0.765E-03
RMM:   3    -0.101796995516E+03   -0.21930E-04   -0.24832E-04    87   0.477E-02
    884 T=   600. E= -.89251308E+02 F= -.10179700E+03 E0= -.10180371E+03  EK= 0.41077E+01 SP= 0.84E+01 SK= 0.34E-03
 bond charge predicted
 prediction of wavefunctions
       N       E                     dE             d eps       ncg     rms          rms(c)
DAV:   1    -0.101806993814E+03   -0.10020E-01   -0.90795E-03   192   0.214E-01    0.885E-03
RMM:   2    -0.101807072503E+03   -0.78689E-04   -0.85175E-04   120   0.805E-02
    885 T=   602. E= -.89250952E+02 F= -.10180707E+03 E0= -.10181350E+03  EK= 0.41263E+01 SP= 0.84E+01 SK= 0.32E-03
 bond charge predicted
 prediction of wavefunctions
       N       E                     dE             d eps       ncg     rms          rms(c)
DAV:   1    -0.101816605432E+03   -0.96116E-02   -0.96497E-03   216   0.243E-01    0.156E-02
RMM:   2    -0.101816754061E+03   -0.14863E-03   -0.17055E-03   120   0.122E-01    0.908E-03
RMM:   3    -0.101816767374E+03   -0.13313E-04   -0.17894E-04    70   0.408E-02
    886 T=   605. E= -.89250710E+02 F= -.10181677E+03 E0= -.10182280E+03  EK= 0.41439E+01 SP= 0.84E+01 SK= 0.26E-03
 bond charge predicted
 prediction of wavefunctions
       N       E                     dE             d eps       ncg     rms          rms(c)
DAV:   1    -0.101824009121E+03   -0.72551E-02   -0.90143E-03   204   0.215E-01    0.132E-02
RMM:   2    -0.101824063801E+03   -0.54681E-04   -0.69533E-04   120   0.772E-02
    887 T=   607. E= -.89250413E+02 F= -.10182406E+03 E0= -.10182962E+03  EK= 0.41582E+01 SP= 0.84E+01 SK= 0.18E-03
 bond charge predicted
 prediction of wavefunctions
       N       E                     dE             d eps       ncg     rms          rms(c)
DAV:   1    -0.101827101552E+03   -0.30924E-02   -0.87842E-03   132   0.246E-01    0.108E-02
RMM:   2    -0.101827255706E+03   -0.15415E-03   -0.16362E-03   120   0.117E-01    0.552E-03
RMM:   3    -0.101827275719E+03   -0.20013E-04   -0.20126E-04    82   0.431E-02
    888 T=   608. E= -.89250213E+02 F= -.10182728E+03 E0= -.10183237E+03  EK= 0.41670E+01 SP= 0.84E+01 SK= 0.10E-03
 bond charge predicted
 prediction of wavefunctions
       N       E                     dE             d eps       ncg     rms          rms(c)
DAV:   1    -0.101824635605E+03    0.26201E-02   -0.80821E-03   156   0.218E-01    0.103E-02
RMM:   2    -0.101824708278E+03   -0.72673E-04   -0.81169E-04   120   0.810E-02
    889 T=   608. E= -.89249882E+02 F= -.10182471E+03 E0= -.10182939E+03  EK= 0.41686E+01 SP= 0.84E+01 SK= 0.42E-04
 bond charge predicted
 prediction of wavefunctions
       N       E                     dE             d eps       ncg     rms          rms(c)
DAV:   1    -0.101814817375E+03    0.98182E-02   -0.85415E-03   192   0.252E-01    0.103E-02
RMM:   2    -0.101814992685E+03   -0.17531E-03   -0.18283E-03   120   0.121E-01    0.652E-03
RMM:   3    -0.101815014029E+03   -0.21343E-04   -0.21301E-04    75   0.431E-02
    890 T=   607. E= -.89249502E+02 F= -.10181501E+03 E0= -.10181940E+03  EK= 0.41614E+01 SP= 0.84E+01 SK= 0.89E-05
 bond charge predicted
 prediction of wavefunctions
       N       E                     dE             d eps       ncg     rms          rms(c)
DAV:   1    -0.101797170583E+03    0.17822E-01   -0.75786E-03   204   0.224E-01    0.810E-03
RMM:   2    -0.101797254541E+03   -0.83959E-04   -0.88616E-04   120   0.816E-02
    891 T=   605. E= -.89249281E+02 F= -.10179725E+03 E0= -.10180147E+03  EK= 0.41446E+01 SP= 0.84E+01 SK= 0.25E-07
Information: wavefunction orthogonal band   60  0.8854
 bond charge predicted
 prediction of wavefunctions
       N       E                     dE             d eps       ncg     rms          rms(c)
DAV:   1    -0.101770622083E+03    0.26548E-01   -0.78457E-03   180   0.259E-01    0.114E-02
RMM:   2    -0.101770793351E+03   -0.17127E-03   -0.18039E-03   120   0.124E-01    0.657E-03
RMM:   3    -0.101770813229E+03   -0.19878E-04   -0.20241E-04    79   0.433E-02
    892 T=   601. E= -.89249012E+02 F= -.10177081E+03 E0= -.10177504E+03  EK= 0.41181E+01 SP= 0.84E+01 SK= 0.22E-05
 bond charge predicted
 prediction of wavefunctions
       N       E                     dE             d eps       ncg     rms          rms(c)
DAV:   1    -0.101735711993E+03    0.35081E-01   -0.70522E-03   216   0.230E-01    0.844E-03
RMM:   2    -0.101735795514E+03   -0.83521E-04   -0.88950E-04   120   0.827E-02
    893 T=   596. E= -.89248561E+02 F= -.10173580E+03 E0= -.10174022E+03  EK= 0.40829E+01 SP= 0.84E+01 SK= 0.20E-05
 bond charge predicted
 prediction of wavefunctions
       N       E                     dE             d eps       ncg     rms          rms(c)
DAV:   1    -0.101693307515E+03    0.42404E-01   -0.88745E-03   192   0.263E-01    0.124E-02
RMM:   2    -0.101693485727E+03   -0.17821E-03   -0.19137E-03   120   0.128E-01    0.706E-03
RMM:   3    -0.101693504569E+03   -0.18842E-04   -0.19925E-04    79   0.436E-02
    894 T=   590. E= -.89248075E+02 F= -.10169350E+03 E0= -.10169833E+03  EK= 0.40409E+01 SP= 0.84E+01 SK= 0.64E-06
 bond charge predicted
 prediction of wavefunctions
       N       E                     dE             d eps       ncg     rms          rms(c)
DAV:   1    -0.101646389287E+03    0.47096E-01   -0.72383E-03   216   0.238E-01    0.103E-02
RMM:   2    -0.101646470785E+03   -0.81498E-04   -0.90527E-04   120   0.868E-02
    895 T=   583. E= -.89247529E+02 F= -.10164647E+03 E0= -.10165181E+03  EK= 0.39958E+01 SP= 0.84E+01 SK= 0.30E-04
 bond charge predicted
 prediction of wavefunctions
       N       E                     dE             d eps       ncg     rms          rms(c)
DAV:   1    -0.101597728616E+03    0.48661E-01   -0.69192E-03   168   0.268E-01    0.150E-02
RMM:   2    -0.101597924169E+03   -0.19555E-03   -0.21511E-03   120   0.131E-01    0.794E-03
RMM:   3    -0.101597946858E+03   -0.22689E-04   -0.24970E-04    96   0.478E-02
    896 T=   577. E= -.89246818E+02 F= -.10159795E+03 E0= -.10160360E+03  EK= 0.39520E+01 SP= 0.84E+01 SK= 0.16E-03
 bond charge predicted
 prediction of wavefunctions
       N       E                     dE             d eps       ncg     rms          rms(c)
DAV:   1    -0.101551571129E+03    0.46353E-01   -0.66555E-03   228   0.231E-01    0.105E-02
RMM:   2    -0.101551639787E+03   -0.68659E-04   -0.76894E-04   120   0.800E-02
    897 T=   571. E= -.89246123E+02 F= -.10155164E+03 E0= -.10155737E+03  EK= 0.39138E+01 SP= 0.84E+01 SK= 0.48E-03
 bond charge predicted
 prediction of wavefunctions
       N       E                     dE             d eps       ncg     rms          rms(c)
DAV:   1    -0.101511535821E+03    0.40035E-01   -0.71145E-03   204   0.256E-01    0.108E-02
RMM:   2    -0.101511703611E+03   -0.16779E-03   -0.17497E-03   120   0.121E-01    0.655E-03
RMM:   3    -0.101511722859E+03   -0.19248E-04   -0.18953E-04    73   0.414E-02
    898 T=   567. E= -.89245543E+02 F= -.10151172E+03 E0= -.10151743E+03  EK= 0.38863E+01 SP= 0.84E+01 SK= 0.11E-02
 bond charge predicted
 prediction of wavefunctions
       N       E                     dE             d eps       ncg     rms          rms(c)
DAV:   1    -0.101482190287E+03    0.29513E-01   -0.63014E-03   156   0.226E-01    0.110E-02
RMM:   2    -0.101482256056E+03   -0.65769E-04   -0.75373E-04   120   0.799E-02
    899 T=   565. E= -.89245072E+02 F= -.10148226E+03 E0= -.10148794E+03  EK= 0.38741E+01 SP= 0.84E+01 SK= 0.21E-02
 bond charge predicted
 prediction of wavefunctions
       N       E                     dE             d eps       ncg     rms          rms(c)
DAV:   1    -0.101466436767E+03    0.15754E-01   -0.62105E-03   168   0.258E-01    0.119E-02
RMM:   2    -0.101466609213E+03   -0.17245E-03   -0.18155E-03   120   0.124E-01    0.709E-03
RMM:   3    -0.101466629691E+03   -0.20478E-04   -0.21310E-04    87   0.440E-02
    900 T=   566. E= -.89244680E+02 F= -.10146663E+03 E0= -.10147227E+03  EK= 0.38810E+01 SP= 0.83E+01 SK= 0.34E-02
 bond charge predicted
 prediction of wavefunctions
       N       E                     dE             d eps       ncg     rms          rms(c)
DAV:   1    -0.101466849676E+03   -0.24046E-03   -0.51916E-03   156   0.223E-01    0.773E-03
RMM:   2    -0.101466916008E+03   -0.66332E-04   -0.71289E-04   120   0.780E-02
    901 T=   571. E= -.89244163E+02 F= -.10146692E+03 E0= -.10147239E+03  EK= 0.39092E+01 SP= 0.83E+01 SK= 0.49E-02
 bond charge predicted
 prediction of wavefunctions
       N       E                     dE             d eps       ncg     rms          rms(c)
DAV:   1    -0.101483797686E+03   -0.16948E-01   -0.53698E-03   216   0.251E-01    0.108E-02
RMM:   2    -0.101483944377E+03   -0.14669E-03   -0.15628E-03   120   0.117E-01    0.722E-03
RMM:   3    -0.101483957437E+03   -0.13059E-04   -0.15047E-04    69   0.370E-02
    902 T=   578. E= -.89243929E+02 F= -.10148396E+03 E0= -.10148899E+03  EK= 0.39587E+01 SP= 0.83E+01 SK= 0.63E-02
 bond charge predicted
 prediction of wavefunctions
       N       E                     dE             d eps       ncg     rms          rms(c)
DAV:   1    -0.101516551578E+03   -0.32607E-01   -0.47929E-03   204   0.224E-01    0.699E-03
RMM:   2    -0.101516614529E+03   -0.62952E-04   -0.67165E-04   120   0.760E-02
    903 T=   588. E= -.89243815E+02 F= -.10151661E+03 E0= -.10152092E+03  EK= 0.40276E+01 SP= 0.82E+01 SK= 0.73E-02
 bond charge predicted
 prediction of wavefunctions
       N       E                     dE             d eps       ncg     rms          rms(c)
DAV:   1    -0.101562650701E+03   -0.46099E-01   -0.54600E-03   216   0.255E-01    0.159E-02
RMM:   2    -0.101562812200E+03   -0.16150E-03   -0.18270E-03   120   0.123E-01    0.968E-03
RMM:   3    -0.101562825599E+03   -0.13399E-04   -0.17911E-04    72   0.402E-02
    904 T=   600. E= -.89243584E+02 F= -.10156283E+03 E0= -.10156647E+03  EK= 0.41127E+01 SP= 0.82E+01 SK= 0.77E-02
 bond charge predicted
 prediction of wavefunctions
       N       E                     dE             d eps       ncg     rms          rms(c)
DAV:   1    -0.101618921001E+03   -0.56109E-01   -0.54191E-03   204   0.224E-01    0.735E-03
RMM:   2    -0.101619000723E+03   -0.79721E-04   -0.83514E-04   120   0.824E-02
    905 T=   614. E= -.89243554E+02 F= -.10161900E+03 E0= -.10162219E+03  EK= 0.42082E+01 SP= 0.82E+01 SK= 0.71E-02
Information: wavefunction orthogonal band   60  0.8889
 bond charge predicted
 prediction of wavefunctions
       N       E                     dE             d eps       ncg     rms          rms(c)
DAV:   1    -0.101679601860E+03   -0.60681E-01   -0.64832E-03   168   0.259E-01    0.115E-02
RMM:   2    -0.101679784920E+03   -0.18306E-03   -0.18985E-03   120   0.127E-01    0.749E-03
RMM:   3    -0.101679807605E+03   -0.22685E-04   -0.22577E-04    86   0.457E-02
    906 T=   629. E= -.89243543E+02 F= -.10167981E+03 E0= -.10168267E+03  EK= 0.43065E+01 SP= 0.81E+01 SK= 0.58E-02
 bond charge predicted
 prediction of wavefunctions
       N       E                     dE             d eps       ncg     rms          rms(c)
DAV:   1    -0.101740011834E+03   -0.60227E-01   -0.67410E-03   156   0.228E-01    0.769E-03
RMM:   2    -0.101740093834E+03   -0.82000E-04   -0.86256E-04   120   0.833E-02
    907 T=   642. E= -.89243327E+02 F= -.10174009E+03 E0= -.10174274E+03  EK= 0.44000E+01 SP= 0.81E+01 SK= 0.39E-02
 bond charge predicted
 prediction of wavefunctions
       N       E                     dE             d eps       ncg     rms          rms(c)
DAV:   1    -0.101794711253E+03   -0.54699E-01   -0.77485E-03   180   0.260E-01    0.111E-02
RMM:   2    -0.101794905173E+03   -0.19392E-03   -0.19882E-03   120   0.127E-01    0.748E-03
RMM:   3    -0.101794927007E+03   -0.21833E-04   -0.20779E-04    77   0.431E-02
    908 T=   654. E= -.89243133E+02 F= -.10179493E+03 E0= -.10179746E+03  EK= 0.44808E+01 SP= 0.81E+01 SK= 0.19E-02
 bond charge predicted
 prediction of wavefunctions
       N       E                     dE             d eps       ncg     rms          rms(c)
DAV:   1    -0.101839841832E+03   -0.44937E-01   -0.73109E-03   180   0.228E-01    0.737E-03
RMM:   2    -0.101839910809E+03   -0.68977E-04   -0.72811E-04   120   0.806E-02
    909 T=   663. E= -.89243062E+02 F= -.10183991E+03 E0= -.10184239E+03  EK= 0.45418E+01 SP= 0.81E+01 SK= 0.43E-03
 bond charge predicted
 prediction of wavefunctions
       N       E                     dE             d eps       ncg     rms          rms(c)
DAV:   1    -0.101871448127E+03   -0.31606E-01   -0.79210E-03   168   0.265E-01    0.115E-02
RMM:   2    -0.101871630619E+03   -0.18249E-03   -0.18887E-03   120   0.127E-01    0.763E-03
RMM:   3    -0.101871649003E+03   -0.18384E-04   -0.18256E-04    73   0.405E-02
    910 T=   668. E= -.89242848E+02 F= -.10187165E+03 E0= -.10187414E+03  EK= 0.45778E+01 SP= 0.81E+01 SK= 0.21E-04
 bond charge predicted
 prediction of wavefunctions
       N       E                     dE             d eps       ncg     rms          rms(c)
DAV:   1    -0.101888099664E+03   -0.16469E-01   -0.68633E-03   156   0.232E-01    0.717E-03
RMM:   2    -0.101888169701E+03   -0.70038E-04   -0.73724E-04   120   0.820E-02
    911 T=   669. E= -.89242500E+02 F= -.10188817E+03 E0= -.10189073E+03  EK= 0.45857E+01 SP= 0.81E+01 SK= 0.97E-03
 bond charge predicted
 prediction of wavefunctions
       N       E                     dE             d eps       ncg     rms          rms(c)
DAV:   1    -0.101888402938E+03   -0.30327E-03   -0.72584E-03   144   0.269E-01    0.115E-02
RMM:   2    -0.101888592939E+03   -0.19000E-03   -0.19642E-03   120   0.131E-01    0.751E-03
RMM:   3    -0.101888615859E+03   -0.22920E-04   -0.23053E-04    87   0.460E-02
    912 T=   666. E= -.89241977E+02 F= -.10188862E+03 E0= -.10189132E+03  EK= 0.45643E+01 SP= 0.81E+01 SK= 0.33E-02
 bond charge predicted
 prediction of wavefunctions
       N       E                     dE             d eps       ncg     rms          rms(c)
DAV:   1    -0.101873288450E+03    0.15304E-01   -0.68720E-03   144   0.234E-01    0.703E-03
RMM:   2    -0.101873369280E+03   -0.80830E-04   -0.83744E-04   120   0.863E-02
    913 T=   659. E= -.89241119E+02 F= -.10187337E+03 E0= -.10187630E+03  EK= 0.45153E+01 SP= 0.81E+01 SK= 0.67E-02
 bond charge predicted
 prediction of wavefunctions
       N       E                     dE             d eps       ncg     rms          rms(c)
DAV:   1    -0.101844260505E+03    0.29028E-01   -0.75101E-03   168   0.266E-01    0.134E-02
RMM:   2    -0.101844442025E+03   -0.18152E-03   -0.19188E-03   120   0.128E-01    0.868E-03
RMM:   3    -0.101844460784E+03   -0.18759E-04   -0.20514E-04    83   0.426E-02
    914 T=   648. E= -.89240252E+02 F= -.10184446E+03 E0= -.10184769E+03  EK= 0.44419E+01 SP= 0.82E+01 SK= 0.11E-01
 bond charge predicted
 prediction of wavefunctions
       N       E                     dE             d eps       ncg     rms          rms(c)
DAV:   1    -0.101804894790E+03    0.39547E-01   -0.63890E-03   180   0.232E-01    0.892E-03
RMM:   2    -0.101804964425E+03   -0.69635E-04   -0.74544E-04   120   0.821E-02
    915 T=   635. E= -.89239458E+02 F= -.10180496E+03 E0= -.10180853E+03  EK= 0.43498E+01 SP= 0.82E+01 SK= 0.14E-01
 bond charge predicted
 prediction of wavefunctions
       N       E                     dE             d eps       ncg     rms          rms(c)
DAV:   1    -0.101758188299E+03    0.46706E-01   -0.62458E-03   168   0.262E-01    0.132E-02
RMM:   2    -0.101758358490E+03   -0.17019E-03   -0.18072E-03   120   0.125E-01    0.803E-03
RMM:   3    -0.101758377572E+03   -0.19082E-04   -0.20268E-04    74   0.429E-02
    916 T=   620. E= -.89238590E+02 F= -.10175838E+03 E0= -.10176229E+03  EK= 0.42454E+01 SP= 0.83E+01 SK= 0.17E-01
 bond charge predicted
 prediction of wavefunctions
       N       E                     dE             d eps       ncg     rms          rms(c)
DAV:   1    -0.101708741830E+03    0.49617E-01   -0.49978E-03   132   0.227E-01    0.970E-03
RMM:   2    -0.101708808467E+03   -0.66637E-04   -0.72836E-04   120   0.804E-02
    917 T=   604. E= -.89237798E+02 F= -.10170881E+03 E0= -.10171303E+03  EK= 0.41359E+01 SP= 0.83E+01 SK= 0.18E-01
 bond charge predicted
 prediction of wavefunctions
       N       E                     dE             d eps       ncg     rms          rms(c)
DAV:   1    -0.101660567078E+03    0.48175E-01   -0.50106E-03   168   0.256E-01    0.127E-02
RMM:   2    -0.101660728997E+03   -0.16192E-03   -0.17315E-03   120   0.120E-01    0.727E-03
RMM:   3    -0.101660750222E+03   -0.21225E-04   -0.22377E-04    80   0.442E-02
    918 T=   588. E= -.89237109E+02 F= -.10166075E+03 E0= -.10166519E+03  EK= 0.40286E+01 SP= 0.84E+01 SK= 0.18E-01
 bond charge predicted
 prediction of wavefunctions
       N       E                     dE             d eps       ncg     rms          rms(c)
DAV:   1    -0.101618179411E+03    0.42550E-01   -0.38045E-03   192   0.224E-01    0.968E-03
RMM:   2    -0.101618262646E+03   -0.83235E-04   -0.89551E-04   120   0.807E-02
    919 T=   574. E= -.89236562E+02 F= -.10161826E+03 E0= -.10162286E+03  EK= 0.39300E+01 SP= 0.84E+01 SK= 0.16E-01
 bond charge predicted
 prediction of wavefunctions
       N       E                     dE             d eps       ncg     rms          rms(c)
DAV:   1    -0.101584794561E+03    0.33385E-01   -0.59149E-03   180   0.251E-01    0.117E-02
RMM:   2    -0.101584974878E+03   -0.18032E-03   -0.18857E-03   120   0.121E-01    0.747E-03
RMM:   3    -0.101584998377E+03   -0.23499E-04   -0.23879E-04    78   0.445E-02
    920 T=   561. E= -.89236067E+02 F= -.10158500E+03 E0= -.10158973E+03  EK= 0.38460E+01 SP= 0.85E+01 SK= 0.13E-01
Information: wavefunction orthogonal band   60  0.7705
 bond charge predicted
 prediction of wavefunctions
       N       E                     dE             d eps       ncg     rms          rms(c)
DAV:   1    -0.101564100485E+03    0.20874E-01   -0.37414E-03   180   0.223E-01    0.884E-03
RMM:   2    -0.101564176213E+03   -0.75728E-04   -0.81556E-04   120   0.792E-02
    921 T=   552. E= -.89235668E+02 F= -.10156418E+03 E0= -.10156902E+03  EK= 0.37811E+01 SP= 0.85E+01 SK= 0.97E-02
 bond charge predicted
 prediction of wavefunctions
       N       E                     dE             d eps       ncg     rms          rms(c)
DAV:   1    -0.101557381949E+03    0.67185E-02   -0.49348E-03   192   0.247E-01    0.109E-02
RMM:   2    -0.101557537351E+03   -0.15540E-03   -0.16288E-03   120   0.117E-01    0.635E-03
RMM:   3    -0.101557556360E+03   -0.19009E-04   -0.18653E-04    78   0.413E-02
    922 T=   546. E= -.89235352E+02 F= -.10155756E+03 E0= -.10156249E+03  EK= 0.37382E+01 SP= 0.86E+01 SK= 0.63E-02
 bond charge predicted
 prediction of wavefunctions
       N       E                     dE             d eps       ncg     rms          rms(c)
DAV:   1    -0.101565071938E+03   -0.75346E-02   -0.40158E-03   216   0.218E-01    0.841E-03
RMM:   2    -0.101565131961E+03   -0.60023E-04   -0.65409E-04   120   0.741E-02
    923 T=   543. E= -.89234894E+02 F= -.10156513E+03 E0= -.10157015E+03  EK= 0.37181E+01 SP= 0.86E+01 SK= 0.34E-02
 bond charge predicted
 prediction of wavefunctions
       N       E                     dE             d eps       ncg     rms          rms(c)
DAV:   1    -0.101586109895E+03   -0.21038E-01   -0.40728E-03   168   0.246E-01    0.910E-03
RMM:   2    -0.101586256965E+03   -0.14707E-03   -0.15203E-03   120   0.114E-01    0.562E-03
RMM:   3    -0.101586275113E+03   -0.18148E-04   -0.17705E-04    73   0.398E-02
    924 T=   543. E= -.89234736E+02 F= -.10158628E+03 E0= -.10159137E+03  EK= 0.37200E+01 SP= 0.86E+01 SK= 0.14E-02
 bond charge predicted
 prediction of wavefunctions
       N       E                     dE             d eps       ncg     rms          rms(c)
DAV:   1    -0.101618606759E+03   -0.32350E-01   -0.39866E-03   192   0.218E-01    0.682E-03
RMM:   2    -0.101618664785E+03   -0.58026E-04   -0.61140E-04   120   0.702E-02
    925 T=   546. E= -.89234706E+02 F= -.10161866E+03 E0= -.10162385E+03  EK= 0.37414E+01 SP= 0.86E+01 SK= 0.27E-03
 bond charge predicted
 prediction of wavefunctions
       N       E                     dE             d eps       ncg     rms          rms(c)
DAV:   1    -0.101658882847E+03   -0.40276E-01   -0.43213E-03   180   0.246E-01    0.880E-03
RMM:   2    -0.101659036604E+03   -0.15376E-03   -0.15740E-03   120   0.114E-01    0.574E-03
RMM:   3    -0.101659058594E+03   -0.21989E-04   -0.21296E-04    81   0.430E-02
    926 T=   552. E= -.89234560E+02 F= -.10165906E+03 E0= -.10166436E+03  EK= 0.37791E+01 SP= 0.86E+01 SK= 0.61E-05
 bond charge predicted
 prediction of wavefunctions
       N       E                     dE             d eps       ncg     rms          rms(c)
DAV:   1    -0.101703680219E+03   -0.44644E-01   -0.40209E-03   156   0.221E-01    0.641E-03
RMM:   2    -0.101703738357E+03   -0.58139E-04   -0.60796E-04   120   0.715E-02
    927 T=   559. E= -.89234414E+02 F= -.10170374E+03 E0= -.10170921E+03  EK= 0.38284E+01 SP= 0.86E+01 SK= 0.36E-03
 bond charge predicted
 prediction of wavefunctions
       N       E                     dE             d eps       ncg     rms          rms(c)
DAV:   1    -0.101748351158E+03   -0.44671E-01   -0.49050E-03   192   0.248E-01    0.828E-03
RMM:   2    -0.101748492683E+03   -0.14153E-03   -0.14448E-03   120   0.109E-01    0.596E-03
RMM:   3    -0.101748508797E+03   -0.16114E-04   -0.15827E-04    70   0.361E-02
    928 T=   567. E= -.89234249E+02 F= -.10174851E+03 E0= -.10175422E+03  EK= 0.38842E+01 SP= 0.86E+01 SK= 0.11E-02
 bond charge predicted
 prediction of wavefunctions
       N       E                     dE             d eps       ncg     rms          rms(c)
DAV:   1    -0.101789982828E+03   -0.41490E-01   -0.43025E-03   144   0.226E-01    0.576E-03
RMM:   2    -0.101790034202E+03   -0.51373E-04   -0.53315E-04   120   0.682E-02
    929 T=   575. E= -.89234204E+02 F= -.10179003E+03 E0= -.10179609E+03  EK= 0.39420E+01 SP= 0.86E+01 SK= 0.18E-02
 bond charge predicted
 prediction of wavefunctions
       N       E                     dE             d eps       ncg     rms          rms(c)
DAV:   1    -0.101824893318E+03   -0.34910E-01   -0.47471E-03   192   0.254E-01    0.892E-03
RMM:   2    -0.101825034497E+03   -0.14118E-03   -0.14490E-03   120   0.113E-01    0.613E-03
RMM:   3    -0.101825052645E+03   -0.18148E-04   -0.18468E-04    75   0.402E-02
    930 T=   584. E= -.89233904E+02 F= -.10182505E+03 E0= -.10183151E+03  EK= 0.39976E+01 SP= 0.86E+01 SK= 0.25E-02
 bond charge predicted
 prediction of wavefunctions
       N       E                     dE             d eps       ncg     rms          rms(c)
DAV:   1    -0.101851912659E+03   -0.26878E-01   -0.45714E-03   204   0.230E-01    0.595E-03
RMM:   2    -0.101851971823E+03   -0.59164E-04   -0.61206E-04   120   0.737E-02
    931 T=   591. E= -.89233584E+02 F= -.10185197E+03 E0= -.10185884E+03  EK= 0.40480E+01 SP= 0.86E+01 SK= 0.30E-02
 bond charge predicted
 prediction of wavefunctions
       N       E                     dE             d eps       ncg     rms          rms(c)
DAV:   1    -0.101869963815E+03   -0.18051E-01   -0.47484E-03   180   0.256E-01    0.900E-03
RMM:   2    -0.101870109584E+03   -0.14577E-03   -0.14964E-03   120   0.115E-01    0.647E-03
RMM:   3    -0.101870127152E+03   -0.17567E-04   -0.17920E-04    72   0.394E-02
    932 T=   597. E= -.89233445E+02 F= -.10187013E+03 E0= -.10187731E+03  EK= 0.40911E+01 SP= 0.85E+01 SK= 0.32E-02
 bond charge predicted
 prediction of wavefunctions
       N       E                     dE             d eps       ncg     rms          rms(c)
DAV:   1    -0.101878837331E+03   -0.87277E-02   -0.41081E-03   144   0.233E-01    0.643E-03
RMM:   2    -0.101878900151E+03   -0.62820E-04   -0.65141E-04   120   0.759E-02
    933 T=   602. E= -.89233053E+02 F= -.10187890E+03 E0= -.10188611E+03  EK= 0.41256E+01 SP= 0.85E+01 SK= 0.31E-02
 bond charge predicted
 prediction of wavefunctions
       N       E                     dE             d eps       ncg     rms          rms(c)
DAV:   1    -0.101878919170E+03   -0.81839E-04   -0.38862E-03   192   0.263E-01    0.103E-02
RMM:   2    -0.101879086185E+03   -0.16702E-03   -0.17227E-03   120   0.122E-01    0.691E-03
RMM:   3    -0.101879104648E+03   -0.18463E-04   -0.18591E-04    74   0.411E-02
    934 T=   606. E= -.89232627E+02 F= -.10187910E+03 E0= -.10188598E+03  EK= 0.41512E+01 SP= 0.85E+01 SK= 0.29E-02
 bond charge predicted
 prediction of wavefunctions
       N       E                     dE             d eps       ncg     rms          rms(c)
DAV:   1    -0.101871755691E+03    0.73305E-02   -0.32459E-03   180   0.234E-01    0.803E-03
RMM:   2    -0.101871827829E+03   -0.72138E-04   -0.75920E-04   120   0.771E-02
    935 T=   608. E= -.89232156E+02 F= -.10187183E+03 E0= -.10187813E+03  EK= 0.41683E+01 SP= 0.85E+01 SK= 0.26E-02
 bond charge predicted
 prediction of wavefunctions
       N       E                     dE             d eps       ncg     rms          rms(c)
DAV:   1    -0.101858254220E+03    0.13501E-01   -0.43381E-03   192   0.263E-01    0.140E-02
RMM:   2    -0.101858428961E+03   -0.17474E-03   -0.18712E-03   120   0.124E-01    0.864E-03
RMM:   3    -0.101858449506E+03   -0.20545E-04   -0.22568E-04    84   0.444E-02
    936 T=   610. E= -.89231617E+02 F= -.10185845E+03 E0= -.10186427E+03  EK= 0.41778E+01 SP= 0.84E+01 SK= 0.22E-02
 bond charge predicted
 prediction of wavefunctions
       N       E                     dE             d eps       ncg     rms          rms(c)
DAV:   1    -0.101840718981E+03    0.17710E-01   -0.38803E-03   228   0.236E-01    0.775E-03
RMM:   2    -0.101840797169E+03   -0.78188E-04   -0.82369E-04   120   0.814E-02
    937 T=   610. E= -.89231071E+02 F= -.10184080E+03 E0= -.10184630E+03  EK= 0.41812E+01 SP= 0.84E+01 SK= 0.18E-02
 bond charge predicted
 prediction of wavefunctions
       N       E                     dE             d eps       ncg     rms          rms(c)
DAV:   1    -0.101821239440E+03    0.19480E-01   -0.45874E-03   168   0.261E-01    0.131E-02
RMM:   2    -0.101821411712E+03   -0.17227E-03   -0.18334E-03   120   0.123E-01    0.818E-03
RMM:   3    -0.101821431673E+03   -0.19962E-04   -0.21427E-04    77   0.432E-02
    938 T=   610. E= -.89230660E+02 F= -.10182143E+03 E0= -.10182675E+03  EK= 0.41807E+01 SP= 0.84E+01 SK= 0.15E-02
 bond charge predicted
 prediction of wavefunctions
       N       E                     dE             d eps       ncg     rms          rms(c)
DAV:   1    -0.101802485511E+03    0.18926E-01   -0.43792E-03   192   0.231E-01    0.925E-03
RMM:   2    -0.101802552027E+03   -0.66516E-04   -0.72091E-04   120   0.796E-02
    939 T=   610. E= -.89230104E+02 F= -.10180255E+03 E0= -.10180779E+03  EK= 0.41790E+01 SP= 0.84E+01 SK= 0.12E-02
 bond charge predicted
 prediction of wavefunctions
       N       E                     dE             d eps       ncg     rms          rms(c)
DAV:   1    -0.101786416215E+03    0.16069E-01   -0.52819E-03   144   0.263E-01    0.127E-02
RMM:   2    -0.101786599275E+03   -0.18306E-03   -0.19412E-03   120   0.128E-01    0.744E-03
RMM:   3    -0.101786619433E+03   -0.20158E-04   -0.20778E-04    86   0.432E-02
    940 T=   610. E= -.89229541E+02 F= -.10178662E+03 E0= -.10179186E+03  EK= 0.41782E+01 SP= 0.84E+01 SK= 0.89E-03
 bond charge predicted
 prediction of wavefunctions
       N       E                     dE             d eps       ncg     rms          rms(c)
DAV:   1    -0.101775778866E+03    0.10820E-01   -0.48019E-03   168   0.223E-01    0.990E-03
RMM:   2    -0.101775843644E+03   -0.64778E-04   -0.71757E-04   120   0.782E-02
    941 T=   610. E= -.89228964E+02 F= -.10177584E+03 E0= -.10178111E+03  EK= 0.41807E+01 SP= 0.84E+01 SK= 0.66E-03
 bond charge predicted
 prediction of wavefunctions
       N       E                     dE             d eps       ncg     rms          rms(c)
DAV:   1    -0.101772093488E+03    0.36854E-02   -0.56930E-03   192   0.255E-01    0.123E-02
RMM:   2    -0.101772259031E+03   -0.16554E-03   -0.17608E-03   120   0.124E-01    0.723E-03
RMM:   3    -0.101772278110E+03   -0.19079E-04   -0.19793E-04    76   0.425E-02
    942 T=   611. E= -.89228467E+02 F= -.10177228E+03 E0= -.10177760E+03  EK= 0.41884E+01 SP= 0.84E+01 SK= 0.45E-03
 bond charge predicted
 prediction of wavefunctions
       N       E                     dE             d eps       ncg     rms          rms(c)
DAV:   1    -0.101777770882E+03   -0.55119E-02   -0.51756E-03   168   0.219E-01    0.104E-02
RMM:   2    -0.101777837248E+03   -0.66365E-04   -0.74501E-04   120   0.794E-02
    943 T=   614. E= -.89228008E+02 F= -.10177784E+03 E0= -.10178323E+03  EK= 0.42030E+01 SP= 0.83E+01 SK= 0.26E-03
 bond charge predicted
 prediction of wavefunctions
       N       E                     dE             d eps       ncg     rms          rms(c)
DAV:   1    -0.101793365686E+03   -0.15595E-01   -0.60717E-03   144   0.252E-01    0.127E-02
RMM:   2    -0.101793540992E+03   -0.17531E-03   -0.18604E-03   120   0.125E-01    0.751E-03
RMM:   3    -0.101793561583E+03   -0.20591E-04   -0.21050E-04    82   0.436E-02
    944 T=   617. E= -.89227512E+02 F= -.10179356E+03 E0= -.10179907E+03  EK= 0.42253E+01 SP= 0.83E+01 SK= 0.10E-03
 bond charge predicted
 prediction of wavefunctions
       N       E                     dE             d eps       ncg     rms          rms(c)
DAV:   1    -0.101819919456E+03   -0.26378E-01   -0.57318E-03   168   0.216E-01    0.100E-02
RMM:   2    -0.101819989563E+03   -0.70107E-04   -0.77351E-04   120   0.822E-02
    945 T=   621. E= -.89227110E+02 F= -.10181999E+03 E0= -.10182564E+03  EK= 0.42551E+01 SP= 0.83E+01 SK= 0.67E-05
 bond charge predicted
 prediction of wavefunctions
       N       E                     dE             d eps       ncg     rms          rms(c)
DAV:   1    -0.101857037295E+03   -0.37118E-01   -0.68983E-03   180   0.250E-01    0.122E-02
RMM:   2    -0.101857204619E+03   -0.16732E-03   -0.17691E-03   120   0.124E-01    0.726E-03
RMM:   3    -0.101857224129E+03   -0.19510E-04   -0.20140E-04    74   0.432E-02
    946 T=   626. E= -.89226668E+02 F= -.10185722E+03 E0= -.10186305E+03  EK= 0.42918E+01 SP= 0.83E+01 SK= 0.45E-04
 bond charge predicted
 prediction of wavefunctions
       N       E                     dE             d eps       ncg     rms          rms(c)
DAV:   1    -0.101904631025E+03   -0.47426E-01   -0.69273E-03   144   0.211E-01    0.958E-03
RMM:   2    -0.101904693270E+03   -0.62245E-04   -0.69047E-04   120   0.769E-02
    947 T=   633. E= -.89226143E+02 F= -.10190469E+03 E0= -.10191072E+03  EK= 0.43339E+01 SP= 0.83E+01 SK= 0.33E-03
 bond charge predicted
 prediction of wavefunctions
       N       E                     dE             d eps       ncg     rms          rms(c)
DAV:   1    -0.101961273217E+03   -0.56642E-01   -0.85764E-03   180   0.247E-01    0.125E-02
RMM:   2    -0.101961436579E+03   -0.16336E-03   -0.17368E-03   120   0.121E-01    0.731E-03
RMM:   3    -0.101961455208E+03   -0.18629E-04   -0.19043E-04    70   0.416E-02
    948 T=   639. E= -.89225781E+02 F= -.10196146E+03 E0= -.10196768E+03  EK= 0.43790E+01 SP= 0.84E+01 SK= 0.10E-02
 bond charge predicted
 prediction of wavefunctions
       N       E                     dE             d eps       ncg     rms          rms(c)
DAV:   1    -0.102026377817E+03   -0.64941E-01   -0.86067E-03   168   0.212E-01    0.913E-03
RMM:   2    -0.102026446304E+03   -0.68487E-04   -0.74319E-04   120   0.797E-02
    949 T=   646. E= -.89225387E+02 F= -.10202645E+03 E0= -.10203284E+03  EK= 0.44248E+01 SP= 0.84E+01 SK= 0.24E-02
 bond charge predicted
 prediction of wavefunctions
       N       E                     dE             d eps       ncg     rms          rms(c)
DAV:   1    -0.102099170710E+03   -0.72793E-01   -0.98647E-03   168   0.252E-01    0.125E-02
RMM:   2    -0.102099343528E+03   -0.17282E-03   -0.18252E-03   120   0.124E-01    0.771E-03
RMM:   3    -0.102099364361E+03   -0.20833E-04   -0.21407E-04    74   0.446E-02
    950 T=   652. E= -.89225011E+02 F= -.10209936E+03 E0= -.10210588E+03  EK= 0.44697E+01 SP= 0.84E+01 SK= 0.46E-02
 bond charge predicted
 prediction of wavefunctions
       N       E                     dE             d eps       ncg     rms          rms(c)
DAV:   1    -0.102179368158E+03   -0.80025E-01   -0.89841E-03   168   0.217E-01    0.906E-03
RMM:   2    -0.102179438038E+03   -0.69879E-04   -0.75592E-04   120   0.807E-02
    951 T=   659. E= -.89224534E+02 F= -.10217944E+03 E0= -.10218596E+03  EK= 0.45117E+01 SP= 0.84E+01 SK= 0.79E-02
 bond charge predicted
 prediction of wavefunctions
       N       E                     dE             d eps       ncg     rms          rms(c)
DAV:   1    -0.102266064297E+03   -0.86696E-01   -0.94523E-03   168   0.258E-01    0.139E-02
RMM:   2    -0.102266236472E+03   -0.17218E-03   -0.18516E-03   120   0.125E-01    0.836E-03
RMM:   3    -0.102266254663E+03   -0.18191E-04   -0.19683E-04    72   0.426E-02
    952 T=   664. E= -.89224224E+02 F= -.10226625E+03 E0= -.10227259E+03  EK= 0.45487E+01 SP= 0.85E+01 SK= 0.13E-01
 bond charge predicted
 prediction of wavefunctions
       N       E                     dE             d eps       ncg     rms          rms(c)
DAV:   1    -0.102358461878E+03   -0.92225E-01   -0.79117E-03   168   0.224E-01    0.871E-03
RMM:   2    -0.102358530961E+03   -0.69083E-04   -0.74372E-04   120   0.801E-02
    953 T=   668. E= -.89223888E+02 F= -.10235853E+03 E0= -.10236439E+03  EK= 0.45786E+01 SP= 0.85E+01 SK= 0.19E-01
 bond charge predicted
 prediction of wavefunctions
       N       E                     dE             d eps       ncg     rms          rms(c)
DAV:   1    -0.102453987575E+03   -0.95526E-01   -0.75883E-03   192   0.265E-01    0.144E-02
RMM:   2    -0.102454160237E+03   -0.17266E-03   -0.18686E-03   120   0.128E-01    0.846E-03
RMM:   3    -0.102454179532E+03   -0.19296E-04   -0.21320E-04    76   0.446E-02
    954 T=   671. E= -.89223471E+02 F= -.10245418E+03 E0= -.10245932E+03  EK= 0.45984E+01 SP= 0.86E+01 SK= 0.27E-01
 bond charge predicted
 prediction of wavefunctions
       N       E                     dE             d eps       ncg     rms          rms(c)
DAV:   1    -0.102550136335E+03   -0.95976E-01   -0.58702E-03   132   0.234E-01    0.103E-02
RMM:   2    -0.102550210780E+03   -0.74445E-04   -0.82995E-04   120   0.842E-02
    955 T=   672. E= -.89223174E+02 F= -.10255021E+03 E0= -.10255462E+03  EK= 0.46045E+01 SP= 0.87E+01 SK= 0.37E-01
 bond charge predicted
 prediction of wavefunctions
       N       E                     dE             d eps       ncg     rms          rms(c)
DAV:   1    -0.102641910386E+03   -0.91774E-01   -0.61091E-03   180   0.272E-01    0.145E-02
RMM:   2    -0.102642091320E+03   -0.18093E-03   -0.19566E-03   120   0.128E-01    0.837E-03
RMM:   3    -0.102642111412E+03   -0.20091E-04   -0.21299E-04    76   0.437E-02
    956 T=   670. E= -.89222795E+02 F= -.10264211E+03 E0= -.10264596E+03  EK= 0.45927E+01 SP= 0.88E+01 SK= 0.48E-01
 bond charge predicted
 prediction of wavefunctions
       N       E                     dE             d eps       ncg     rms          rms(c)
DAV:   1    -0.102724561807E+03   -0.82470E-01   -0.45631E-03   156   0.237E-01    0.934E-03
RMM:   2    -0.102724637619E+03   -0.75811E-04   -0.81924E-04   120   0.851E-02
    957 T=   665. E= -.89222440E+02 F= -.10272464E+03 E0= -.10272812E+03  EK= 0.45585E+01 SP= 0.89E+01 SK= 0.60E-01
 bond charge predicted
 prediction of wavefunctions
       N       E                     dE             d eps       ncg     rms          rms(c)
DAV:   1    -0.102792159066E+03   -0.67597E-01   -0.50630E-03   192   0.277E-01    0.141E-02
RMM:   2    -0.102792347244E+03   -0.18818E-03   -0.20093E-03   120   0.131E-01    0.811E-03
RMM:   3    -0.102792368979E+03   -0.21735E-04   -0.22758E-04    80   0.459E-02
    958 T=   657. E= -.89221981E+02 F= -.10279237E+03 E0= -.10279568E+03  EK= 0.44984E+01 SP= 0.90E+01 SK= 0.73E-01
 bond charge predicted
 prediction of wavefunctions
       N       E                     dE             d eps       ncg     rms          rms(c)
DAV:   1    -0.102841397416E+03   -0.49050E-01   -0.37218E-03   180   0.238E-01    0.103E-02
RMM:   2    -0.102841473843E+03   -0.76426E-04   -0.84776E-04   120   0.877E-02
    959 T=   644. E= -.89221367E+02 F= -.10284147E+03 E0= -.10284476E+03  EK= 0.44114E+01 SP= 0.91E+01 SK= 0.84E-01
 bond charge predicted
 prediction of wavefunctions
       N       E                     dE             d eps       ncg     rms          rms(c)
DAV:   1    -0.102869906288E+03   -0.28509E-01   -0.40963E-03   168   0.271E-01    0.125E-02
RMM:   2    -0.102870080258E+03   -0.17397E-03   -0.18328E-03   120   0.127E-01    0.778E-03
RMM:   3    -0.102870098535E+03   -0.18278E-04   -0.19066E-04    73   0.423E-02
    960 T=   628. E= -.89220660E+02 F= -.10287010E+03 E0= -.10287349E+03  EK= 0.42989E+01 SP= 0.93E+01 SK= 0.92E-01
 bond charge predicted
 prediction of wavefunctions
       N       E                     dE             d eps       ncg     rms          rms(c)
DAV:   1    -0.102878871353E+03   -0.87911E-02   -0.33762E-03   168   0.229E-01    0.952E-03
RMM:   2    -0.102878940633E+03   -0.69280E-04   -0.75563E-04   120   0.835E-02
    961 T=   608. E= -.89219865E+02 F= -.10287894E+03 E0= -.10288253E+03  EK= 0.41658E+01 SP= 0.94E+01 SK= 0.96E-01
 bond charge predicted
 prediction of wavefunctions
       N       E                     dE             d eps       ncg     rms          rms(c)
DAV:   1    -0.102870473241E+03    0.83981E-02   -0.42626E-03   156   0.265E-01    0.122E-02
RMM:   2    -0.102870653749E+03   -0.18051E-03   -0.18955E-03   120   0.126E-01    0.706E-03
RMM:   3    -0.102870676345E+03   -0.22596E-04   -0.22489E-04    86   0.457E-02
    962 T=   587. E= -.89218854E+02 F= -.10287068E+03 E0= -.10287458E+03  EK= 0.40191E+01 SP= 0.95E+01 SK= 0.96E-01
 bond charge predicted
 prediction of wavefunctions
       N       E                     dE             d eps       ncg     rms          rms(c)
DAV:   1    -0.102850165451E+03    0.20488E-01   -0.33636E-03   156   0.217E-01    0.931E-03
RMM:   2    -0.102850237846E+03   -0.72395E-04   -0.78994E-04   120   0.834E-02
    963 T=   565. E= -.89217707E+02 F= -.10285024E+03 E0= -.10285451E+03  EK= 0.38675E+01 SP= 0.97E+01 SK= 0.91E-01
 bond charge predicted
 prediction of wavefunctions
       N       E                     dE             d eps       ncg     rms          rms(c)
DAV:   1    -0.102824081933E+03    0.26084E-01   -0.46138E-03   204   0.251E-01    0.110E-02
RMM:   2    -0.102824243261E+03   -0.16133E-03   -0.16716E-03   120   0.119E-01    0.764E-03
RMM:   3    -0.102824258468E+03   -0.15206E-04   -0.15330E-04    69   0.375E-02
    964 T=   543. E= -.89216851E+02 F= -.10282426E+03 E0= -.10282893E+03  EK= 0.37205E+01 SP= 0.98E+01 SK= 0.81E-01
 bond charge predicted
 prediction of wavefunctions
       N       E                     dE             d eps       ncg     rms          rms(c)
DAV:   1    -0.102799008043E+03    0.25235E-01   -0.33573E-03   156   0.203E-01    0.787E-03
RMM:   2    -0.102799069295E+03   -0.61253E-04   -0.65326E-04   120   0.749E-02
    965 T=   524. E= -.89216119E+02 F= -.10279907E+03 E0= -.10280413E+03  EK= 0.35871E+01 SP= 0.99E+01 SK= 0.67E-01
 bond charge predicted
 prediction of wavefunctions
       N       E                     dE             d eps       ncg     rms          rms(c)
DAV:   1    -0.102780868697E+03    0.18139E-01   -0.37938E-03   192   0.235E-01    0.120E-02
RMM:   2    -0.102781019409E+03   -0.15071E-03   -0.15849E-03   120   0.114E-01    0.753E-03
RMM:   3    -0.102781038464E+03   -0.19054E-04   -0.19407E-04    72   0.423E-02
    966 T=   507. E= -.89215701E+02 F= -.10278104E+03 E0= -.10278650E+03  EK= 0.34751E+01 SP= 0.10E+02 SK= 0.52E-01
 bond charge predicted
 prediction of wavefunctions
       N       E                     dE             d eps       ncg     rms          rms(c)
DAV:   1    -0.102774843092E+03    0.61763E-02   -0.29197E-03   168   0.191E-01    0.856E-03
RMM:   2    -0.102774902549E+03   -0.59457E-04   -0.64603E-04   120   0.727E-02
    967 T=   495. E= -.89215280E+02 F= -.10277490E+03 E0= -.10278074E+03  EK= 0.33907E+01 SP= 0.10E+02 SK= 0.36E-01
 bond charge predicted
 prediction of wavefunctions
       N       E                     dE             d eps       ncg     rms          rms(c)
DAV:   1    -0.102784338087E+03   -0.94950E-02   -0.35341E-03   192   0.219E-01    0.118E-02
RMM:   2    -0.102784481967E+03   -0.14388E-03   -0.15142E-03   120   0.108E-01    0.738E-03
RMM:   3    -0.102784499822E+03   -0.17855E-04   -0.18632E-04    74   0.399E-02
    968 T=   487. E= -.89214981E+02 F= -.10278450E+03 E0= -.10279066E+03  EK= 0.33379E+01 SP= 0.10E+02 SK= 0.22E-01
 bond charge predicted
 prediction of wavefunctions
       N       E                     dE             d eps       ncg     rms          rms(c)
DAV:   1    -0.102811218382E+03   -0.26736E-01   -0.34269E-03   192   0.185E-01    0.953E-03
RMM:   2    -0.102811284642E+03   -0.66260E-04   -0.72345E-04   120   0.745E-02
    969 T=   484. E= -.89214792E+02 F= -.10281128E+03 E0= -.10281772E+03  EK= 0.33180E+01 SP= 0.10E+02 SK= 0.11E-01
 bond charge predicted
 prediction of wavefunctions
       N       E                     dE             d eps       ncg     rms          rms(c)
DAV:   1    -0.102854514222E+03   -0.43296E-01   -0.41858E-03   216   0.216E-01    0.119E-02
RMM:   2    -0.102854676528E+03   -0.16231E-03   -0.17000E-03   120   0.112E-01    0.758E-03
RMM:   3    -0.102854694322E+03   -0.17794E-04   -0.17248E-04    73   0.387E-02
    970 T=   486. E= -.89214733E+02 F= -.10285469E+03 E0= -.10286137E+03  EK= 0.33304E+01 SP= 0.10E+02 SK= 0.41E-02
 bond charge predicted
 prediction of wavefunctions
       N       E                     dE             d eps       ncg     rms          rms(c)
DAV:   1    -0.102912242046E+03   -0.57566E-01   -0.45358E-03   168   0.184E-01    0.869E-03
RMM:   2    -0.102912312310E+03   -0.70264E-04   -0.75174E-04   120   0.733E-02
    971 T=   492. E= -.89214750E+02 F= -.10291231E+03 E0= -.10291918E+03  EK= 0.33722E+01 SP= 0.10E+02 SK= 0.50E-03
 bond charge predicted
 prediction of wavefunctions
       N       E                     dE             d eps       ncg     rms          rms(c)
DAV:   1    -0.102980469890E+03   -0.68228E-01   -0.38537E-03   192   0.214E-01    0.115E-02
RMM:   2    -0.102980613441E+03   -0.14355E-03   -0.15073E-03   120   0.109E-01    0.703E-03
RMM:   3    -0.102980627350E+03   -0.13910E-04   -0.13439E-04    69   0.354E-02
    972 T=   502. E= -.89214795E+02 F= -.10298063E+03 E0= -.10298764E+03  EK= 0.34393E+01 SP= 0.10E+02 SK= 0.26E-03
 bond charge predicted
 prediction of wavefunctions
       N       E                     dE             d eps       ncg     rms          rms(c)
DAV:   1    -0.103055195771E+03   -0.74582E-01   -0.34445E-03   192   0.186E-01    0.840E-03
RMM:   2    -0.103055258452E+03   -0.62680E-04   -0.67017E-04   120   0.717E-02
    973 T=   515. E= -.89214765E+02 F= -.10305526E+03 E0= -.10306239E+03  EK= 0.35267E+01 SP= 0.10E+02 SK= 0.25E-02
 bond charge predicted
 prediction of wavefunctions
       N       E                     dE             d eps       ncg     rms          rms(c)
DAV:   1    -0.103130943992E+03   -0.75748E-01   -0.35270E-03   180   0.217E-01    0.123E-02
RMM:   2    -0.103131088429E+03   -0.14444E-03   -0.15205E-03   120   0.111E-01    0.792E-03
RMM:   3    -0.103131106315E+03   -0.17886E-04   -0.18446E-04    74   0.409E-02
    974 T=   530. E= -.89214901E+02 F= -.10313111E+03 E0= -.10313836E+03  EK= 0.36279E+01 SP= 0.10E+02 SK= 0.63E-02
 bond charge predicted
 prediction of wavefunctions
       N       E                     dE             d eps       ncg     rms          rms(c)
DAV:   1    -0.103202217975E+03   -0.71130E-01   -0.32142E-03   168   0.190E-01    0.898E-03
RMM:   2    -0.103202275928E+03   -0.57953E-04   -0.62839E-04   120   0.716E-02
    975 T=   545. E= -.89214812E+02 F= -.10320228E+03 E0= -.10320965E+03  EK= 0.37360E+01 SP= 0.10E+02 SK= 0.11E-01
 bond charge predicted
 prediction of wavefunctions
       N       E                     dE             d eps       ncg     rms          rms(c)
DAV:   1    -0.103264239666E+03   -0.62022E-01   -0.40132E-03   180   0.222E-01    0.129E-02
RMM:   2    -0.103264378229E+03   -0.13856E-03   -0.14790E-03   120   0.111E-01    0.774E-03
RMM:   3    -0.103264393462E+03   -0.15233E-04   -0.16177E-04    66   0.383E-02
    976 T=   561. E= -.89214778E+02 F= -.10326439E+03 E0= -.10327189E+03  EK= 0.38444E+01 SP= 0.10E+02 SK= 0.14E-01
 bond charge predicted
 prediction of wavefunctions
       N       E                     dE             d eps       ncg     rms          rms(c)
DAV:   1    -0.103313466319E+03   -0.49088E-01   -0.37397E-03   192   0.199E-01    0.970E-03
RMM:   2    -0.103313522858E+03   -0.56539E-04   -0.61986E-04   120   0.721E-02
    977 T=   576. E= -.89214760E+02 F= -.10331352E+03 E0= -.10332117E+03  EK= 0.39472E+01 SP= 0.10E+02 SK= 0.17E-01
 bond charge predicted
 prediction of wavefunctions
       N       E                     dE             d eps       ncg     rms          rms(c)
DAV:   1    -0.103346042522E+03   -0.32576E-01   -0.45380E-03   180   0.235E-01    0.128E-02
RMM:   2    -0.103346193457E+03   -0.15094E-03   -0.15990E-03   120   0.117E-01    0.784E-03
RMM:   3    -0.103346209427E+03   -0.15969E-04   -0.17013E-04    72   0.395E-02
    978 T=   590. E= -.89214587E+02 F= -.10334621E+03 E0= -.10335402E+03  EK= 0.40389E+01 SP= 0.10E+02 SK= 0.19E-01
 bond charge predicted
 prediction of wavefunctions
       N       E                     dE             d eps       ncg     rms          rms(c)
DAV:   1    -0.103360360957E+03   -0.14167E-01   -0.40905E-03   168   0.208E-01    0.965E-03
RMM:   2    -0.103360423091E+03   -0.62134E-04   -0.67786E-04   120   0.757E-02
    979 T=   601. E= -.89214390E+02 F= -.10336042E+03 E0= -.10336842E+03  EK= 0.41150E+01 SP= 0.10E+02 SK= 0.19E-01
 bond charge predicted
 prediction of wavefunctions
       N       E                     dE             d eps       ncg     rms          rms(c)
DAV:   1    -0.103354760890E+03    0.56001E-02   -0.48608E-03   168   0.243E-01    0.125E-02
RMM:   2    -0.103354924676E+03   -0.16379E-03   -0.17217E-03   120   0.120E-01    0.778E-03
RMM:   3    -0.103354944247E+03   -0.19571E-04   -0.20587E-04    75   0.429E-02
    980 T=   609. E= -.89214025E+02 F= -.10335494E+03 E0= -.10336312E+03  EK= 0.41723E+01 SP= 0.10E+02 SK= 0.18E-01
 bond charge predicted
 prediction of wavefunctions
       N       E                     dE             d eps       ncg     rms          rms(c)
DAV:   1    -0.103330073282E+03    0.24851E-01   -0.43892E-03   120   0.215E-01    0.929E-03
RMM:   2    -0.103330140642E+03   -0.67360E-04   -0.72616E-04   120   0.798E-02
    981 T=   614. E= -.89213637E+02 F= -.10333014E+03 E0= -.10333849E+03  EK= 0.42093E+01 SP= 0.99E+01 SK= 0.17E-01
 bond charge predicted
 prediction of wavefunctions
       N       E                     dE             d eps       ncg     rms          rms(c)
DAV:   1    -0.103286265447E+03    0.43808E-01   -0.54051E-03   180   0.251E-01    0.129E-02
RMM:   2    -0.103286426756E+03   -0.16131E-03   -0.17060E-03   120   0.121E-01    0.790E-03
RMM:   3    -0.103286444611E+03   -0.17855E-04   -0.19052E-04    74   0.417E-02
    982 T=   617. E= -.89213291E+02 F= -.10328644E+03 E0= -.10329493E+03  EK= 0.42252E+01 SP= 0.98E+01 SK= 0.16E-01
 bond charge predicted
 prediction of wavefunctions
       N       E                     dE             d eps       ncg     rms          rms(c)
DAV:   1    -0.103224560502E+03    0.61866E-01   -0.49509E-03   192   0.217E-01    0.106E-02
RMM:   2    -0.103224625810E+03   -0.65308E-04   -0.72512E-04   120   0.794E-02
    983 T=   616. E= -.89212771E+02 F= -.10322463E+03 E0= -.10323319E+03  EK= 0.42201E+01 SP= 0.98E+01 SK= 0.14E-01
 bond charge predicted
 prediction of wavefunctions
       N       E                     dE             d eps       ncg     rms          rms(c)
DAV:   1    -0.103147134922E+03    0.77426E-01   -0.60296E-03   216   0.253E-01    0.119E-02
RMM:   2    -0.103147292202E+03   -0.15728E-03   -0.16581E-03   120   0.121E-01    0.726E-03
RMM:   3    -0.103147307973E+03   -0.15771E-04   -0.16861E-04    69   0.394E-02
    984 T=   613. E= -.89212366E+02 F= -.10314731E+03 E0= -.10315585E+03  EK= 0.41963E+01 SP= 0.97E+01 SK= 0.13E-01
 bond charge predicted
 prediction of wavefunctions
       N       E                     dE             d eps       ncg     rms          rms(c)
DAV:   1    -0.103056494224E+03    0.90798E-01   -0.56130E-03   192   0.221E-01    0.937E-03
RMM:   2    -0.103056568531E+03   -0.74306E-04   -0.80338E-04   120   0.817E-02
    985 T=   607. E= -.89211878E+02 F= -.10305657E+03 E0= -.10306497E+03  EK= 0.41565E+01 SP= 0.97E+01 SK= 0.12E-01
 bond charge predicted
 prediction of wavefunctions
       N       E                     dE             d eps       ncg     rms          rms(c)
DAV:   1    -0.102954489186E+03    0.10201E+00   -0.57281E-03   168   0.258E-01    0.118E-02
RMM:   2    -0.102954677961E+03   -0.18877E-03   -0.19723E-03   120   0.126E-01    0.701E-03
RMM:   3    -0.102954701020E+03   -0.23059E-04   -0.22827E-04    87   0.450E-02
    986 T=   599. E= -.89211266E+02 F= -.10295470E+03 E0= -.10296288E+03  EK= 0.41038E+01 SP= 0.96E+01 SK= 0.11E-01
 bond charge predicted
 prediction of wavefunctions
       N       E                     dE             d eps       ncg     rms          rms(c)
DAV:   1    -0.102844637149E+03    0.11004E+00   -0.52524E-03   192   0.223E-01    0.878E-03
RMM:   2    -0.102844714199E+03   -0.77050E-04   -0.81894E-04   120   0.808E-02
    987 T=   590. E= -.89210699E+02 F= -.10284471E+03 E0= -.10285260E+03  EK= 0.40423E+01 SP= 0.96E+01 SK= 0.12E-01
 bond charge predicted
 prediction of wavefunctions
       N       E                     dE             d eps       ncg     rms          rms(c)
DAV:   1    -0.102729108719E+03    0.11553E+00   -0.60041E-03   204   0.254E-01    0.121E-02
RMM:   2    -0.102729276648E+03   -0.16793E-03   -0.17553E-03   120   0.124E-01    0.755E-03
RMM:   3    -0.102729292773E+03   -0.16125E-04   -0.16212E-04    66   0.394E-02
    988 T=   580. E= -.89210092E+02 F= -.10272929E+03 E0= -.10273684E+03  EK= 0.39761E+01 SP= 0.95E+01 SK= 0.13E-01
 bond charge predicted
 prediction of wavefunctions
       N       E                     dE             d eps       ncg     rms          rms(c)
DAV:   1    -0.102611217584E+03    0.11806E+00   -0.48174E-03   156   0.216E-01    0.873E-03
RMM:   2    -0.102611282546E+03   -0.64962E-04   -0.70375E-04   120   0.752E-02
    989 T=   571. E= -.89209611E+02 F= -.10261128E+03 E0= -.10261849E+03  EK= 0.39094E+01 SP= 0.95E+01 SK= 0.15E-01
 bond charge predicted
 prediction of wavefunctions
       N       E                     dE             d eps       ncg     rms          rms(c)
DAV:   1    -0.102493311365E+03    0.11791E+00   -0.54727E-03   192   0.249E-01    0.118E-02
RMM:   2    -0.102493471653E+03   -0.16029E-03   -0.16874E-03   120   0.119E-01    0.673E-03
RMM:   3    -0.102493490325E+03   -0.18673E-04   -0.19250E-04    71   0.418E-02
    990 T=   561. E= -.89209284E+02 F= -.10249349E+03 E0= -.10250040E+03  EK= 0.38465E+01 SP= 0.94E+01 SK= 0.18E-01
 bond charge predicted
 prediction of wavefunctions
       N       E                     dE             d eps       ncg     rms          rms(c)
DAV:   1    -0.102378311959E+03    0.11516E+00   -0.47666E-03   132   0.214E-01    0.872E-03
RMM:   2    -0.102378383936E+03   -0.71978E-04   -0.77229E-04   120   0.787E-02
    991 T=   553. E= -.89208846E+02 F= -.10237838E+03 E0= -.10238503E+03  EK= 0.37915E+01 SP= 0.94E+01 SK= 0.23E-01
 bond charge predicted
 prediction of wavefunctions
       N       E                     dE             d eps       ncg     rms          rms(c)
DAV:   1    -0.102268392196E+03    0.10992E+00   -0.58937E-03   204   0.245E-01    0.123E-02
RMM:   2    -0.102268545312E+03   -0.15312E-03   -0.16207E-03   120   0.118E-01    0.775E-03
RMM:   3    -0.102268561607E+03   -0.16295E-04   -0.17460E-04    73   0.403E-02
    992 T=   547. E= -.89208415E+02 F= -.10226856E+03 E0= -.10227499E+03  EK= 0.37480E+01 SP= 0.93E+01 SK= 0.28E-01
 bond charge predicted
 prediction of wavefunctions
       N       E                     dE             d eps       ncg     rms          rms(c)
DAV:   1    -0.102166588413E+03    0.10196E+00   -0.52430E-03   192   0.214E-01    0.949E-03
RMM:   2    -0.102166652509E+03   -0.64096E-04   -0.70572E-04   120   0.775E-02
    993 T=   543. E= -.89207921E+02 F= -.10216665E+03 E0= -.10217290E+03  EK= 0.37198E+01 SP= 0.92E+01 SK= 0.36E-01
 bond charge predicted
 prediction of wavefunctions
       N       E                     dE             d eps       ncg     rms          rms(c)
DAV:   1    -0.102074888254E+03    0.91700E-01   -0.60560E-03   180   0.243E-01    0.118E-02
RMM:   2    -0.102075045519E+03   -0.15726E-03   -0.16578E-03   120   0.118E-01    0.688E-03
RMM:   3    -0.102075063655E+03   -0.18136E-04   -0.18536E-04    72   0.412E-02
    994 T=   542. E= -.89207458E+02 F= -.10207506E+03 E0= -.10208119E+03  EK= 0.37101E+01 SP= 0.91E+01 SK= 0.44E-01
 bond charge predicted
 prediction of wavefunctions
       N       E                     dE             d eps       ncg     rms          rms(c)
DAV:   1    -0.101995540693E+03    0.79505E-01   -0.53247E-03   144   0.210E-01    0.885E-03
RMM:   2    -0.101995604070E+03   -0.63377E-04   -0.69279E-04   120   0.768E-02
    995 T=   543. E= -.89206936E+02 F= -.10199560E+03 E0= -.10200164E+03  EK= 0.37214E+01 SP= 0.90E+01 SK= 0.54E-01
 bond charge predicted
 prediction of wavefunctions
       N       E                     dE             d eps       ncg     rms          rms(c)
DAV:   1    -0.101930132324E+03    0.65408E-01   -0.57976E-03   168   0.240E-01    0.117E-02
RMM:   2    -0.101930284115E+03   -0.15179E-03   -0.15961E-03   120   0.115E-01    0.771E-03
RMM:   3    -0.101930301662E+03   -0.17548E-04   -0.18869E-04    71   0.412E-02
    996 T=   548. E= -.89206529E+02 F= -.10193030E+03 E0= -.10193629E+03  EK= 0.37558E+01 SP= 0.89E+01 SK= 0.64E-01
 bond charge predicted
 prediction of wavefunctions
       N       E                     dE             d eps       ncg     rms          rms(c)
DAV:   1    -0.101879736963E+03    0.50547E-01   -0.49179E-03   156   0.209E-01    0.852E-03
RMM:   2    -0.101879801160E+03   -0.64197E-04   -0.69037E-04   120   0.780E-02
    997 T=   557. E= -.89206150E+02 F= -.10187980E+03 E0= -.10188580E+03  EK= 0.38141E+01 SP= 0.88E+01 SK= 0.73E-01
 bond charge predicted
 prediction of wavefunctions
       N       E                     dE             d eps       ncg     rms          rms(c)
DAV:   1    -0.101843242669E+03    0.36494E-01   -0.54455E-03   144   0.240E-01    0.128E-02
RMM:   2    -0.101843393244E+03   -0.15058E-03   -0.16059E-03   120   0.116E-01    0.759E-03
RMM:   3    -0.101843412543E+03   -0.19299E-04   -0.20467E-04    79   0.430E-02
    998 T=   569. E= -.89205947E+02 F= -.10184341E+03 E0= -.10184946E+03  EK= 0.38951E+01 SP= 0.87E+01 SK= 0.81E-01
 bond charge predicted
 prediction of wavefunctions
       N       E                     dE             d eps       ncg     rms          rms(c)
DAV:   1    -0.101819143295E+03    0.24250E-01   -0.46987E-03   180   0.209E-01    0.923E-03
RMM:   2    -0.101819212611E+03   -0.69316E-04   -0.74808E-04   120   0.779E-02
    999 T=   583. E= -.89205776E+02 F= -.10181921E+03 E0= -.10182538E+03  EK= 0.39958E+01 SP= 0.85E+01 SK= 0.86E-01
 bond charge predicted
 prediction of wavefunctions
       N       E                     dE             d eps       ncg     rms          rms(c)
DAV:   1    -0.101804350248E+03    0.14793E-01   -0.57590E-03   204   0.242E-01    0.136E-02
RMM:   2    -0.101804495451E+03   -0.14520E-03   -0.15699E-03   120   0.118E-01    0.859E-03
RMM:   3    -0.101804508938E+03   -0.13487E-04   -0.16430E-04    67   0.392E-02
   1000 T=   600. E= -.89205686E+02 F= -.10180451E+03 E0= -.10181086E+03  EK= 0.41121E+01 SP= 0.84E+01 SK= 0.87E-01
 bond charge predicted
 prediction of wavefunctions
       N       E                     dE             d eps       ncg     rms          rms(c)
DAV:   1    -0.101795379683E+03    0.91158E-02   -0.47532E-03   168   0.216E-01    0.106E-02
RMM:   2    -0.101795460261E+03   -0.80578E-04   -0.87673E-04   120   0.816E-02
   1001 T=   619. E= -.89205650E+02 F= -.10179546E+03 E0= -.10180208E+03  EK= 0.42377E+01 SP= 0.83E+01 SK= 0.85E-01
 bond charge predicted
 prediction of wavefunctions
       N       E                     dE             d eps       ncg     rms          rms(c)
DAV:   1    -0.101787779256E+03    0.76004E-02   -0.63992E-03   204   0.251E-01    0.149E-02
RMM:   2    -0.101787953333E+03   -0.17408E-03   -0.18856E-03   120   0.126E-01    0.884E-03
RMM:   3    -0.101787971236E+03   -0.17903E-04   -0.19981E-04    78   0.430E-02
   1002 T=   637. E= -.89205752E+02 F= -.10178797E+03 E0= -.10179492E+03  EK= 0.43654E+01 SP= 0.81E+01 SK= 0.79E-01
 bond charge predicted
 prediction of wavefunctions
       N       E                     dE             d eps       ncg     rms          rms(c)
DAV:   1    -0.101777693249E+03    0.10260E-01   -0.53242E-03   192   0.221E-01    0.123E-02
RMM:   2    -0.101777780987E+03   -0.87738E-04   -0.98325E-04   120   0.868E-02
   1003 T=   655. E= -.89205815E+02 F= -.10177778E+03 E0= -.10178509E+03  EK= 0.44873E+01 SP= 0.80E+01 SK= 0.69E-01
 bond charge predicted
 prediction of wavefunctions
       N       E                     dE             d eps       ncg     rms          rms(c)
DAV:   1    -0.101761730651E+03    0.15963E-01   -0.61435E-03   216   0.258E-01    0.140E-02
RMM:   2    -0.101761929090E+03   -0.19844E-03   -0.21171E-03   120   0.133E-01    0.830E-03
RMM:   3    -0.101761945881E+03   -0.16791E-04   -0.16812E-04    67   0.399E-02
   1004 T=   671. E= -.89205651E+02 F= -.10176195E+03 E0= -.10176961E+03  EK= 0.45969E+01 SP= 0.79E+01 SK= 0.57E-01
 bond charge predicted
 prediction of wavefunctions
       N       E                     dE             d eps       ncg     rms          rms(c)
DAV:   1    -0.101739375109E+03    0.22554E-01   -0.58019E-03   144   0.225E-01    0.114E-02
RMM:   2    -0.101739462653E+03   -0.87543E-04   -0.96050E-04   120   0.861E-02
   1005 T=   684. E= -.89205415E+02 F= -.10173946E+03 E0= -.10174746E+03  EK= 0.46888E+01 SP= 0.78E+01 SK= 0.44E-01
 bond charge predicted
 prediction of wavefunctions
       N       E                     dE             d eps       ncg     rms          rms(c)
DAV:   1    -0.101709602328E+03    0.29773E-01   -0.85730E-03   204   0.265E-01    0.146E-02
RMM:   2    -0.101709816050E+03   -0.21372E-03   -0.22765E-03   120   0.137E-01    0.889E-03
RMM:   3    -0.101709838158E+03   -0.22108E-04   -0.22576E-04    80   0.461E-02
   1006 T=   695. E= -.89205246E+02 F= -.10170984E+03 E0= -.10171814E+03  EK= 0.47589E+01 SP= 0.77E+01 SK= 0.31E-01
 bond charge predicted
 prediction of wavefunctions
       N       E                     dE             d eps       ncg     rms          rms(c)
DAV:   1    -0.101673804964E+03    0.36011E-01   -0.79264E-03   168   0.227E-01    0.112E-02
RMM:   2    -0.101673902421E+03   -0.97457E-04   -0.10668E-03   120   0.929E-02    0.726E-03
RMM:   3    -0.101673919303E+03   -0.16882E-04   -0.20969E-04    80   0.412E-02
   1007 T=   701. E= -.89205086E+02 F= -.10167392E+03 E0= -.10168256E+03  EK= 0.48051E+01 SP= 0.76E+01 SK= 0.19E-01
 bond charge predicted
 prediction of wavefunctions
       N       E                     dE             d eps       ncg     rms          rms(c)
DAV:   1    -0.101633722453E+03    0.40180E-01   -0.73757E-03   204   0.230E-01    0.910E-03
RMM:   2    -0.101633821253E+03   -0.98801E-04   -0.10356E-03   120   0.957E-02    0.539E-03
RMM:   3    -0.101633834964E+03   -0.13711E-04   -0.14098E-04    69   0.358E-02
   1008 T=   705. E= -.89204784E+02 F= -.10163383E+03 E0= -.10164287E+03  EK= 0.48275E+01 SP= 0.76E+01 SK= 0.96E-02
 bond charge predicted
 prediction of wavefunctions
       N       E                     dE             d eps       ncg     rms          rms(c)
DAV:   1    -0.101591412290E+03    0.42409E-01   -0.67835E-03   216   0.229E-01    0.786E-03
RMM:   2    -0.101591505775E+03   -0.93485E-04   -0.97261E-04   120   0.962E-02
   1009 T=   705. E= -.89204410E+02 F= -.10159151E+03 E0= -.10160099E+03  EK= 0.48267E+01 SP= 0.76E+01 SK= 0.33E-02
 bond charge predicted
 prediction of wavefunctions
       N       E                     dE             d eps       ncg     rms          rms(c)
DAV:   1    -0.101548150895E+03    0.43261E-01   -0.65583E-03   192   0.253E-01    0.965E-03
RMM:   2    -0.101548319430E+03   -0.16853E-03   -0.17290E-03   120   0.123E-01    0.684E-03
RMM:   3    -0.101548343247E+03   -0.23817E-04   -0.23789E-04    83   0.460E-02
   1010 T=   701. E= -.89203893E+02 F= -.10154834E+03 E0= -.10155828E+03  EK= 0.48042E+01 SP= 0.75E+01 SK= 0.34E-03
 bond charge predicted
 prediction of wavefunctions
       N       E                     dE             d eps       ncg     rms          rms(c)
DAV:   1    -0.101505284981E+03    0.43034E-01   -0.56422E-03   144   0.225E-01    0.644E-03
RMM:   2    -0.101505368104E+03   -0.83123E-04   -0.85302E-04   120   0.888E-02
   1011 T=   695. E= -.89203160E+02 F= -.10150537E+03 E0= -.10151570E+03  EK= 0.47618E+01 SP= 0.75E+01 SK= 0.36E-03
 bond charge predicted
 prediction of wavefunctions
       N       E                     dE             d eps       ncg     rms          rms(c)
DAV:   1    -0.101462779618E+03    0.42505E-01   -0.65372E-03   168   0.267E-01    0.107E-02
RMM:   2    -0.101462979736E+03   -0.20012E-03   -0.20513E-03   120   0.132E-01    0.661E-03
RMM:   3    -0.101462996902E+03   -0.17166E-04   -0.15880E-04    71   0.380E-02
   1012 T=   686. E= -.89202354E+02 F= -.10146300E+03 E0= -.10147358E+03  EK= 0.47013E+01 SP= 0.76E+01 SK= 0.29E-02
 bond charge predicted
 prediction of wavefunctions
       N       E                     dE             d eps       ncg     rms          rms(c)
DAV:   1    -0.101421626017E+03    0.41354E-01   -0.54477E-03   180   0.216E-01    0.641E-03
RMM:   2    -0.101421676030E+03   -0.50014E-04   -0.53172E-04   120   0.677E-02
   1013 T=   675. E= -.89201693E+02 F= -.10142168E+03 E0= -.10143230E+03  EK= 0.46252E+01 SP= 0.76E+01 SK= 0.72E-02
 bond charge predicted
 prediction of wavefunctions
       N       E                     dE             d eps       ncg     rms          rms(c)
DAV:   1    -0.101381076058E+03    0.40550E-01   -0.55680E-03   180   0.258E-01    0.867E-03
RMM:   2    -0.101381251744E+03   -0.17569E-03   -0.17901E-03   120   0.126E-01    0.589E-03
RMM:   3    -0.101381271140E+03   -0.19396E-04   -0.18559E-04    70   0.407E-02
   1014 T=   662. E= -.89201006E+02 F= -.10138127E+03 E0= -.10139170E+03  EK= 0.45362E+01 SP= 0.76E+01 SK= 0.12E-01
 bond charge predicted
 prediction of wavefunctions
       N       E                     dE             d eps       ncg     rms          rms(c)
DAV:   1    -0.101342120834E+03    0.39131E-01   -0.44899E-03   132   0.217E-01    0.653E-03
RMM:   2    -0.101342188946E+03   -0.68113E-04   -0.70315E-04   120   0.773E-02
   1015 T=   648. E= -.89200345E+02 F= -.10134219E+03 E0= -.10135224E+03  EK= 0.44379E+01 SP= 0.77E+01 SK= 0.17E-01
 bond charge predicted
 prediction of wavefunctions
       N       E                     dE             d eps       ncg     rms          rms(c)
DAV:   1    -0.101304844371E+03    0.37276E-01   -0.52495E-03   156   0.257E-01    0.983E-03
RMM:   2    -0.101305030800E+03   -0.18643E-03   -0.19090E-03   120   0.125E-01    0.635E-03
RMM:   3    -0.101305055555E+03   -0.24755E-04   -0.23878E-04    85   0.459E-02
   1016 T=   633. E= -.89199657E+02 F= -.10130506E+03 E0= -.10131465E+03  EK= 0.43340E+01 SP= 0.77E+01 SK= 0.22E-01
 bond charge predicted
 prediction of wavefunctions
       N       E                     dE             d eps       ncg     rms          rms(c)
DAV:   1    -0.101270354005E+03    0.34677E-01   -0.39217E-03   156   0.218E-01    0.606E-03
RMM:   2    -0.101270429283E+03   -0.75278E-04   -0.77454E-04   120   0.852E-02
   1017 T=   617. E= -.89199064E+02 F= -.10127043E+03 E0= -.10127956E+03  EK= 0.42282E+01 SP= 0.78E+01 SK= 0.25E-01
 bond charge predicted
 prediction of wavefunctions
       N       E                     dE             d eps       ncg     rms          rms(c)
DAV:   1    -0.101238825170E+03    0.31529E-01   -0.45583E-03   192   0.255E-01    0.955E-03
RMM:   2    -0.101239005649E+03   -0.18048E-03   -0.18545E-03   120   0.124E-01    0.674E-03
RMM:   3    -0.101239024681E+03   -0.19032E-04   -0.18331E-04    70   0.403E-02
   1018 T=   602. E= -.89198471E+02 F= -.10123902E+03 E0= -.10124777E+03  EK= 0.41242E+01 SP= 0.79E+01 SK= 0.26E-01
 bond charge predicted
 prediction of wavefunctions
       N       E                     dE             d eps       ncg     rms          rms(c)
DAV:   1    -0.101212288667E+03    0.26717E-01   -0.36281E-03   192   0.208E-01    0.588E-03
RMM:   2    -0.101212343029E+03   -0.54362E-04   -0.56383E-04   120   0.703E-02
   1019 T=   588. E= -.89198079E+02 F= -.10121234E+03 E0= -.10122079E+03  EK= 0.40260E+01 SP= 0.80E+01 SK= 0.26E-01
 bond charge predicted
 prediction of wavefunctions
       N       E                     dE             d eps       ncg     rms          rms(c)
DAV:   1    -0.101191527941E+03    0.20761E-01   -0.42609E-03   144   0.242E-01    0.881E-03
RMM:   2    -0.101191684174E+03   -0.15623E-03   -0.16021E-03   120   0.117E-01    0.593E-03
RMM:   3    -0.101191702686E+03   -0.18512E-04   -0.18341E-04    75   0.400E-02
   1020 T=   575. E= -.89197631E+02 F= -.10119170E+03 E0= -.10119993E+03  EK= 0.39374E+01 SP= 0.80E+01 SK= 0.23E-01
 bond charge predicted
 prediction of wavefunctions
       N       E                     dE             d eps       ncg     rms          rms(c)
DAV:   1    -0.101178377924E+03    0.13306E-01   -0.39904E-03   192   0.209E-01    0.620E-03
RMM:   2    -0.101178467878E+03   -0.89954E-04   -0.91700E-04   120   0.789E-02
   1021 T=   564. E= -.89197164E+02 F= -.10117847E+03 E0= -.10118654E+03  EK= 0.38615E+01 SP= 0.81E+01 SK= 0.20E-01
 bond charge predicted
 prediction of wavefunctions
       N       E                     dE             d eps       ncg     rms          rms(c)
DAV:   1    -0.101173728826E+03    0.46491E-02   -0.74031E-03   192   0.246E-01    0.109E-02
RMM:   2    -0.101173902741E+03   -0.17392E-03   -0.18200E-03   120   0.123E-01    0.709E-03
RMM:   3    -0.101173922048E+03   -0.19307E-04   -0.18988E-04    72   0.419E-02
   1022 T=   555. E= -.89196800E+02 F= -.10117392E+03 E0= -.10118188E+03  EK= 0.38008E+01 SP= 0.82E+01 SK= 0.16E-01
 bond charge predicted
 prediction of wavefunctions
       N       E                     dE             d eps       ncg     rms          rms(c)
DAV:   1    -0.101179124077E+03   -0.52213E-02   -0.58390E-03   156   0.218E-01    0.759E-03
RMM:   2    -0.101179293826E+03   -0.16975E-03   -0.17335E-03   120   0.915E-02    0.490E-03
RMM:   3    -0.101179328025E+03   -0.34200E-04   -0.33672E-04    99   0.426E-02
   1023 T=   548. E= -.89196653E+02 F= -.10117933E+03 E0= -.10118718E+03  EK= 0.37575E+01 SP= 0.82E+01 SK= 0.12E-01
 bond charge predicted
 prediction of wavefunctions
       N       E                     dE             d eps       ncg     rms          rms(c)
DAV:   1    -0.101195092374E+03   -0.15799E-01   -0.93417E-03   156   0.223E-01    0.117E-02
RMM:   2    -0.101195209678E+03   -0.11730E-03   -0.12624E-03   120   0.100E-01    0.661E-03
RMM:   3    -0.101195227854E+03   -0.18176E-04   -0.19378E-04    83   0.402E-02
   1024 T=   545. E= -.89196388E+02 F= -.10119523E+03 E0= -.10120294E+03  EK= 0.37330E+01 SP= 0.83E+01 SK= 0.79E-02
 bond charge predicted
 prediction of wavefunctions
       N       E                     dE             d eps       ncg     rms          rms(c)
DAV:   1    -0.101221588647E+03   -0.26379E-01   -0.56205E-03   180   0.218E-01    0.797E-03
RMM:   2    -0.101221691462E+03   -0.10281E-03   -0.10890E-03   120   0.945E-02    0.524E-03
RMM:   3    -0.101221704006E+03   -0.12545E-04   -0.13660E-04    72   0.335E-02
   1025 T=   544. E= -.89196295E+02 F= -.10122170E+03 E0= -.10122922E+03  EK= 0.37273E+01 SP= 0.83E+01 SK= 0.47E-02
 bond charge predicted
 prediction of wavefunctions
       N       E                     dE             d eps       ncg     rms          rms(c)
DAV:   1    -0.101257526870E+03   -0.35835E-01   -0.56207E-03   192   0.214E-01    0.615E-03
RMM:   2    -0.101257608146E+03   -0.81276E-04   -0.83187E-04   120   0.836E-02
   1026 T=   546. E= -.89196018E+02 F= -.10125761E+03 E0= -.10126488E+03  EK= 0.37396E+01 SP= 0.83E+01 SK= 0.23E-02
 bond charge predicted
 prediction of wavefunctions
       N       E                     dE             d eps       ncg     rms          rms(c)
DAV:   1    -0.101301351531E+03   -0.43825E-01   -0.75349E-03   192   0.243E-01    0.873E-03
RMM:   2    -0.101301514969E+03   -0.16344E-03   -0.16666E-03   120   0.121E-01    0.653E-03
RMM:   3    -0.101301534426E+03   -0.19457E-04   -0.18683E-04    74   0.411E-02
   1027 T=   550. E= -.89195752E+02 F= -.10130153E+03 E0= -.10130852E+03  EK= 0.37680E+01 SP= 0.83E+01 SK= 0.83E-03
 bond charge predicted
 prediction of wavefunctions
       N       E                     dE             d eps       ncg     rms          rms(c)
DAV:   1    -0.101351373832E+03   -0.49859E-01   -0.68578E-03   192   0.210E-01    0.552E-03
RMM:   2    -0.101351446569E+03   -0.72737E-04   -0.74007E-04   120   0.748E-02
   1028 T=   556. E= -.89195388E+02 F= -.10135145E+03 E0= -.10135811E+03  EK= 0.38099E+01 SP= 0.83E+01 SK= 0.13E-03
 bond charge predicted
 prediction of wavefunctions
       N       E                     dE             d eps       ncg     rms          rms(c)
DAV:   1    -0.101404693114E+03   -0.53319E-01   -0.79878E-03   216   0.251E-01    0.859E-03
RMM:   2    -0.101404867480E+03   -0.17437E-03   -0.17652E-03   120   0.124E-01    0.634E-03
RMM:   3    -0.101404882023E+03   -0.14543E-04   -0.12764E-04    68   0.350E-02
   1029 T=   564. E= -.89195170E+02 F= -.10140488E+03 E0= -.10141122E+03  EK= 0.38619E+01 SP= 0.83E+01 SK= 0.11E-04
 bond charge predicted
 prediction of wavefunctions
       N       E                     dE             d eps       ncg     rms          rms(c)
DAV:   1    -0.101458791736E+03   -0.53924E-01   -0.71380E-03   180   0.207E-01    0.524E-03
RMM:   2    -0.101458846729E+03   -0.54994E-04   -0.56137E-04   120   0.648E-02
   1030 T=   572. E= -.89195265E+02 F= -.10145885E+03 E0= -.10146486E+03  EK= 0.39196E+01 SP= 0.83E+01 SK= 0.23E-03
 bond charge predicted
 prediction of wavefunctions
       N       E                     dE             d eps       ncg     rms          rms(c)
DAV:   1    -0.101509574830E+03   -0.50783E-01   -0.78151E-03   180   0.252E-01    0.102E-02
RMM:   2    -0.101509751857E+03   -0.17703E-03   -0.18136E-03   120   0.125E-01    0.656E-03
RMM:   3    -0.101509768812E+03   -0.16956E-04   -0.16382E-04    75   0.383E-02
   1031 T=   581. E= -.89195339E+02 F= -.10150977E+03 E0= -.10151549E+03  EK= 0.39788E+01 SP= 0.83E+01 SK= 0.55E-03
 bond charge predicted
 prediction of wavefunctions
       N       E                     dE             d eps       ncg     rms          rms(c)
DAV:   1    -0.101554121313E+03   -0.44369E-01   -0.66375E-03   204   0.214E-01    0.567E-03
RMM:   2    -0.101554195235E+03   -0.73922E-04   -0.76086E-04   120   0.803E-02
   1032 T=   589. E= -.89195117E+02 F= -.10155420E+03 E0= -.10155966E+03  EK= 0.40349E+01 SP= 0.83E+01 SK= 0.82E-03
 bond charge predicted
 prediction of wavefunctions
       N       E                     dE             d eps       ncg     rms          rms(c)
DAV:   1    -0.101589403823E+03   -0.35283E-01   -0.72514E-03   180   0.256E-01    0.115E-02
RMM:   2    -0.101589594329E+03   -0.19051E-03   -0.19878E-03   120   0.129E-01    0.758E-03
RMM:   3    -0.101589615540E+03   -0.21211E-04   -0.20999E-04    78   0.437E-02
   1033 T=   596. E= -.89194766E+02 F= -.10158962E+03 E0= -.10159488E+03  EK= 0.40840E+01 SP= 0.83E+01 SK= 0.96E-03
 bond charge predicted
 prediction of wavefunctions
       N       E                     dE             d eps       ncg     rms          rms(c)
DAV:   1    -0.101614109802E+03   -0.24515E-01   -0.62435E-03   216   0.214E-01    0.709E-03
RMM:   2    -0.101614181733E+03   -0.71931E-04   -0.75759E-04   120   0.810E-02
   1034 T=   602. E= -.89194513E+02 F= -.10161418E+03 E0= -.10161931E+03  EK= 0.41227E+01 SP= 0.83E+01 SK= 0.95E-03
 bond charge predicted
 prediction of wavefunctions
       N       E                     dE             d eps       ncg     rms          rms(c)
DAV:   1    -0.101626526965E+03   -0.12417E-01   -0.68855E-03   192   0.257E-01    0.116E-02
RMM:   2    -0.101626721259E+03   -0.19429E-03   -0.20277E-03   120   0.131E-01    0.685E-03
RMM:   3    -0.101626740550E+03   -0.19291E-04   -0.18607E-04    71   0.418E-02
   1035 T=   606. E= -.89194128E+02 F= -.10162674E+03 E0= -.10163175E+03  EK= 0.41492E+01 SP= 0.83E+01 SK= 0.83E-03
 bond charge predicted
 prediction of wavefunctions
       N       E                     dE             d eps       ncg     rms          rms(c)
DAV:   1    -0.101628135536E+03   -0.14143E-02   -0.58473E-03   228   0.210E-01    0.814E-03
RMM:   2    -0.101628206101E+03   -0.70565E-04   -0.75269E-04   120   0.806E-02
   1036 T=   608. E= -.89193659E+02 F= -.10162821E+03 E0= -.10163305E+03  EK= 0.41636E+01 SP= 0.83E+01 SK= 0.66E-03
 bond charge predicted
 prediction of wavefunctions
       N       E                     dE             d eps       ncg     rms          rms(c)
DAV:   1    -0.101620203002E+03    0.79325E-02   -0.63395E-03   192   0.254E-01    0.113E-02
RMM:   2    -0.101620392463E+03   -0.18946E-03   -0.19837E-03   120   0.130E-01    0.676E-03
RMM:   3    -0.101620412976E+03   -0.20514E-04   -0.19683E-04    74   0.428E-02
   1037 T=   608. E= -.89193148E+02 F= -.10162041E+03 E0= -.10162501E+03  EK= 0.41673E+01 SP= 0.83E+01 SK= 0.49E-03
 bond charge predicted
 prediction of wavefunctions
       N       E                     dE             d eps       ncg     rms          rms(c)
DAV:   1    -0.101605896774E+03    0.14496E-01   -0.52719E-03   192   0.208E-01    0.833E-03
RMM:   2    -0.101605971097E+03   -0.74323E-04   -0.79688E-04   120   0.805E-02
   1038 T=   608. E= -.89192525E+02 F= -.10160597E+03 E0= -.10161025E+03  EK= 0.41628E+01 SP= 0.83E+01 SK= 0.35E-03
 bond charge predicted
 prediction of wavefunctions
       N       E                     dE             d eps       ncg     rms          rms(c)
DAV:   1    -0.101588465656E+03    0.17431E-01   -0.63804E-03   192   0.252E-01    0.120E-02
RMM:   2    -0.101588661296E+03   -0.19564E-03   -0.20533E-03   120   0.131E-01    0.713E-03
RMM:   3    -0.101588679983E+03   -0.18687E-04   -0.17291E-04    71   0.406E-02
   1039 T=   606. E= -.89191887E+02 F= -.10158868E+03 E0= -.10159266E+03  EK= 0.41540E+01 SP= 0.82E+01 SK= 0.24E-03
 bond charge predicted
 prediction of wavefunctions
       N       E                     dE             d eps       ncg     rms          rms(c)
DAV:   1    -0.101572604595E+03    0.16057E-01   -0.51622E-03   168   0.204E-01    0.773E-03
RMM:   2    -0.101572674397E+03   -0.69802E-04   -0.73828E-04   120   0.791E-02
   1040 T=   605. E= -.89191365E+02 F= -.10157267E+03 E0= -.10157645E+03  EK= 0.41450E+01 SP= 0.82E+01 SK= 0.17E-03
 bond charge predicted
 prediction of wavefunctions
       N       E                     dE             d eps       ncg     rms          rms(c)
DAV:   1    -0.101561387465E+03    0.11217E-01   -0.64174E-03   180   0.247E-01    0.117E-02
RMM:   2    -0.101561569601E+03   -0.18214E-03   -0.19178E-03   120   0.126E-01    0.727E-03
RMM:   3    -0.101561588310E+03   -0.18709E-04   -0.18684E-04    78   0.424E-02
   1041 T=   604. E= -.89190787E+02 F= -.10156159E+03 E0= -.10156525E+03  EK= 0.41399E+01 SP= 0.82E+01 SK= 0.12E-03
 bond charge predicted
 prediction of wavefunctions
       N       E                     dE             d eps       ncg     rms          rms(c)
DAV:   1    -0.101558080999E+03    0.34886E-02   -0.44879E-03   144   0.203E-01    0.790E-03
RMM:   2    -0.101558158870E+03   -0.77870E-04   -0.82335E-04   120   0.804E-02
   1042 T=   605. E= -.89190211E+02 F= -.10155816E+03 E0= -.10156181E+03  EK= 0.41416E+01 SP= 0.82E+01 SK= 0.79E-04
 bond charge predicted
 prediction of wavefunctions
       N       E                     dE             d eps       ncg     rms          rms(c)
DAV:   1    -0.101563005657E+03   -0.49247E-02   -0.53057E-03   204   0.242E-01    0.136E-02
RMM:   2    -0.101563183650E+03   -0.17799E-03   -0.19248E-03   120   0.126E-01    0.797E-03
RMM:   3    -0.101563200912E+03   -0.17262E-04   -0.18096E-04    70   0.416E-02
   1043 T=   606. E= -.89189875E+02 F= -.10156320E+03 E0= -.10156697E+03  EK= 0.41505E+01 SP= 0.82E+01 SK= 0.43E-04
 bond charge predicted
 prediction of wavefunctions
       N       E                     dE             d eps       ncg     rms          rms(c)
DAV:   1    -0.101575339826E+03   -0.12156E-01   -0.31963E-03   168   0.210E-01    0.917E-03
RMM:   2    -0.101575425609E+03   -0.85783E-04   -0.92669E-04   120   0.851E-02
   1044 T=   608. E= -.89189759E+02 F= -.10157543E+03 E0= -.10157947E+03  EK= 0.41651E+01 SP= 0.82E+01 SK= 0.13E-04
 bond charge predicted
 prediction of wavefunctions
       N       E                     dE             d eps       ncg     rms          rms(c)
DAV:   1    -0.101592182362E+03   -0.16843E-01   -0.37636E-03   204   0.248E-01    0.127E-02
RMM:   2    -0.101592373020E+03   -0.19066E-03   -0.20253E-03   120   0.128E-01    0.768E-03
RMM:   3    -0.101592393280E+03   -0.20260E-04   -0.20452E-04    76   0.442E-02
   1045 T=   611. E= -.89189821E+02 F= -.10159239E+03 E0= -.10159695E+03  EK= 0.41828E+01 SP= 0.82E+01 SK= 0.11E-06
 bond charge predicted
 prediction of wavefunctions
       N       E                     dE             d eps       ncg     rms          rms(c)
DAV:   1    -0.101609874645E+03   -0.17502E-01   -0.24131E-03   204   0.212E-01    0.106E-02
RMM:   2    -0.101609974521E+03   -0.99876E-04   -0.10856E-03   120   0.846E-02    0.720E-03
RMM:   3    -0.101609991376E+03   -0.16855E-04   -0.21637E-04    86   0.390E-02
   1046 T=   613. E= -.89190024E+02 F= -.10160999E+03 E0= -.10161540E+03  EK= 0.41989E+01 SP= 0.82E+01 SK= 0.27E-04
Information: wavefunction orthogonal band   60  0.8691
 bond charge predicted
 prediction of wavefunctions
       N       E                     dE             d eps       ncg     rms          rms(c)
DAV:   1    -0.101622697722E+03   -0.12723E-01   -0.24828E-03   216   0.216E-01    0.840E-03
RMM:   2    -0.101622888098E+03   -0.19038E-03   -0.19460E-03   120   0.937E-02    0.495E-03
RMM:   3    -0.101622915021E+03   -0.26923E-04   -0.26763E-04    93   0.396E-02
   1047 T=   614. E= -.89190114E+02 F= -.10162292E+03 E0= -.10162958E+03  EK= 0.42080E+01 SP= 0.82E+01 SK= 0.12E-03
Information: wavefunction orthogonal band   60  0.7244
 bond charge predicted
 prediction of wavefunctions
       N       E                     dE             d eps       ncg     rms          rms(c)
DAV:   1    -0.101626104782E+03   -0.32167E-02   -0.44590E-03   168   0.222E-01    0.970E-03
RMM:   2    -0.101626274605E+03   -0.16982E-03   -0.17518E-03   120   0.999E-02    0.642E-03
RMM:   3    -0.101626299457E+03   -0.24852E-04   -0.25559E-04    97   0.397E-02
   1048 T=   614. E= -.89190223E+02 F= -.10162630E+03 E0= -.10163450E+03  EK= 0.42049E+01 SP= 0.82E+01 SK= 0.28E-03
 bond charge predicted
 prediction of wavefunctions
       N       E                     dE             d eps       ncg     rms          rms(c)
DAV:   1    -0.101615570236E+03    0.10704E-01   -0.64045E-03   168   0.223E-01    0.134E-02
RMM:   2    -0.101615715050E+03   -0.14481E-03   -0.15796E-03   120   0.979E-02    0.812E-03
RMM:   3    -0.101615735330E+03   -0.20280E-04   -0.22878E-04    94   0.399E-02
   1049 T=   611. E= -.89190136E+02 F= -.10161574E+03 E0= -.10162513E+03  EK= 0.41855E+01 SP= 0.82E+01 SK= 0.48E-03
 bond charge predicted
 prediction of wavefunctions
       N       E                     dE             d eps       ncg     rms          rms(c)
DAV:   1    -0.101588743592E+03    0.26971E-01   -0.70422E-03   180   0.222E-01    0.148E-02
RMM:   2    -0.101588846094E+03   -0.10250E-03   -0.12169E-03   120   0.938E-02    0.816E-03
RMM:   3    -0.101588859447E+03   -0.13353E-04   -0.17178E-04    86   0.369E-02
   1050 T=   605. E= -.89189945E+02 F= -.10158886E+03 E0= -.10159870E+03  EK= 0.41479E+01 SP= 0.83E+01 SK= 0.66E-03
 bond charge predicted
 prediction of wavefunctions
       N       E                     dE             d eps       ncg     rms          rms(c)
DAV:   1    -0.101545213943E+03    0.43632E-01   -0.40084E-03   168   0.213E-01    0.832E-03
RMM:   2    -0.101545298558E+03   -0.84615E-04   -0.87899E-04   120   0.853E-02
   1051 T=   597. E= -.89189486E+02 F= -.10154530E+03 E0= -.10155520E+03  EK= 0.40929E+01 SP= 0.83E+01 SK= 0.72E-03
 bond charge predicted
 prediction of wavefunctions
       N       E                     dE             d eps       ncg     rms          rms(c)
DAV:   1    -0.101486266951E+03    0.58947E-01   -0.47665E-03   192   0.242E-01    0.149E-02
RMM:   2    -0.101486430465E+03   -0.16351E-03   -0.17553E-03   120   0.121E-01    0.937E-03
RMM:   3    -0.101486451702E+03   -0.21237E-04   -0.23471E-04    81   0.441E-02
   1052 T=   587. E= -.89188845E+02 F= -.10148645E+03 E0= -.10149631E+03  EK= 0.40233E+01 SP= 0.83E+01 SK= 0.60E-03
 bond charge predicted
 prediction of wavefunctions
       N       E                     dE             d eps       ncg     rms          rms(c)
DAV:   1    -0.101415974072E+03    0.70456E-01   -0.48680E-03   168   0.209E-01    0.629E-03
RMM:   2    -0.101416039025E+03   -0.64953E-04   -0.66872E-04   120   0.728E-02
   1053 T=   576. E= -.89188060E+02 F= -.10141604E+03 E0= -.10142586E+03  EK= 0.39443E+01 SP= 0.83E+01 SK= 0.33E-03
 bond charge predicted
 prediction of wavefunctions
       N       E                     dE             d eps       ncg     rms          rms(c)
DAV:   1    -0.101339047287E+03    0.76927E-01   -0.64073E-03   216   0.242E-01    0.105E-02
RMM:   2    -0.101339209936E+03   -0.16265E-03   -0.16740E-03   120   0.119E-01    0.746E-03
RMM:   3    -0.101339222111E+03   -0.12175E-04   -0.12036E-04    66   0.332E-02
   1054 T=   564. E= -.89187098E+02 F= -.10133922E+03 E0= -.10134902E+03  EK= 0.38630E+01 SP= 0.83E+01 SK= 0.51E-04
 bond charge predicted
 prediction of wavefunctions
       N       E                     dE             d eps       ncg     rms          rms(c)
DAV:   1    -0.101262646145E+03    0.76564E-01   -0.58209E-03   168   0.200E-01    0.583E-03
RMM:   2    -0.101262695903E+03   -0.49758E-04   -0.51937E-04   119   0.596E-02
   1055 T=   553. E= -.89186442E+02 F= -.10126270E+03 E0= -.10127248E+03  EK= 0.37874E+01 SP= 0.83E+01 SK= 0.67E-04
 bond charge predicted
 prediction of wavefunctions
       N       E                     dE             d eps       ncg     rms          rms(c)
DAV:   1    -0.101193554472E+03    0.69092E-01   -0.70052E-03   228   0.237E-01    0.847E-03
RMM:   2    -0.101193706511E+03   -0.15204E-03   -0.15510E-03   120   0.114E-01    0.605E-03
RMM:   3    -0.101193720005E+03   -0.13493E-04   -0.12628E-04    65   0.340E-02
   1056 T=   544. E= -.89185745E+02 F= -.10119372E+03 E0= -.10120347E+03  EK= 0.37264E+01 SP= 0.83E+01 SK= 0.75E-03
 bond charge predicted
 prediction of wavefunctions
       N       E                     dE             d eps       ncg     rms          rms(c)
DAV:   1    -0.101139859178E+03    0.53847E-01   -0.63188E-03   216   0.206E-01    0.552E-03
RMM:   2    -0.101139926971E+03   -0.67792E-04   -0.69231E-04   120   0.754E-02
   1057 T=   538. E= -.89185046E+02 F= -.10113993E+03 E0= -.10114962E+03  EK= 0.36889E+01 SP= 0.83E+01 SK= 0.24E-02
 bond charge predicted
 prediction of wavefunctions
       N       E                     dE             d eps       ncg     rms          rms(c)
DAV:   1    -0.101107101666E+03    0.32758E-01   -0.66663E-03   168   0.243E-01    0.101E-02
RMM:   2    -0.101107269580E+03   -0.16791E-03   -0.17212E-03   120   0.120E-01    0.709E-03
RMM:   3    -0.101107289994E+03   -0.20415E-04   -0.20501E-04    83   0.431E-02
   1058 T=   537. E= -.89184377E+02 F= -.10110729E+03 E0= -.10111691E+03  EK= 0.36815E+01 SP= 0.82E+01 SK= 0.53E-02
 bond charge predicted
 prediction of wavefunctions
       N       E                     dE             d eps       ncg     rms          rms(c)
DAV:   1    -0.101100527241E+03    0.67423E-02   -0.63871E-03   192   0.207E-01    0.534E-03
RMM:   2    -0.101100598957E+03   -0.71716E-04   -0.73409E-04   119   0.742E-02
   1059 T=   541. E= -.89183861E+02 F= -.10110060E+03 E0= -.10111014E+03  EK= 0.37093E+01 SP= 0.82E+01 SK= 0.91E-02
 bond charge predicted
 prediction of wavefunctions
       N       E                     dE             d eps       ncg     rms          rms(c)
DAV:   1    -0.101122548197E+03   -0.22021E-01   -0.73631E-03   216   0.242E-01    0.108E-02
RMM:   2    -0.101122715414E+03   -0.16722E-03   -0.17474E-03   120   0.120E-01    0.643E-03
RMM:   3    -0.101122732443E+03   -0.17029E-04   -0.16203E-04    67   0.389E-02
   1060 T=   551. E= -.89183366E+02 F= -.10112273E+03 E0= -.10113221E+03  EK= 0.37751E+01 SP= 0.82E+01 SK= 0.13E-01
 bond charge predicted
 prediction of wavefunctions
       N       E                     dE             d eps       ncg     rms          rms(c)
DAV:   1    -0.101174064638E+03   -0.51349E-01   -0.59194E-03   180   0.212E-01    0.676E-03
RMM:   2    -0.101174129550E+03   -0.64912E-04   -0.68176E-04   120   0.724E-02
   1061 T=   566. E= -.89183067E+02 F= -.10117413E+03 E0= -.10118359E+03  EK= 0.38784E+01 SP= 0.81E+01 SK= 0.17E-01
 bond charge predicted
 prediction of wavefunctions
       N       E                     dE             d eps       ncg     rms          rms(c)
DAV:   1    -0.101252660046E+03   -0.78595E-01   -0.64931E-03   168   0.252E-01    0.103E-02
RMM:   2    -0.101252839653E+03   -0.17961E-03   -0.18610E-03   120   0.121E-01    0.657E-03
RMM:   3    -0.101252860981E+03   -0.21328E-04   -0.21560E-04    81   0.430E-02
   1062 T=   586. E= -.89183121E+02 F= -.10125286E+03 E0= -.10126234E+03  EK= 0.40157E+01 SP= 0.80E+01 SK= 0.20E-01
 bond charge predicted
 prediction of wavefunctions
       N       E                     dE             d eps       ncg     rms          rms(c)
DAV:   1    -0.101354362795E+03   -0.10152E+00   -0.55332E-03   180   0.221E-01    0.750E-03
RMM:   2    -0.101354437790E+03   -0.74996E-04   -0.78678E-04   120   0.799E-02
   1063 T=   610. E= -.89183311E+02 F= -.10135444E+03 E0= -.10136400E+03  EK= 0.41799E+01 SP= 0.80E+01 SK= 0.20E-01
 bond charge predicted
 prediction of wavefunctions
       N       E                     dE             d eps       ncg     rms          rms(c)
DAV:   1    -0.101471834769E+03   -0.11747E+00   -0.62889E-03   192   0.261E-01    0.130E-02
RMM:   2    -0.101472016501E+03   -0.18173E-03   -0.19409E-03   120   0.127E-01    0.735E-03
RMM:   3    -0.101472037024E+03   -0.20522E-04   -0.21037E-04    81   0.437E-02
   1064 T=   637. E= -.89183573E+02 F= -.10147204E+03 E0= -.10148175E+03  EK= 0.43608E+01 SP= 0.79E+01 SK= 0.17E-01
 bond charge predicted
 prediction of wavefunctions
       N       E                     dE             d eps       ncg     rms          rms(c)
DAV:   1    -0.101597143357E+03   -0.12513E+00   -0.50334E-03   180   0.234E-01    0.917E-03
RMM:   2    -0.101597231063E+03   -0.87707E-04   -0.94296E-04   120   0.864E-02
   1065 T=   663. E= -.89184128E+02 F= -.10159723E+03 E0= -.10160717E+03  EK= 0.45449E+01 SP= 0.79E+01 SK= 0.12E-01
 bond charge predicted
 prediction of wavefunctions
       N       E                     dE             d eps       ncg     rms          rms(c)
DAV:   1    -0.101720115870E+03   -0.12297E+00   -0.57479E-03   204   0.276E-01    0.122E-02
RMM:   2    -0.101720323133E+03   -0.20726E-03   -0.21784E-03   120   0.136E-01    0.748E-03
RMM:   3    -0.101720341772E+03   -0.18639E-04   -0.18497E-04    73   0.418E-02
   1066 T=   689. E= -.89184549E+02 F= -.10172034E+03 E0= -.10173052E+03  EK= 0.47170E+01 SP= 0.78E+01 SK= 0.68E-02
 bond charge predicted
 prediction of wavefunctions
       N       E                     dE             d eps       ncg     rms          rms(c)
DAV:   1    -0.101832459966E+03   -0.11214E+00   -0.46196E-03   204   0.240E-01    0.100E-02
RMM:   2    -0.101832546442E+03   -0.86476E-04   -0.94238E-04   120   0.844E-02
   1067 T=   710. E= -.89185047E+02 F= -.10183255E+03 E0= -.10184294E+03  EK= 0.48621E+01 SP= 0.78E+01 SK= 0.20E-02
 bond charge predicted
 prediction of wavefunctions
       N       E                     dE             d eps       ncg     rms          rms(c)
DAV:   1    -0.101925001483E+03   -0.92542E-01   -0.59593E-03   192   0.279E-01    0.121E-02
RMM:   2    -0.101925214899E+03   -0.21342E-03   -0.22445E-03   120   0.137E-01    0.647E-03
RMM:   3    -0.101925240055E+03   -0.25156E-04   -0.23988E-04    83   0.474E-02
   1068 T=   725. E= -.89185241E+02 F= -.10192524E+03 E0= -.10193579E+03  EK= 0.49665E+01 SP= 0.78E+01 SK= 0.38E-06
 bond charge predicted
 prediction of wavefunctions
       N       E                     dE             d eps       ncg     rms          rms(c)
DAV:   1    -0.101991556422E+03   -0.66342E-01   -0.47535E-03   156   0.248E-01    0.975E-03
RMM:   2    -0.101991667227E+03   -0.11081E-03   -0.11835E-03   120   0.956E-02    0.613E-03
RMM:   3    -0.101991688278E+03   -0.21051E-04   -0.23283E-04    82   0.420E-02
   1069 T=   733. E= -.89185172E+02 F= -.10199169E+03 E0= -.10200226E+03  EK= 0.50191E+01 SP= 0.78E+01 SK= 0.25E-02
 bond charge predicted
 prediction of wavefunctions
       N       E                     dE             d eps       ncg     rms          rms(c)
DAV:   1    -0.102027631593E+03   -0.35964E-01   -0.52920E-03   216   0.246E-01    0.788E-03
RMM:   2    -0.102027731319E+03   -0.99726E-04   -0.10280E-03   120   0.954E-02    0.498E-03
RMM:   3    -0.102027745735E+03   -0.14416E-04   -0.14280E-04    70   0.364E-02
   1070 T=   732. E= -.89184783E+02 F= -.10202775E+03 E0= -.10203812E+03  EK= 0.50138E+01 SP= 0.78E+01 SK= 0.10E-01
 bond charge predicted
 prediction of wavefunctions
       N       E                     dE             d eps       ncg     rms          rms(c)
DAV:   1    -0.102033258669E+03   -0.55274E-02   -0.49903E-03   156   0.240E-01    0.691E-03
RMM:   2    -0.102033347014E+03   -0.88345E-04   -0.91209E-04   120   0.919E-02
   1071 T=   723. E= -.89184005E+02 F= -.10203335E+03 E0= -.10204330E+03  EK= 0.49515E+01 SP= 0.79E+01 SK= 0.22E-01
 bond charge predicted
 prediction of wavefunctions
       N       E                     dE             d eps       ncg     rms          rms(c)
DAV:   1    -0.102011343856E+03    0.21915E-01   -0.65300E-03   192   0.261E-01    0.864E-03
RMM:   2    -0.102011518250E+03   -0.17439E-03   -0.17763E-03   120   0.123E-01    0.603E-03
RMM:   3    -0.102011545303E+03   -0.27052E-04   -0.25771E-04    90   0.481E-02
   1072 T=   706. E= -.89182924E+02 F= -.10201155E+03 E0= -.10202093E+03  EK= 0.48383E+01 SP= 0.80E+01 SK= 0.38E-01
 bond charge predicted
 prediction of wavefunctions
       N       E                     dE             d eps       ncg     rms          rms(c)
DAV:   1    -0.101967036737E+03    0.44482E-01   -0.65525E-03   156   0.225E-01    0.668E-03
RMM:   2    -0.101967114124E+03   -0.77387E-04   -0.80260E-04   120   0.830E-02
   1073 T=   684. E= -.89181470E+02 F= -.10196711E+03 E0= -.10197590E+03  EK= 0.46843E+01 SP= 0.80E+01 SK= 0.53E-01
 bond charge predicted
 prediction of wavefunctions
       N       E                     dE             d eps       ncg     rms          rms(c)
DAV:   1    -0.101906892905E+03    0.60144E-01   -0.78815E-03   192   0.258E-01    0.941E-03
RMM:   2    -0.101907075062E+03   -0.18216E-03   -0.18681E-03   120   0.124E-01    0.657E-03
RMM:   3    -0.101907090468E+03   -0.15407E-04   -0.14328E-04    69   0.358E-02
   1074 T=   657. E= -.89180285E+02 F= -.10190709E+03 E0= -.10191532E+03  EK= 0.45024E+01 SP= 0.82E+01 SK= 0.66E-01
 bond charge predicted
 prediction of wavefunctions
       N       E                     dE             d eps       ncg     rms          rms(c)
DAV:   1    -0.101838204369E+03    0.68871E-01   -0.67714E-03   168   0.210E-01    0.625E-03
RMM:   2    -0.101838249221E+03   -0.44852E-04   -0.47301E-04   119   0.595E-02
   1075 T=   629. E= -.89179307E+02 F= -.10183825E+03 E0= -.10184601E+03  EK= 0.43059E+01 SP= 0.83E+01 SK= 0.75E-01
 bond charge predicted
 prediction of wavefunctions
       N       E                     dE             d eps       ncg     rms          rms(c)
DAV:   1    -0.101767400015E+03    0.70804E-01   -0.73087E-03   192   0.239E-01    0.830E-03
RMM:   2    -0.101767541930E+03   -0.14192E-03   -0.14544E-03   120   0.113E-01    0.514E-03
RMM:   3    -0.101767557668E+03   -0.15738E-04   -0.14824E-04    68   0.376E-02
   1076 T=   600. E= -.89178555E+02 F= -.10176756E+03 E0= -.10177491E+03  EK= 0.41081E+01 SP= 0.84E+01 SK= 0.78E-01
 bond charge predicted
 prediction of wavefunctions
       N       E                     dE             d eps       ncg     rms          rms(c)
DAV:   1    -0.101700641720E+03    0.66900E-01   -0.64983E-03   192   0.211E-01    0.598E-03
RMM:   2    -0.101700707096E+03   -0.65376E-04   -0.67389E-04   119   0.749E-02
   1077 T=   572. E= -.89178016E+02 F= -.10170071E+03 E0= -.10170766E+03  EK= 0.39197E+01 SP= 0.85E+01 SK= 0.76E-01
 bond charge predicted
 prediction of wavefunctions
       N       E                     dE             d eps       ncg     rms          rms(c)
DAV:   1    -0.101641755306E+03    0.58886E-01   -0.69197E-03   168   0.239E-01    0.813E-03
RMM:   2    -0.101641912905E+03   -0.15760E-03   -0.16064E-03   120   0.114E-01    0.586E-03
RMM:   3    -0.101641936182E+03   -0.23277E-04   -0.22761E-04    81   0.452E-02
   1078 T=   547. E= -.89177408E+02 F= -.10164194E+03 E0= -.10164847E+03  EK= 0.37491E+01 SP= 0.86E+01 SK= 0.68E-01
 bond charge predicted
 prediction of wavefunctions
       N       E                     dE             d eps       ncg     rms          rms(c)
DAV:   1    -0.101595255867E+03    0.46657E-01   -0.66565E-03   180   0.208E-01    0.569E-03
RMM:   2    -0.101595313903E+03   -0.58037E-04   -0.59820E-04   120   0.726E-02
   1079 T=   526. E= -.89177039E+02 F= -.10159531E+03 E0= -.10160141E+03  EK= 0.36029E+01 SP= 0.88E+01 SK= 0.56E-01
 bond charge predicted
 prediction of wavefunctions
       N       E                     dE             d eps       ncg     rms          rms(c)
DAV:   1    -0.101562782681E+03    0.32473E-01   -0.74692E-03   204   0.235E-01    0.864E-03
RMM:   2    -0.101562915964E+03   -0.13328E-03   -0.13747E-03   120   0.111E-01    0.582E-03
RMM:   3    -0.101562927682E+03   -0.11717E-04   -0.11253E-04    65   0.322E-02
   1080 T=   509. E= -.89176890E+02 F= -.10156293E+03 E0= -.10156864E+03  EK= 0.34850E+01 SP= 0.89E+01 SK= 0.42E-01
 bond charge predicted
 prediction of wavefunctions
       N       E                     dE             d eps       ncg     rms          rms(c)
DAV:   1    -0.101545242388E+03    0.17674E-01   -0.64765E-03   132   0.206E-01    0.532E-03
RMM:   2    -0.101545293012E+03   -0.50624E-04   -0.52375E-04   119   0.643E-02
   1081 T=   496. E= -.89176764E+02 F= -.10154529E+03 E0= -.10155071E+03  EK= 0.33970E+01 SP= 0.89E+01 SK= 0.28E-01
 bond charge predicted
 prediction of wavefunctions
       N       E                     dE             d eps       ncg     rms          rms(c)
DAV:   1    -0.101542341885E+03    0.29005E-02   -0.64153E-03   192   0.230E-01    0.745E-03
RMM:   2    -0.101542465509E+03   -0.12362E-03   -0.12651E-03   120   0.103E-01    0.529E-03
RMM:   3    -0.101542480166E+03   -0.14657E-04   -0.14596E-04    65   0.357E-02
   1082 T=   487. E= -.89176677E+02 F= -.10154248E+03 E0= -.10154768E+03  EK= 0.33396E+01 SP= 0.90E+01 SK= 0.16E-01
 bond charge predicted
 prediction of wavefunctions
       N       E                     dE             d eps       ncg     rms          rms(c)
DAV:   1    -0.101553880775E+03   -0.11415E-01   -0.53295E-03   204   0.212E-01    0.574E-03
RMM:   2    -0.101553939463E+03   -0.58688E-04   -0.60542E-04   120   0.729E-02
   1083 T=   483. E= -.89176639E+02 F= -.10155394E+03 E0= -.10155902E+03  EK= 0.33123E+01 SP= 0.91E+01 SK= 0.72E-02
 bond charge predicted
 prediction of wavefunctions
       N       E                     dE             d eps       ncg     rms          rms(c)
DAV:   1    -0.101577893033E+03   -0.24012E-01   -0.51946E-03   168   0.236E-01    0.942E-03
RMM:   2    -0.101578018941E+03   -0.12591E-03   -0.13145E-03   120   0.107E-01    0.652E-03
RMM:   3    -0.101578033124E+03   -0.14183E-04   -0.14922E-04    65   0.361E-02
   1084 T=   484. E= -.89176580E+02 F= -.10157803E+03 E0= -.10158311E+03  EK= 0.33135E+01 SP= 0.91E+01 SK= 0.17E-02
 bond charge predicted
 prediction of wavefunctions
       N       E                     dE             d eps       ncg     rms          rms(c)
DAV:   1    -0.101612430906E+03   -0.34412E-01   -0.51145E-03   192   0.215E-01    0.610E-03
RMM:   2    -0.101612488109E+03   -0.57203E-04   -0.59651E-04   119   0.719E-02
   1085 T=   488. E= -.89176411E+02 F= -.10161249E+03 E0= -.10161766E+03  EK= 0.33408E+01 SP= 0.91E+01 SK= 0.22E-05
 bond charge predicted
 prediction of wavefunctions
       N       E                     dE             d eps       ncg     rms          rms(c)
DAV:   1    -0.101655268077E+03   -0.42837E-01   -0.59390E-03   156   0.239E-01    0.103E-02
RMM:   2    -0.101655410066E+03   -0.14199E-03   -0.14970E-03   120   0.111E-01    0.637E-03
RMM:   3    -0.101655428980E+03   -0.18914E-04   -0.19601E-04    77   0.415E-02
   1086 T=   495. E= -.89176351E+02 F= -.10165543E+03 E0= -.10166076E+03  EK= 0.33919E+01 SP= 0.91E+01 SK= 0.18E-02
 bond charge predicted
 prediction of wavefunctions
       N       E                     dE             d eps       ncg     rms          rms(c)
DAV:   1    -0.101704452934E+03   -0.49043E-01   -0.61834E-03   180   0.216E-01    0.774E-03
RMM:   2    -0.101704509055E+03   -0.56121E-04   -0.60814E-04   120   0.703E-02
   1087 T=   506. E= -.89176097E+02 F= -.10170451E+03 E0= -.10171008E+03  EK= 0.34641E+01 SP= 0.91E+01 SK= 0.63E-02
 bond charge predicted
 prediction of wavefunctions
       N       E                     dE             d eps       ncg     rms          rms(c)
DAV:   1    -0.101757726541E+03   -0.53274E-01   -0.70151E-03   192   0.240E-01    0.108E-02
RMM:   2    -0.101757867556E+03   -0.14102E-03   -0.15005E-03   120   0.111E-01    0.682E-03
RMM:   3    -0.101757884854E+03   -0.17297E-04   -0.18509E-04    70   0.397E-02
   1088 T=   519. E= -.89175842E+02 F= -.10175788E+03 E0= -.10176379E+03  EK= 0.35546E+01 SP= 0.90E+01 SK= 0.13E-01
 bond charge predicted
 prediction of wavefunctions
       N       E                     dE             d eps       ncg     rms          rms(c)
DAV:   1    -0.101814021922E+03   -0.56154E-01   -0.70236E-03   144   0.219E-01    0.826E-03
RMM:   2    -0.101814084038E+03   -0.62116E-04   -0.67244E-04   120   0.738E-02
   1089 T=   534. E= -.89175667E+02 F= -.10181408E+03 E0= -.10182041E+03  EK= 0.36607E+01 SP= 0.90E+01 SK= 0.19E-01
 bond charge predicted
 prediction of wavefunctions
       N       E                     dE             d eps       ncg     rms          rms(c)
DAV:   1    -0.101871672087E+03   -0.57650E-01   -0.83262E-03   192   0.245E-01    0.124E-02
RMM:   2    -0.101871827376E+03   -0.15529E-03   -0.16725E-03   120   0.117E-01    0.715E-03
RMM:   3    -0.101871846917E+03   -0.19541E-04   -0.20729E-04    76   0.430E-02
   1090 T=   552. E= -.89175348E+02 F= -.10187185E+03 E0= -.10187865E+03  EK= 0.37801E+01 SP= 0.89E+01 SK= 0.26E-01
 bond charge predicted
 prediction of wavefunctions
       N       E                     dE             d eps       ncg     rms          rms(c)
DAV:   1    -0.101930754182E+03   -0.58927E-01   -0.80042E-03   192   0.222E-01    0.908E-03
RMM:   2    -0.101930818865E+03   -0.64682E-04   -0.71123E-04   120   0.765E-02
   1091 T=   571. E= -.89175070E+02 F= -.10193082E+03 E0= -.10193816E+03  EK= 0.39101E+01 SP= 0.88E+01 SK= 0.31E-01
 bond charge predicted
 prediction of wavefunctions
       N       E                     dE             d eps       ncg     rms          rms(c)
DAV:   1    -0.101990156405E+03   -0.59402E-01   -0.89208E-03   192   0.251E-01    0.115E-02
RMM:   2    -0.101990322282E+03   -0.16588E-03   -0.17512E-03   120   0.119E-01    0.716E-03
RMM:   3    -0.101990340785E+03   -0.18503E-04   -0.19636E-04    69   0.411E-02
   1092 T=   591. E= -.89174832E+02 F= -.10199034E+03 E0= -.10199831E+03  EK= 0.40477E+01 SP= 0.87E+01 SK= 0.33E-01
 bond charge predicted
 prediction of wavefunctions
       N       E                     dE             d eps       ncg     rms          rms(c)
DAV:   1    -0.102049259063E+03   -0.58937E-01   -0.90857E-03   180   0.227E-01    0.100E-02
RMM:   2    -0.102049329975E+03   -0.70912E-04   -0.79121E-04   120   0.789E-02
   1093 T=   611. E= -.89174452E+02 F= -.10204933E+03 E0= -.10205797E+03  EK= 0.41891E+01 SP= 0.87E+01 SK= 0.33E-01
 bond charge predicted
 prediction of wavefunctions
       N       E                     dE             d eps       ncg     rms          rms(c)
DAV:   1    -0.102106755966E+03   -0.57497E-01   -0.10097E-02   180   0.259E-01    0.123E-02
RMM:   2    -0.102106942443E+03   -0.18648E-03   -0.19738E-03   120   0.126E-01    0.702E-03
RMM:   3    -0.102106966867E+03   -0.24423E-04   -0.24882E-04    93   0.468E-02
   1094 T=   632. E= -.89174293E+02 F= -.10210697E+03 E0= -.10211628E+03  EK= 0.43295E+01 SP= 0.86E+01 SK= 0.30E-01
 bond charge predicted
 prediction of wavefunctions
       N       E                     dE             d eps       ncg     rms          rms(c)
DAV:   1    -0.102161272704E+03   -0.54330E-01   -0.98947E-03   204   0.234E-01    0.981E-03
RMM:   2    -0.102161352597E+03   -0.79892E-04   -0.87452E-04   120   0.839E-02
   1095 T=   652. E= -.89174145E+02 F= -.10216135E+03 E0= -.10217122E+03  EK= 0.44633E+01 SP= 0.85E+01 SK= 0.24E-01
 bond charge predicted
 prediction of wavefunctions
       N       E                     dE             d eps       ncg     rms          rms(c)
DAV:   1    -0.102210008183E+03   -0.48735E-01   -0.10474E-02   180   0.264E-01    0.145E-02
RMM:   2    -0.102210182260E+03   -0.17408E-03   -0.19058E-03   120   0.126E-01    0.822E-03
RMM:   3    -0.102210198729E+03   -0.16469E-04   -0.18384E-04    73   0.405E-02
   1096 T=   669. E= -.89174133E+02 F= -.10221020E+03 E0= -.10222042E+03  EK= 0.45840E+01 SP= 0.84E+01 SK= 0.18E-01
 bond charge predicted
 prediction of wavefunctions
       N       E                     dE             d eps       ncg     rms          rms(c)
DAV:   1    -0.102250459438E+03   -0.40277E-01   -0.83348E-03   204   0.235E-01    0.893E-03
RMM:   2    -0.102250525398E+03   -0.65960E-04   -0.71286E-04   120   0.788E-02
   1097 T=   684. E= -.89174030E+02 F= -.10225053E+03 E0= -.10226093E+03  EK= 0.46847E+01 SP= 0.84E+01 SK= 0.11E-01
 bond charge predicted
 prediction of wavefunctions
       N       E                     dE             d eps       ncg     rms          rms(c)
DAV:   1    -0.102279217191E+03   -0.28758E-01   -0.79585E-03   192   0.267E-01    0.134E-02
RMM:   2    -0.102279397318E+03   -0.18013E-03   -0.19085E-03   120   0.128E-01    0.813E-03
RMM:   3    -0.102279417887E+03   -0.20569E-04   -0.22130E-04    80   0.443E-02
   1098 T=   695. E= -.89173972E+02 F= -.10227942E+03 E0= -.10228985E+03  EK= 0.47585E+01 SP= 0.83E+01 SK= 0.48E-02
 bond charge predicted
 prediction of wavefunctions
       N       E                     dE             d eps       ncg     rms          rms(c)
DAV:   1    -0.102293373332E+03   -0.13976E-01   -0.73850E-03   180   0.238E-01    0.905E-03
RMM:   2    -0.102293451676E+03   -0.78344E-04   -0.83780E-04   120   0.831E-02
   1099 T=   701. E= -.89173733E+02 F= -.10229345E+03 E0= -.10230377E+03  EK= 0.47994E+01 SP= 0.83E+01 SK= 0.10E-02
 bond charge predicted
 prediction of wavefunctions
       N       E                     dE             d eps       ncg     rms          rms(c)
DAV:   1    -0.102289952331E+03    0.34210E-02   -0.90946E-03   204   0.271E-01    0.140E-02
RMM:   2    -0.102290135485E+03   -0.18315E-03   -0.19543E-03   120   0.129E-01    0.855E-03
RMM:   3    -0.102290152833E+03   -0.17347E-04   -0.19083E-04    73   0.413E-02
   1100 T=   701. E= -.89173436E+02 F= -.10229015E+03 E0= -.10230022E+03  EK= 0.48031E+01 SP= 0.83E+01 SK= 0.46E-04
 bond charge predicted
 prediction of wavefunctions
       N       E                     dE             d eps       ncg     rms          rms(c)
DAV:   1    -0.102267516372E+03    0.22619E-01   -0.64678E-03   132   0.243E-01    0.865E-03
RMM:   2    -0.102267596047E+03   -0.79675E-04   -0.84914E-04   120   0.835E-02
   1101 T=   696. E= -.89173065E+02 F= -.10226760E+03 E0= -.10227734E+03  EK= 0.47674E+01 SP= 0.83E+01 SK= 0.20E-02
 bond charge predicted
 prediction of wavefunctions
       N       E                     dE             d eps       ncg     rms          rms(c)
DAV:   1    -0.102224386507E+03    0.43130E-01   -0.71101E-03   216   0.276E-01    0.134E-02
RMM:   2    -0.102224590838E+03   -0.20433E-03   -0.21385E-03   120   0.133E-01    0.861E-03
RMM:   3    -0.102224608196E+03   -0.17358E-04   -0.18165E-04    74   0.408E-02
   1102 T=   685. E= -.89172355E+02 F= -.10222461E+03 E0= -.10223398E+03  EK= 0.46929E+01 SP= 0.84E+01 SK= 0.63E-02
 bond charge predicted
 prediction of wavefunctions
       N       E                     dE             d eps       ncg     rms          rms(c)
DAV:   1    -0.102162867651E+03    0.61723E-01   -0.66992E-03   204   0.240E-01    0.803E-03
RMM:   2    -0.102162952796E+03   -0.85145E-04   -0.89297E-04   120   0.836E-02
   1103 T=   669. E= -.89171749E+02 F= -.10216295E+03 E0= -.10217193E+03  EK= 0.45838E+01 SP= 0.84E+01 SK= 0.12E-01
 bond charge predicted
 prediction of wavefunctions
       N       E                     dE             d eps       ncg     rms          rms(c)
DAV:   1    -0.102085237905E+03    0.77630E-01   -0.77545E-03   216   0.273E-01    0.126E-02
RMM:   2    -0.102085473445E+03   -0.23554E-03   -0.24541E-03   120   0.137E-01    0.801E-03
RMM:   3    -0.102085497217E+03   -0.23773E-04   -0.23321E-04    91   0.445E-02
   1104 T=   649. E= -.89171159E+02 F= -.10208550E+03 E0= -.10209409E+03  EK= 0.44472E+01 SP= 0.84E+01 SK= 0.17E-01
 bond charge predicted
 prediction of wavefunctions
       N       E                     dE             d eps       ncg     rms          rms(c)
DAV:   1    -0.101995651982E+03    0.89821E-01   -0.82525E-03   180   0.236E-01    0.770E-03
RMM:   2    -0.101995758963E+03   -0.10698E-03   -0.11057E-03   120   0.918E-02    0.547E-03
RMM:   3    -0.101995779280E+03   -0.20317E-04   -0.20918E-04    80   0.404E-02
   1105 T=   626. E= -.89170375E+02 F= -.10199578E+03 E0= -.10200400E+03  EK= 0.42914E+01 SP= 0.85E+01 SK= 0.22E-01
 bond charge predicted
 prediction of wavefunctions
       N       E                     dE             d eps       ncg     rms          rms(c)
DAV:   1    -0.101899631686E+03    0.96127E-01   -0.62723E-03   204   0.226E-01    0.857E-03
RMM:   2    -0.101899727834E+03   -0.96148E-04   -0.99576E-04   120   0.915E-02
   1106 T=   602. E= -.89169618E+02 F= -.10189973E+03 E0= -.10190760E+03  EK= 0.41270E+01 SP= 0.86E+01 SK= 0.23E-01
 bond charge predicted
 prediction of wavefunctions
       N       E                     dE             d eps       ncg     rms          rms(c)
DAV:   1    -0.101803207831E+03    0.96424E-01   -0.62879E-03   168   0.251E-01    0.893E-03
RMM:   2    -0.101803389101E+03   -0.18127E-03   -0.18482E-03   120   0.126E-01    0.669E-03
RMM:   3    -0.101803414138E+03   -0.25037E-04   -0.24328E-04    87   0.460E-02
   1107 T=   579. E= -.89168734E+02 F= -.10180341E+03 E0= -.10181099E+03  EK= 0.39646E+01 SP= 0.86E+01 SK= 0.22E-01
 bond charge predicted
 prediction of wavefunctions
       N       E                     dE             d eps       ncg     rms          rms(c)
DAV:   1    -0.101713059580E+03    0.90330E-01   -0.56419E-03   180   0.205E-01    0.747E-03
RMM:   2    -0.101713118933E+03   -0.59353E-04   -0.61785E-04   119   0.708E-02
   1108 T=   557. E= -.89167918E+02 F= -.10171312E+03 E0= -.10172045E+03  EK= 0.38140E+01 SP= 0.87E+01 SK= 0.19E-01
 bond charge predicted
 prediction of wavefunctions
       N       E                     dE             d eps       ncg     rms          rms(c)
DAV:   1    -0.101634503406E+03    0.78556E-01   -0.60501E-03   204   0.230E-01    0.774E-03
RMM:   2    -0.101634652336E+03   -0.14893E-03   -0.15052E-03   120   0.110E-01    0.599E-03
RMM:   3    -0.101634665041E+03   -0.12705E-04   -0.11395E-04    68   0.320E-02
   1109 T=   538. E= -.89167323E+02 F= -.10163467E+03 E0= -.10164181E+03  EK= 0.36838E+01 SP= 0.88E+01 SK= 0.14E-01
 bond charge predicted
 prediction of wavefunctions
       N       E                     dE             d eps       ncg     rms          rms(c)
DAV:   1    -0.101573456212E+03    0.61196E-01   -0.56825E-03   192   0.187E-01    0.625E-03
RMM:   2    -0.101573502998E+03   -0.46786E-04   -0.48677E-04   120   0.583E-02
   1110 T=   523. E= -.89167083E+02 F= -.10157350E+03 E0= -.10158052E+03  EK= 0.35812E+01 SP= 0.88E+01 SK= 0.84E-02
 bond charge predicted
 prediction of wavefunctions
       N       E                     dE             d eps       ncg     rms          rms(c)
DAV:   1    -0.101533732746E+03    0.39723E-01   -0.58247E-03   204   0.219E-01    0.767E-03
RMM:   2    -0.101533871647E+03   -0.13890E-03   -0.14058E-03   120   0.109E-01    0.557E-03
RMM:   3    -0.101533886346E+03   -0.14699E-04   -0.13202E-04    67   0.345E-02
   1111 T=   513. E= -.89166848E+02 F= -.10153389E+03 E0= -.10154083E+03  EK= 0.35123E+01 SP= 0.89E+01 SK= 0.37E-02
 bond charge predicted
 prediction of wavefunctions
       N       E                     dE             d eps       ncg     rms          rms(c)
DAV:   1    -0.101518294769E+03    0.15577E-01   -0.51482E-03   168   0.189E-01    0.508E-03
RMM:   2    -0.101518362144E+03   -0.67375E-04   -0.68341E-04   119   0.721E-02
   1112 T=   508. E= -.89166635E+02 F= -.10151836E+03 E0= -.10152529E+03  EK= 0.34803E+01 SP= 0.89E+01 SK= 0.72E-03
 bond charge predicted
 prediction of wavefunctions
       N       E                     dE             d eps       ncg     rms          rms(c)
DAV:   1    -0.101527219206E+03   -0.89244E-02   -0.60234E-03   204   0.223E-01    0.871E-03
RMM:   2    -0.101527359687E+03   -0.14048E-03   -0.14392E-03   120   0.113E-01    0.638E-03
RMM:   3    -0.101527374411E+03   -0.14724E-04   -0.14082E-04    66   0.366E-02
   1113 T=   509. E= -.89166517E+02 F= -.10152737E+03 E0= -.10153433E+03  EK= 0.34857E+01 SP= 0.89E+01 SK= 0.57E-04
 bond charge predicted
 prediction of wavefunctions
       N       E                     dE             d eps       ncg     rms          rms(c)
DAV:   1    -0.101559456939E+03   -0.32097E-01   -0.50883E-03   168   0.194E-01    0.519E-03
RMM:   2    -0.101559526379E+03   -0.69440E-04   -0.71065E-04   120   0.710E-02
   1114 T=   515. E= -.89166576E+02 F= -.10155953E+03 E0= -.10156655E+03  EK= 0.35271E+01 SP= 0.89E+01 SK= 0.17E-02
 bond charge predicted
 prediction of wavefunctions
       N       E                     dE             d eps       ncg     rms          rms(c)
DAV:   1    -0.101610819738E+03   -0.51363E-01   -0.59422E-03   240   0.229E-01    0.100E-02
RMM:   2    -0.101610966175E+03   -0.14644E-03   -0.15208E-03   120   0.114E-01    0.672E-03
RMM:   3    -0.101610978125E+03   -0.11949E-04   -0.11343E-04    64   0.328E-02
   1115 T=   526. E= -.89166626E+02 F= -.10161098E+03 E0= -.10161810E+03  EK= 0.36002E+01 SP= 0.88E+01 SK= 0.50E-02
 bond charge predicted
 prediction of wavefunctions
       N       E                     dE             d eps       ncg     rms          rms(c)
DAV:   1    -0.101676237516E+03   -0.65271E-01   -0.52909E-03   204   0.204E-01    0.605E-03
RMM:   2    -0.101676303760E+03   -0.66244E-04   -0.68653E-04   120   0.732E-02
   1116 T=   540. E= -.89166832E+02 F= -.10167630E+03 E0= -.10168356E+03  EK= 0.36985E+01 SP= 0.88E+01 SK= 0.91E-02
 bond charge predicted
 prediction of wavefunctions
       N       E                     dE             d eps       ncg     rms          rms(c)
DAV:   1    -0.101748265080E+03   -0.72028E-01   -0.55474E-03   168   0.240E-01    0.118E-02
RMM:   2    -0.101748425412E+03   -0.16033E-03   -0.17056E-03   120   0.118E-01    0.706E-03
RMM:   3    -0.101748444909E+03   -0.19497E-04   -0.20532E-04    73   0.431E-02
   1117 T=   557. E= -.89167126E+02 F= -.10174844E+03 E0= -.10175584E+03  EK= 0.38138E+01 SP= 0.88E+01 SK= 0.13E-01
 bond charge predicted
 prediction of wavefunctions
       N       E                     dE             d eps       ncg     rms          rms(c)
DAV:   1    -0.101819337747E+03   -0.70912E-01   -0.55732E-03   156   0.217E-01    0.830E-03
RMM:   2    -0.101819405293E+03   -0.67546E-04   -0.72307E-04   119   0.777E-02
   1118 T=   575. E= -.89167315E+02 F= -.10181941E+03 E0= -.10182695E+03  EK= 0.39360E+01 SP= 0.87E+01 SK= 0.16E-01
 bond charge predicted
 prediction of wavefunctions
       N       E                     dE             d eps       ncg     rms          rms(c)
DAV:   1    -0.101880861995E+03   -0.61524E-01   -0.63788E-03   168   0.254E-01    0.141E-02
RMM:   2    -0.101881028875E+03   -0.16688E-03   -0.18240E-03   120   0.125E-01    0.813E-03
RMM:   3    -0.101881048291E+03   -0.19416E-04   -0.21236E-04    80   0.438E-02
   1119 T=   592. E= -.89167338E+02 F= -.10188105E+03 E0= -.10188879E+03  EK= 0.40548E+01 SP= 0.86E+01 SK= 0.18E-01
 bond charge predicted
 prediction of wavefunctions
       N       E                     dE             d eps       ncg     rms          rms(c)
DAV:   1    -0.101926979888E+03   -0.45951E-01   -0.59639E-03   180   0.229E-01    0.110E-02
RMM:   2    -0.101927040362E+03   -0.60475E-04   -0.70439E-04   120   0.806E-02
   1120 T=   607. E= -.89167445E+02 F= -.10192704E+03 E0= -.10193504E+03  EK= 0.41606E+01 SP= 0.86E+01 SK= 0.18E-01
 bond charge predicted
 prediction of wavefunctions
       N       E                     dE             d eps       ncg     rms          rms(c)
DAV:   1    -0.101952401103E+03   -0.25421E-01   -0.63530E-03   156   0.264E-01    0.112E-02
RMM:   2    -0.101952573048E+03   -0.17194E-03   -0.18129E-03   120   0.126E-01    0.636E-03
RMM:   3    -0.101952591761E+03   -0.18713E-04   -0.18865E-04    71   0.417E-02
   1121 T=   620. E= -.89167298E+02 F= -.10195259E+03 E0= -.10196088E+03  EK= 0.42463E+01 SP= 0.85E+01 SK= 0.16E-01
 bond charge predicted
 prediction of wavefunctions
       N       E                     dE             d eps       ncg     rms          rms(c)
DAV:   1    -0.101955500276E+03   -0.29272E-02   -0.54999E-03   132   0.233E-01    0.940E-03
RMM:   2    -0.101955566775E+03   -0.66499E-04   -0.72452E-04   120   0.824E-02
   1122 T=   629. E= -.89166982E+02 F= -.10195557E+03 E0= -.10196415E+03  EK= 0.43069E+01 SP= 0.85E+01 SK= 0.14E-01
 bond charge predicted
 prediction of wavefunctions
       N       E                     dE             d eps       ncg     rms          rms(c)
DAV:   1    -0.101936425509E+03    0.19075E-01   -0.58542E-03   156   0.274E-01    0.985E-03
RMM:   2    -0.101936624905E+03   -0.19940E-03   -0.20631E-03   120   0.133E-01    0.558E-03
RMM:   3    -0.101936651563E+03   -0.26658E-04   -0.25574E-04    89   0.488E-02
   1123 T=   634. E= -.89166344E+02 F= -.10193665E+03 E0= -.10194554E+03  EK= 0.43413E+01 SP= 0.84E+01 SK= 0.11E-01
 bond charge predicted
 prediction of wavefunctions
       N       E                     dE             d eps       ncg     rms          rms(c)
DAV:   1    -0.101899653757E+03    0.36971E-01   -0.41213E-03   132   0.238E-01    0.843E-03
RMM:   2    -0.101899736687E+03   -0.82931E-04   -0.87569E-04   120   0.902E-02
   1124 T=   635. E= -.89165354E+02 F= -.10189974E+03 E0= -.10190880E+03  EK= 0.43521E+01 SP= 0.84E+01 SK= 0.83E-02
 bond charge predicted
 prediction of wavefunctions
       N       E                     dE             d eps       ncg     rms          rms(c)
DAV:   1    -0.101851855686E+03    0.47798E-01   -0.42175E-03   168   0.274E-01    0.111E-02
RMM:   2    -0.101852050859E+03   -0.19517E-03   -0.20255E-03   120   0.132E-01    0.769E-03
RMM:   3    -0.101852068909E+03   -0.18050E-04   -0.18375E-04    73   0.403E-02
   1125 T=   634. E= -.89164403E+02 F= -.10185207E+03 E0= -.10186111E+03  EK= 0.43456E+01 SP= 0.83E+01 SK= 0.60E-02
 bond charge predicted
 prediction of wavefunctions
       N       E                     dE             d eps       ncg     rms          rms(c)
DAV:   1    -0.101802151866E+03    0.49899E-01   -0.29306E-03   156   0.233E-01    0.685E-03
RMM:   2    -0.101802220376E+03   -0.68511E-04   -0.71067E-04   120   0.836E-02
   1126 T=   632. E= -.89163381E+02 F= -.10180222E+03 E0= -.10181102E+03  EK= 0.43305E+01 SP= 0.83E+01 SK= 0.41E-02
 bond charge predicted
 prediction of wavefunctions
       N       E                     dE             d eps       ncg     rms          rms(c)
DAV:   1    -0.101759483854E+03    0.42668E-01   -0.34562E-03   168   0.275E-01    0.114E-02
RMM:   2    -0.101759676962E+03   -0.19311E-03   -0.20150E-03   120   0.135E-01    0.649E-03
RMM:   3    -0.101759698172E+03   -0.21210E-04   -0.20766E-04    81   0.446E-02
   1127 T=   630. E= -.89162316E+02 F= -.10175970E+03 E0= -.10176816E+03  EK= 0.43166E+01 SP= 0.83E+01 SK= 0.27E-02
 bond charge predicted
 prediction of wavefunctions
       N       E                     dE             d eps       ncg     rms          rms(c)
DAV:   1    -0.101733944118E+03    0.25733E-01   -0.27766E-03   156   0.232E-01    0.698E-03
RMM:   2    -0.101734025343E+03   -0.81225E-04   -0.84466E-04   120   0.891E-02
   1128 T=   630. E= -.89161159E+02 F= -.10173403E+03 E0= -.10174213E+03  EK= 0.43141E+01 SP= 0.83E+01 SK= 0.17E-02
 bond charge predicted
 prediction of wavefunctions
       N       E                     dE             d eps       ncg     rms          rms(c)
DAV:   1    -0.101733003985E+03    0.94013E-03   -0.41837E-03   192   0.274E-01    0.121E-02
RMM:   2    -0.101733199984E+03   -0.19600E-03   -0.20739E-03   120   0.134E-01    0.707E-03
RMM:   3    -0.101733222010E+03   -0.22025E-04   -0.22251E-04    78   0.453E-02
   1129 T=   632. E= -.89160307E+02 F= -.10173322E+03 E0= -.10174102E+03  EK= 0.43306E+01 SP= 0.82E+01 SK= 0.83E-03
 bond charge predicted
 prediction of wavefunctions
       N       E                     dE             d eps       ncg     rms          rms(c)
DAV:   1    -0.101761594785E+03   -0.28395E-01   -0.36986E-03   180   0.232E-01    0.755E-03
RMM:   2    -0.101761683354E+03   -0.88569E-04   -0.92191E-04   120   0.910E-02
   1130 T=   638. E= -.89159869E+02 F= -.10176168E+03 E0= -.10176925E+03  EK= 0.43700E+01 SP= 0.82E+01 SK= 0.24E-03
 bond charge predicted
 prediction of wavefunctions
       N       E                     dE             d eps       ncg     rms          rms(c)
DAV:   1    -0.101819811751E+03   -0.58217E-01   -0.57645E-03   204   0.272E-01    0.130E-02
RMM:   2    -0.101820009504E+03   -0.19775E-03   -0.20917E-03   120   0.135E-01    0.769E-03
RMM:   3    -0.101820028872E+03   -0.19368E-04   -0.19383E-04    78   0.431E-02
   1131 T=   647. E= -.89159498E+02 F= -.10182003E+03 E0= -.10182740E+03  EK= 0.44323E+01 SP= 0.82E+01 SK= 0.68E-06
 bond charge predicted
 prediction of wavefunctions
       N       E                     dE             d eps       ncg     rms          rms(c)
DAV:   1    -0.101905953484E+03   -0.85944E-01   -0.62416E-03   180   0.232E-01    0.858E-03
RMM:   2    -0.101906050035E+03   -0.96551E-04   -0.10180E-03   120   0.898E-02    0.651E-03
RMM:   3    -0.101906068121E+03   -0.18086E-04   -0.20809E-04    81   0.395E-02
   1132 T=   659. E= -.89159578E+02 F= -.10190607E+03 E0= -.10191323E+03  EK= 0.45129E+01 SP= 0.82E+01 SK= 0.44E-03
 bond charge predicted
 prediction of wavefunctions
       N       E                     dE             d eps       ncg     rms          rms(c)
DAV:   1    -0.102013951200E+03   -0.10790E+00   -0.84500E-03   204   0.240E-01    0.860E-03
RMM:   2    -0.102014056248E+03   -0.10505E-03   -0.10985E-03   120   0.982E-02    0.487E-03
RMM:   3    -0.102014069370E+03   -0.13122E-04   -0.13329E-04    73   0.350E-02
   1133 T=   672. E= -.89159834E+02 F= -.10201407E+03 E0= -.10202095E+03  EK= 0.46038E+01 SP= 0.82E+01 SK= 0.21E-02
 bond charge predicted
 prediction of wavefunctions
       N       E                     dE             d eps       ncg     rms          rms(c)
DAV:   1    -0.102135694107E+03   -0.12164E+00   -0.83741E-03   192   0.244E-01    0.823E-03
RMM:   2    -0.102135808548E+03   -0.11444E-03   -0.11817E-03   120   0.103E-01    0.586E-03
RMM:   3    -0.102135819948E+03   -0.11400E-04   -0.11902E-04    72   0.324E-02
   1134 T=   685. E= -.89160221E+02 F= -.10213582E+03 E0= -.10214234E+03  EK= 0.46940E+01 SP= 0.83E+01 SK= 0.58E-02
 bond charge predicted
 prediction of wavefunctions
       N       E                     dE             d eps       ncg     rms          rms(c)
DAV:   1    -0.102261756882E+03   -0.12595E+00   -0.86284E-03   180   0.241E-01    0.612E-03
RMM:   2    -0.102261847423E+03   -0.90542E-04   -0.91707E-04   120   0.949E-02
   1135 T=   696. E= -.89160243E+02 F= -.10226185E+03 E0= -.10226791E+03  EK= 0.47714E+01 SP= 0.83E+01 SK= 0.12E-01
 bond charge predicted
 prediction of wavefunctions
       N       E                     dE             d eps       ncg     rms          rms(c)
DAV:   1    -0.102382849211E+03   -0.12109E+00   -0.94316E-03   168   0.272E-01    0.919E-03
RMM:   2    -0.102383039359E+03   -0.19015E-03   -0.19258E-03   120   0.131E-01    0.696E-03
RMM:   3    -0.102383065030E+03   -0.25671E-04   -0.24516E-04    82   0.471E-02
   1136 T=   704. E= -.89160037E+02 F= -.10238307E+03 E0= -.10238862E+03  EK= 0.48242E+01 SP= 0.84E+01 SK= 0.22E-01
 bond charge predicted
 prediction of wavefunctions
       N       E                     dE             d eps       ncg     rms          rms(c)
DAV:   1    -0.102490993297E+03   -0.10795E+00   -0.88599E-03   156   0.239E-01    0.583E-03
RMM:   2    -0.102491076562E+03   -0.83265E-04   -0.84244E-04   120   0.873E-02
   1137 T=   707. E= -.89159657E+02 F= -.10249108E+03 E0= -.10249611E+03  EK= 0.48424E+01 SP= 0.85E+01 SK= 0.36E-01
 bond charge predicted
 prediction of wavefunctions
       N       E                     dE             d eps       ncg     rms          rms(c)
DAV:   1    -0.102578881545E+03   -0.87888E-01   -0.97599E-03   192   0.282E-01    0.971E-03
RMM:   2    -0.102579088864E+03   -0.20732E-03   -0.20902E-03   120   0.136E-01    0.696E-03
RMM:   3    -0.102579106294E+03   -0.17431E-04   -0.15504E-04    64   0.370E-02
   1138 T=   703. E= -.89159195E+02 F= -.10257911E+03 E0= -.10258371E+03  EK= 0.48193E+01 SP= 0.85E+01 SK= 0.53E-01
 bond charge predicted
 prediction of wavefunctions
       N       E                     dE             d eps       ncg     rms          rms(c)
DAV:   1    -0.102642395637E+03   -0.63307E-01   -0.87349E-03   180   0.229E-01    0.567E-03
RMM:   2    -0.102642448265E+03   -0.52629E-04   -0.53762E-04   120   0.633E-02
   1139 T=   694. E= -.89158574E+02 F= -.10264245E+03 E0= -.10264676E+03  EK= 0.47521E+01 SP= 0.87E+01 SK= 0.72E-01
 bond charge predicted
 prediction of wavefunctions
       N       E                     dE             d eps       ncg     rms          rms(c)
DAV:   1    -0.102679392626E+03   -0.36997E-01   -0.98280E-03   216   0.270E-01    0.967E-03
RMM:   2    -0.102679569514E+03   -0.17689E-03   -0.18020E-03   120   0.129E-01    0.668E-03
RMM:   3    -0.102679585541E+03   -0.16027E-04   -0.15280E-04    68   0.376E-02
   1140 T=   678. E= -.89157815E+02 F= -.10267959E+03 E0= -.10268378E+03  EK= 0.46428E+01 SP= 0.88E+01 SK= 0.91E-01
 bond charge predicted
 prediction of wavefunctions
       N       E                     dE             d eps       ncg     rms          rms(c)
DAV:   1    -0.102690991941E+03   -0.11422E-01   -0.61295E-03   156   0.227E-01    0.486E-03
RMM:   2    -0.102691063959E+03   -0.72019E-04   -0.73064E-04   120   0.764E-02
   1141 T=   656. E= -.89156880E+02 F= -.10269106E+03 E0= -.10269534E+03  EK= 0.44974E+01 SP= 0.89E+01 SK= 0.11E+00
 bond charge predicted
 prediction of wavefunctions
       N       E                     dE             d eps       ncg     rms          rms(c)
DAV:   1    -0.102678818243E+03    0.12174E-01   -0.60906E-03   168   0.259E-01    0.945E-03
RMM:   2    -0.102678997917E+03   -0.17967E-03   -0.18355E-03   120   0.125E-01    0.690E-03
RMM:   3    -0.102679019736E+03   -0.21818E-04   -0.21732E-04    82   0.431E-02
   1142 T=   631. E= -.89155736E+02 F= -.10267902E+03 E0= -.10268361E+03  EK= 0.43237E+01 SP= 0.91E+01 SK= 0.12E+00
 bond charge predicted
 prediction of wavefunctions
       N       E                     dE             d eps       ncg     rms          rms(c)
DAV:   1    -0.102647854307E+03    0.31144E-01   -0.46220E-03   156   0.218E-01    0.559E-03
RMM:   2    -0.102647927940E+03   -0.73633E-04   -0.75664E-04   120   0.805E-02
   1143 T=   603. E= -.89154685E+02 F= -.10264793E+03 E0= -.10265316E+03  EK= 0.41321E+01 SP= 0.92E+01 SK= 0.12E+00
 bond charge predicted
 prediction of wavefunctions
       N       E                     dE             d eps       ncg     rms          rms(c)
DAV:   1    -0.102603057816E+03    0.44796E-01   -0.48332E-03   156   0.251E-01    0.114E-02
RMM:   2    -0.102603236355E+03   -0.17854E-03   -0.18716E-03   120   0.124E-01    0.763E-03
RMM:   3    -0.102603255225E+03   -0.18870E-04   -0.19867E-04    76   0.413E-02
   1144 T=   574. E= -.89153645E+02 F= -.10260326E+03 E0= -.10260951E+03  EK= 0.39338E+01 SP= 0.94E+01 SK= 0.12E+00
 bond charge predicted
 prediction of wavefunctions
       N       E                     dE             d eps       ncg     rms          rms(c)
DAV:   1    -0.102551344527E+03    0.51892E-01   -0.33959E-03   156   0.205E-01    0.816E-03
RMM:   2    -0.102551399528E+03   -0.55001E-04   -0.60190E-04   120   0.690E-02
   1145 T=   546. E= -.89152808E+02 F= -.10255140E+03 E0= -.10255884E+03  EK= 0.37396E+01 SP= 0.95E+01 SK= 0.11E+00
 bond charge predicted
 prediction of wavefunctions
       N       E                     dE             d eps       ncg     rms          rms(c)
DAV:   1    -0.102499223699E+03    0.52121E-01   -0.36337E-03   180   0.233E-01    0.217E-02
RMM:   2    -0.102499345215E+03   -0.12152E-03   -0.15936E-03   120   0.113E-01    0.119E-02
RMM:   3    -0.102499354930E+03   -0.97148E-05   -0.19769E-04    77   0.404E-02
   1146 T=   520. E= -.89152035E+02 F= -.10249935E+03 E0= -.10250749E+03  EK= 0.35601E+01 SP= 0.97E+01 SK= 0.95E-01
 bond charge predicted
 prediction of wavefunctions
       N       E                     dE             d eps       ncg     rms          rms(c)
DAV:   1    -0.102454537014E+03    0.44808E-01   -0.28311E-03   192   0.193E-01    0.948E-03
RMM:   2    -0.102454600442E+03   -0.63428E-04   -0.70699E-04   120   0.737E-02
   1147 T=   497. E= -.89151558E+02 F= -.10245460E+03 E0= -.10246294E+03  EK= 0.34050E+01 SP= 0.98E+01 SK= 0.75E-01
 bond charge predicted
 prediction of wavefunctions
       N       E                     dE             d eps       ncg     rms          rms(c)
DAV:   1    -0.102423332623E+03    0.31204E-01   -0.30625E-03   168   0.216E-01    0.145E-02
RMM:   2    -0.102423462360E+03   -0.12974E-03   -0.14656E-03   120   0.107E-01    0.852E-03
RMM:   3    -0.102423476261E+03   -0.13901E-04   -0.18221E-04    69   0.395E-02
   1148 T=   479. E= -.89151081E+02 F= -.10242348E+03 E0= -.10243183E+03  EK= 0.32819E+01 SP= 0.99E+01 SK= 0.53E-01
 bond charge predicted
 prediction of wavefunctions
       N       E                     dE             d eps       ncg     rms          rms(c)
DAV:   1    -0.102411733060E+03    0.11729E-01   -0.36502E-03   192   0.184E-01    0.123E-02
RMM:   2    -0.102411778777E+03   -0.45718E-04   -0.56641E-04   120   0.681E-02
   1149 T=   467. E= -.89150845E+02 F= -.10241178E+03 E0= -.10242018E+03  EK= 0.31969E+01 SP= 0.10E+02 SK= 0.34E-01
 bond charge predicted
 prediction of wavefunctions
       N       E                     dE             d eps       ncg     rms          rms(c)
DAV:   1    -0.102422817866E+03   -0.11085E-01   -0.40123E-03   192   0.213E-01    0.134E-02
RMM:   2    -0.102422945056E+03   -0.12719E-03   -0.14268E-03   120   0.106E-01    0.651E-03
RMM:   3    -0.102422961799E+03   -0.16743E-04   -0.17855E-04    69   0.393E-02
   1150 T=   460. E= -.89150503E+02 F= -.10242296E+03 E0= -.10243151E+03  EK= 0.31536E+01 SP= 0.10E+02 SK= 0.17E-01
 bond charge predicted
 prediction of wavefunctions
       N       E                     dE             d eps       ncg     rms          rms(c)
DAV:   1    -0.102459087320E+03   -0.36142E-01   -0.20741E-03   132   0.184E-01    0.100E-02
RMM:   2    -0.102459133793E+03   -0.46473E-04   -0.54418E-04   120   0.670E-02
   1151 T=   460. E= -.89150312E+02 F= -.10245913E+03 E0= -.10246788E+03  EK= 0.31534E+01 SP= 0.10E+02 SK= 0.63E-02
 bond charge predicted
 prediction of wavefunctions
       N       E                     dE             d eps       ncg     rms          rms(c)
DAV:   1    -0.102519435179E+03   -0.60348E-01   -0.25147E-03   192   0.216E-01    0.108E-02
RMM:   2    -0.102519552498E+03   -0.11732E-03   -0.12619E-03   120   0.103E-01    0.684E-03
RMM:   3    -0.102519565794E+03   -0.13297E-04   -0.15390E-04    67   0.363E-02
   1152 T=   466. E= -.89150187E+02 F= -.10251957E+03 E0= -.10252841E+03  EK= 0.31953E+01 SP= 0.10E+02 SK= 0.79E-03
 bond charge predicted
 prediction of wavefunctions
       N       E                     dE             d eps       ncg     rms          rms(c)
DAV:   1    -0.102601254954E+03   -0.81702E-01   -0.20318E-03   144   0.196E-01    0.843E-03
RMM:   2    -0.102601309705E+03   -0.54751E-04   -0.59950E-04   120   0.705E-02
   1153 T=   478. E= -.89150100E+02 F= -.10260131E+03 E0= -.10260984E+03  EK= 0.32757E+01 SP= 0.10E+02 SK= 0.40E-03
 bond charge predicted
 prediction of wavefunctions
       N       E                     dE             d eps       ncg     rms          rms(c)
DAV:   1    -0.102699751452E+03   -0.98496E-01   -0.26264E-03   192   0.232E-01    0.103E-02
RMM:   2    -0.102699887570E+03   -0.13612E-03   -0.14441E-03   120   0.109E-01    0.585E-03
RMM:   3    -0.102699905810E+03   -0.18240E-04   -0.18621E-04    72   0.403E-02
   1154 T=   495. E= -.89149987E+02 F= -.10269991E+03 E0= -.10270751E+03  EK= 0.33895E+01 SP= 0.10E+02 SK= 0.39E-02
 bond charge predicted
 prediction of wavefunctions
       N       E                     dE             d eps       ncg     rms          rms(c)
DAV:   1    -0.102809683404E+03   -0.10980E+00   -0.22912E-03   204   0.213E-01    0.113E-02
RMM:   2    -0.102809738677E+03   -0.55273E-04   -0.65398E-04   120   0.750E-02
   1155 T=   515. E= -.89149914E+02 F= -.10280974E+03 E0= -.10281610E+03  EK= 0.35299E+01 SP= 0.10E+02 SK= 0.96E-02
 bond charge predicted
 prediction of wavefunctions
       N       E                     dE             d eps       ncg     rms          rms(c)
DAV:   1    -0.102924286470E+03   -0.11460E+00   -0.36592E-03   192   0.249E-01    0.150E-02
RMM:   2    -0.102924432829E+03   -0.14636E-03   -0.16104E-03   120   0.116E-01    0.904E-03
RMM:   3    -0.102924448539E+03   -0.15710E-04   -0.18106E-04    74   0.395E-02
   1156 T=   538. E= -.89150046E+02 F= -.10292445E+03 E0= -.10292979E+03  EK= 0.36887E+01 SP= 0.10E+02 SK= 0.16E-01
 bond charge predicted
 prediction of wavefunctions
       N       E                     dE             d eps       ncg     rms          rms(c)
DAV:   1    -0.103036242681E+03   -0.11181E+00   -0.37333E-03   204   0.227E-01    0.748E-03
RMM:   2    -0.103036310049E+03   -0.67369E-04   -0.71593E-04   120   0.796E-02
   1157 T=   563. E= -.89150051E+02 F= -.10303631E+03 E0= -.10304093E+03  EK= 0.38562E+01 SP= 0.10E+02 SK= 0.21E-01
 bond charge predicted
 prediction of wavefunctions
       N       E                     dE             d eps       ncg     rms          rms(c)
DAV:   1    -0.103137808737E+03   -0.10157E+00   -0.57997E-03   204   0.265E-01    0.115E-02
RMM:   2    -0.103137979675E+03   -0.17094E-03   -0.17804E-03   120   0.125E-01    0.704E-03
RMM:   3    -0.103137996636E+03   -0.16961E-04   -0.17008E-04    71   0.399E-02
   1158 T=   587. E= -.89150090E+02 F= -.10313800E+03 E0= -.10314209E+03  EK= 0.40219E+01 SP= 0.99E+01 SK= 0.23E-01
 bond charge predicted
 prediction of wavefunctions
       N       E                     dE             d eps       ncg     rms          rms(c)
DAV:   1    -0.103222732238E+03   -0.84753E-01   -0.45011E-03   192   0.240E-01    0.787E-03
RMM:   2    -0.103222805788E+03   -0.73550E-04   -0.78379E-04   120   0.821E-02
   1159 T=   609. E= -.89150292E+02 F= -.10322281E+03 E0= -.10322652E+03  EK= 0.41752E+01 SP= 0.99E+01 SK= 0.23E-01
 bond charge predicted
 prediction of wavefunctions
       N       E                     dE             d eps       ncg     rms          rms(c)
DAV:   1    -0.103284312725E+03   -0.61580E-01   -0.59873E-03   204   0.279E-01    0.109E-02
RMM:   2    -0.103284502523E+03   -0.18980E-03   -0.19750E-03   120   0.132E-01    0.695E-03
RMM:   3    -0.103284520787E+03   -0.18263E-04   -0.18487E-04    72   0.413E-02
   1160 T=   629. E= -.89150533E+02 F= -.10328452E+03 E0= -.10328798E+03  EK= 0.43060E+01 SP= 0.98E+01 SK= 0.21E-01
 bond charge predicted
 prediction of wavefunctions
       N       E                     dE             d eps       ncg     rms          rms(c)
DAV:   1    -0.103318134714E+03   -0.33632E-01   -0.63450E-03   168   0.247E-01    0.794E-03
RMM:   2    -0.103318210542E+03   -0.75828E-04   -0.80080E-04   120   0.816E-02
   1161 T=   643. E= -.89150431E+02 F= -.10331821E+03 E0= -.10332149E+03  EK= 0.44058E+01 SP= 0.97E+01 SK= 0.17E-01
 bond charge predicted
 prediction of wavefunctions
       N       E                     dE             d eps       ncg     rms          rms(c)
DAV:   1    -0.103321269847E+03   -0.31351E-02   -0.87266E-03   192   0.284E-01    0.140E-02
RMM:   2    -0.103321462625E+03   -0.19278E-03   -0.20623E-03   120   0.137E-01    0.830E-03
RMM:   3    -0.103321482361E+03   -0.19735E-04   -0.21269E-04    78   0.450E-02
   1162 T=   652. E= -.89150221E+02 F= -.10332148E+03 E0= -.10332462E+03  EK= 0.44684E+01 SP= 0.97E+01 SK= 0.13E-01
 bond charge predicted
 prediction of wavefunctions
       N       E                     dE             d eps       ncg     rms          rms(c)
DAV:   1    -0.103293244882E+03    0.28218E-01   -0.87036E-03   168   0.251E-01    0.110E-02
RMM:   2    -0.103293329086E+03   -0.84204E-04   -0.93682E-04   120   0.872E-02
   1163 T=   656. E= -.89149485E+02 F= -.10329333E+03 E0= -.10329637E+03  EK= 0.44910E+01 SP= 0.96E+01 SK= 0.83E-02
 bond charge predicted
 prediction of wavefunctions
       N       E                     dE             d eps       ncg     rms          rms(c)
DAV:   1    -0.103235371297E+03    0.57874E-01   -0.10699E-02   204   0.285E-01    0.144E-02
RMM:   2    -0.103235569346E+03   -0.19805E-03   -0.21365E-03   120   0.136E-01    0.786E-03
RMM:   3    -0.103235588998E+03   -0.19653E-04   -0.20519E-04    80   0.440E-02
   1164 T=   653. E= -.89148922E+02 F= -.10323559E+03 E0= -.10323859E+03  EK= 0.44733E+01 SP= 0.96E+01 SK= 0.48E-02
 bond charge predicted
 prediction of wavefunctions
       N       E                     dE             d eps       ncg     rms          rms(c)
DAV:   1    -0.103150973761E+03    0.84596E-01   -0.10232E-02   156   0.249E-01    0.116E-02
RMM:   2    -0.103151056827E+03   -0.83067E-04   -0.94015E-04   120   0.902E-02
   1165 T=   645. E= -.89148127E+02 F= -.10315106E+03 E0= -.10315404E+03  EK= 0.44189E+01 SP= 0.96E+01 SK= 0.25E-02
 bond charge predicted
 prediction of wavefunctions
       N       E                     dE             d eps       ncg     rms          rms(c)
DAV:   1    -0.103045337357E+03    0.10564E+00   -0.11004E-02   168   0.280E-01    0.124E-02
RMM:   2    -0.103045547732E+03   -0.21037E-03   -0.22041E-03   120   0.136E-01    0.756E-03
RMM:   3    -0.103045571070E+03   -0.23337E-04   -0.23115E-04    85   0.467E-02
   1166 T=   633. E= -.89147248E+02 F= -.10304557E+03 E0= -.10304857E+03  EK= 0.43349E+01 SP= 0.96E+01 SK= 0.12E-02
 bond charge predicted
 prediction of wavefunctions
       N       E                     dE             d eps       ncg     rms          rms(c)
DAV:   1    -0.102926023532E+03    0.11952E+00   -0.96735E-03   156   0.237E-01    0.107E-02
RMM:   2    -0.102926097251E+03   -0.73719E-04   -0.82817E-04   120   0.851E-02
   1167 T=   618. E= -.89146259E+02 F= -.10292610E+03 E0= -.10292915E+03  EK= 0.42306E+01 SP= 0.95E+01 SK= 0.63E-03
 bond charge predicted
 prediction of wavefunctions
       N       E                     dE             d eps       ncg     rms          rms(c)
DAV:   1    -0.102800709942E+03    0.12531E+00   -0.92577E-03   168   0.269E-01    0.119E-02
RMM:   2    -0.102800892157E+03   -0.18221E-03   -0.19034E-03   120   0.128E-01    0.738E-03
RMM:   3    -0.102800910795E+03   -0.18638E-04   -0.18387E-04    77   0.410E-02
   1168 T=   601. E= -.89145426E+02 F= -.10280091E+03 E0= -.10280406E+03  EK= 0.41168E+01 SP= 0.95E+01 SK= 0.45E-03
 bond charge predicted
 prediction of wavefunctions
       N       E                     dE             d eps       ncg     rms          rms(c)
DAV:   1    -0.102678234051E+03    0.12266E+00   -0.69182E-03   156   0.231E-01    0.883E-03
RMM:   2    -0.102678312776E+03   -0.78725E-04   -0.84930E-04   120   0.866E-02
   1169 T=   585. E= -.89144645E+02 F= -.10267831E+03 E0= -.10268160E+03  EK= 0.40050E+01 SP= 0.95E+01 SK= 0.55E-03
 bond charge predicted
 prediction of wavefunctions
       N       E                     dE             d eps       ncg     rms          rms(c)
DAV:   1    -0.102565861902E+03    0.11237E+00   -0.74429E-03   168   0.259E-01    0.109E-02
RMM:   2    -0.102566039733E+03   -0.17783E-03   -0.18384E-03   120   0.124E-01    0.717E-03
RMM:   3    -0.102566060010E+03   -0.20278E-04   -0.19794E-04    73   0.425E-02
   1170 T=   570. E= -.89143986E+02 F= -.10256606E+03 E0= -.10256953E+03  EK= 0.39054E+01 SP= 0.95E+01 SK= 0.10E-02
 bond charge predicted
 prediction of wavefunctions
       N       E                     dE             d eps       ncg     rms          rms(c)
DAV:   1    -0.102470490530E+03    0.95549E-01   -0.64117E-03   132   0.222E-01    0.755E-03
RMM:   2    -0.102470559783E+03   -0.69253E-04   -0.73565E-04   120   0.816E-02
   1171 T=   559. E= -.89143435E+02 F= -.10247056E+03 E0= -.10247425E+03  EK= 0.38267E+01 SP= 0.95E+01 SK= 0.20E-02
 bond charge predicted
 prediction of wavefunctions
       N       E                     dE             d eps       ncg     rms          rms(c)
DAV:   1    -0.102396076172E+03    0.74414E-01   -0.68270E-03   168   0.251E-01    0.119E-02
RMM:   2    -0.102396245377E+03   -0.16921E-03   -0.17712E-03   120   0.122E-01    0.748E-03
RMM:   3    -0.102396267498E+03   -0.22120E-04   -0.22138E-04    79   0.453E-02
   1172 T=   551. E= -.89142843E+02 F= -.10239627E+03 E0= -.10240020E+03  EK= 0.37753E+01 SP= 0.95E+01 SK= 0.38E-02
 bond charge predicted
 prediction of wavefunctions
       N       E                     dE             d eps       ncg     rms          rms(c)
DAV:   1    -0.102345821981E+03    0.50423E-01   -0.60926E-03   144   0.218E-01    0.740E-03
RMM:   2    -0.102345891175E+03   -0.69194E-04   -0.73309E-04   120   0.825E-02
   1173 T=   548. E= -.89142605E+02 F= -.10234589E+03 E0= -.10235006E+03  EK= 0.37546E+01 SP= 0.94E+01 SK= 0.65E-02
 bond charge predicted
 prediction of wavefunctions
       N       E                     dE             d eps       ncg     rms          rms(c)
DAV:   1    -0.102318909791E+03    0.26912E-01   -0.61775E-03   144   0.246E-01    0.119E-02
RMM:   2    -0.102319065965E+03   -0.15617E-03   -0.16478E-03   120   0.118E-01    0.757E-03
RMM:   3    -0.102319084173E+03   -0.18208E-04   -0.18845E-04    69   0.409E-02
   1174 T=   550. E= -.89142571E+02 F= -.10231908E+03 E0= -.10232348E+03  EK= 0.37650E+01 SP= 0.94E+01 SK= 0.10E-01
 bond charge predicted
 prediction of wavefunctions
       N       E                     dE             d eps       ncg     rms          rms(c)
DAV:   1    -0.102313234729E+03    0.58312E-02   -0.56980E-03   156   0.215E-01    0.790E-03
RMM:   2    -0.102313295042E+03   -0.60314E-04   -0.64747E-04   120   0.765E-02
   1175 T=   555. E= -.89142693E+02 F= -.10231330E+03 E0= -.10231789E+03  EK= 0.38041E+01 SP= 0.94E+01 SK= 0.14E-01
 bond charge predicted
 prediction of wavefunctions
       N       E                     dE             d eps       ncg     rms          rms(c)
DAV:   1    -0.102323154873E+03   -0.99201E-02   -0.62706E-03   180   0.245E-01    0.133E-02
RMM:   2    -0.102323304729E+03   -0.14986E-03   -0.16067E-03   120   0.118E-01    0.788E-03
RMM:   3    -0.102323324216E+03   -0.19487E-04   -0.20280E-04    71   0.428E-02
   1176 T=   564. E= -.89142697E+02 F= -.10232332E+03 E0= -.10232813E+03  EK= 0.38667E+01 SP= 0.93E+01 SK= 0.17E-01
 bond charge predicted
 prediction of wavefunctions
       N       E                     dE             d eps       ncg     rms          rms(c)
DAV:   1    -0.102342645766E+03   -0.19341E-01   -0.58504E-03   156   0.222E-01    0.875E-03
RMM:   2    -0.102342713301E+03   -0.67535E-04   -0.73518E-04   120   0.820E-02
   1177 T=   576. E= -.89142824E+02 F= -.10234271E+03 E0= -.10234774E+03  EK= 0.39450E+01 SP= 0.92E+01 SK= 0.20E-01
 bond charge predicted
 prediction of wavefunctions
       N       E                     dE             d eps       ncg     rms          rms(c)
DAV:   1    -0.102363250014E+03   -0.20604E-01   -0.62475E-03   168   0.254E-01    0.127E-02
RMM:   2    -0.102363414165E+03   -0.16415E-03   -0.17462E-03   120   0.121E-01    0.792E-03
RMM:   3    -0.102363434761E+03   -0.20596E-04   -0.21693E-04    76   0.438E-02
   1178 T=   588. E= -.89143029E+02 F= -.10236343E+03 E0= -.10236877E+03  EK= 0.40295E+01 SP= 0.92E+01 SK= 0.22E-01
 bond charge predicted
 prediction of wavefunctions
       N       E                     dE             d eps       ncg     rms          rms(c)
DAV:   1    -0.102376871550E+03   -0.13457E-01   -0.55833E-03   156   0.227E-01    0.907E-03
RMM:   2    -0.102376936323E+03   -0.64773E-04   -0.70545E-04   120   0.814E-02
   1179 T=   600. E= -.89143303E+02 F= -.10237694E+03 E0= -.10238272E+03  EK= 0.41099E+01 SP= 0.91E+01 SK= 0.23E-01
 bond charge predicted
 prediction of wavefunctions
       N       E                     dE             d eps       ncg     rms          rms(c)
DAV:   1    -0.102375159118E+03    0.17124E-02   -0.58510E-03   168   0.258E-01    0.131E-02
RMM:   2    -0.102375321790E+03   -0.16267E-03   -0.17244E-03   120   0.122E-01    0.816E-03
RMM:   3    -0.102375340495E+03   -0.18705E-04   -0.19397E-04    71   0.417E-02
   1180 T=   610. E= -.89143445E+02 F= -.10237534E+03 E0= -.10238183E+03  EK= 0.41764E+01 SP= 0.90E+01 SK= 0.22E-01
 bond charge predicted
 prediction of wavefunctions
       N       E                     dE             d eps       ncg     rms          rms(c)
DAV:   1    -0.102352541293E+03    0.22780E-01   -0.49468E-03   156   0.231E-01    0.933E-03
RMM:   2    -0.102352606671E+03   -0.65378E-04   -0.71654E-04   120   0.804E-02
   1181 T=   616. E= -.89143366E+02 F= -.10235261E+03 E0= -.10236015E+03  EK= 0.42211E+01 SP= 0.90E+01 SK= 0.20E-01
 bond charge predicted
 prediction of wavefunctions
       N       E                     dE             d eps       ncg     rms          rms(c)
DAV:   1    -0.102304744960E+03    0.47796E-01   -0.54717E-03   168   0.262E-01    0.137E-02
RMM:   2    -0.102304904002E+03   -0.15904E-03   -0.17132E-03   120   0.122E-01    0.871E-03
RMM:   3    -0.102304921094E+03   -0.17092E-04   -0.19765E-04    74   0.425E-02
   1182 T=   619. E= -.89143104E+02 F= -.10230492E+03 E0= -.10231396E+03  EK= 0.42384E+01 SP= 0.89E+01 SK= 0.18E-01
 bond charge predicted
 prediction of wavefunctions
       N       E                     dE             d eps       ncg     rms          rms(c)
DAV:   1    -0.102231590975E+03    0.73313E-01   -0.48935E-03   156   0.238E-01    0.129E-02
RMM:   2    -0.102231657403E+03   -0.66428E-04   -0.79802E-04   120   0.838E-02
   1183 T=   617. E= -.89142697E+02 F= -.10223166E+03 E0= -.10224226E+03  EK= 0.42269E+01 SP= 0.88E+01 SK= 0.16E-01
 bond charge predicted
 prediction of wavefunctions
       N       E                     dE             d eps       ncg     rms          rms(c)
DAV:   1    -0.102135650005E+03    0.95941E-01   -0.67129E-03   192   0.268E-01    0.235E-02
RMM:   2    -0.102135800164E+03   -0.15016E-03   -0.19711E-03   120   0.127E-01    0.126E-02
RMM:   3    -0.102135812171E+03   -0.12007E-04   -0.21127E-04    78   0.428E-02
   1184 T=   612. E= -.89141755E+02 F= -.10213581E+03 E0= -.10214726E+03  EK= 0.41899E+01 SP= 0.88E+01 SK= 0.15E-01
 bond charge predicted
 prediction of wavefunctions
       N       E                     dE             d eps       ncg     rms          rms(c)
DAV:   1    -0.102024709460E+03    0.11109E+00   -0.70613E-03   168   0.233E-01    0.144E-02
RMM:   2    -0.102024780023E+03   -0.70563E-04   -0.84149E-04   120   0.841E-02
   1185 T=   604. E= -.89140795E+02 F= -.10202478E+03 E0= -.10203646E+03  EK= 0.41348E+01 SP= 0.87E+01 SK= 0.14E-01
 bond charge predicted
 prediction of wavefunctions
       N       E                     dE             d eps       ncg     rms          rms(c)
DAV:   1    -0.101907378029E+03    0.11733E+00   -0.88021E-03   156   0.259E-01    0.184E-02
RMM:   2    -0.101907547618E+03   -0.16959E-03   -0.19124E-03   120   0.125E-01    0.102E-02
RMM:   3    -0.101907566004E+03   -0.18386E-04   -0.21643E-04    85   0.437E-02
   1186 T=   594. E= -.89140036E+02 F= -.10190757E+03 E0= -.10191923E+03  EK= 0.40717E+01 SP= 0.87E+01 SK= 0.14E-01
 bond charge predicted
 prediction of wavefunctions
       N       E                     dE             d eps       ncg     rms          rms(c)
DAV:   1    -0.101792723210E+03    0.11482E+00   -0.74004E-03   192   0.228E-01    0.136E-02
RMM:   2    -0.101792791837E+03   -0.68627E-04   -0.81058E-04   120   0.839E-02
   1187 T=   585. E= -.89139023E+02 F= -.10179279E+03 E0= -.10180429E+03  EK= 0.40111E+01 SP= 0.86E+01 SK= 0.15E-01
 bond charge predicted
 prediction of wavefunctions
       N       E                     dE             d eps       ncg     rms          rms(c)
DAV:   1    -0.101688977717E+03    0.10375E+00   -0.66732E-03   168   0.256E-01    0.177E-02
RMM:   2    -0.101689151995E+03   -0.17428E-03   -0.19046E-03   120   0.124E-01    0.111E-02
RMM:   3    -0.101689170242E+03   -0.18247E-04   -0.22023E-04    77   0.432E-02
   1188 T=   578. E= -.89138304E+02 F= -.10168917E+03 E0= -.10170021E+03  EK= 0.39629E+01 SP= 0.86E+01 SK= 0.16E-01
 bond charge predicted
 prediction of wavefunctions
       N       E                     dE             d eps       ncg     rms          rms(c)
DAV:   1    -0.101602926725E+03    0.86225E-01   -0.50222E-03   168   0.225E-01    0.978E-03
RMM:   2    -0.101602992437E+03   -0.65712E-04   -0.73034E-04   120   0.797E-02
   1189 T=   574. E= -.89137634E+02 F= -.10160299E+03 E0= -.10161303E+03  EK= 0.39347E+01 SP= 0.85E+01 SK= 0.19E-01
 bond charge predicted
 prediction of wavefunctions
       N       E                     dE             d eps       ncg     rms          rms(c)
DAV:   1    -0.101538583419E+03    0.64343E-01   -0.51225E-03   168   0.257E-01    0.145E-02
RMM:   2    -0.101538753566E+03   -0.17015E-03   -0.18401E-03   120   0.123E-01    0.916E-03
RMM:   3    -0.101538770918E+03   -0.17352E-04   -0.20307E-04    74   0.418E-02
   1190 T=   574. E= -.89137252E+02 F= -.10153877E+03 E0= -.10154718E+03  EK= 0.39318E+01 SP= 0.84E+01 SK= 0.21E-01
 bond charge predicted
 prediction of wavefunctions
       N       E                     dE             d eps       ncg     rms          rms(c)
DAV:   1    -0.101498837930E+03    0.39916E-01   -0.48193E-03   180   0.232E-01    0.153E-02
RMM:   2    -0.101498893202E+03   -0.55272E-04   -0.75995E-04   120   0.808E-02
   1191 T=   578. E= -.89136808E+02 F= -.10149889E+03 E0= -.10150555E+03  EK= 0.39575E+01 SP= 0.84E+01 SK= 0.24E-01
 bond charge predicted
 prediction of wavefunctions
       N       E                     dE             d eps       ncg     rms          rms(c)
DAV:   1    -0.101484206036E+03    0.14632E-01   -0.56995E-03   168   0.262E-01    0.212E-02
RMM:   2    -0.101484364373E+03   -0.15834E-03   -0.19462E-03   120   0.125E-01    0.118E-02
RMM:   3    -0.101484378285E+03   -0.13911E-04   -0.21223E-04    84   0.427E-02
   1192 T=   586. E= -.89136361E+02 F= -.10148438E+03 E0= -.10148998E+03  EK= 0.40126E+01 SP= 0.83E+01 SK= 0.26E-01
 bond charge predicted
 prediction of wavefunctions
       N       E                     dE             d eps       ncg     rms          rms(c)
DAV:   1    -0.101493973768E+03   -0.96094E-02   -0.50970E-03   156   0.233E-01    0.109E-02
RMM:   2    -0.101494049119E+03   -0.75351E-04   -0.84619E-04   120   0.842E-02
   1193 T=   598. E= -.89136204E+02 F= -.10149405E+03 E0= -.10149903E+03  EK= 0.40950E+01 SP= 0.82E+01 SK= 0.27E-01
 bond charge predicted
 prediction of wavefunctions
       N       E                     dE             d eps       ncg     rms          rms(c)
DAV:   1    -0.101524627462E+03   -0.30654E-01   -0.66286E-03   192   0.270E-01    0.134E-02
RMM:   2    -0.101524824852E+03   -0.19739E-03   -0.20476E-03   120   0.129E-01    0.880E-03
RMM:   3    -0.101524845907E+03   -0.21055E-04   -0.20944E-04    78   0.425E-02
   1194 T=   613. E= -.89136235E+02 F= -.10152485E+03 E0= -.10152942E+03  EK= 0.42000E+01 SP= 0.82E+01 SK= 0.26E-01
 bond charge predicted
 prediction of wavefunctions
       N       E                     dE             d eps       ncg     rms          rms(c)
DAV:   1    -0.101572329795E+03   -0.47505E-01   -0.64125E-03   120   0.241E-01    0.794E-03
RMM:   2    -0.101572413898E+03   -0.84103E-04   -0.88483E-04   120   0.880E-02
   1195 T=   631. E= -.89136320E+02 F= -.10157241E+03 E0= -.10157677E+03  EK= 0.43212E+01 SP= 0.81E+01 SK= 0.24E-01
 bond charge predicted
 prediction of wavefunctions
       N       E                     dE             d eps       ncg     rms          rms(c)
DAV:   1    -0.101630849329E+03   -0.58520E-01   -0.79854E-03   192   0.279E-01    0.127E-02
RMM:   2    -0.101631046596E+03   -0.19727E-03   -0.20321E-03   120   0.133E-01    0.893E-03
RMM:   3    -0.101631066370E+03   -0.19774E-04   -0.20265E-04    72   0.430E-02
   1196 T=   650. E= -.89136388E+02 F= -.10163107E+03 E0= -.10163532E+03  EK= 0.44499E+01 SP= 0.80E+01 SK= 0.19E-01
 bond charge predicted
 prediction of wavefunctions
       N       E                     dE             d eps       ncg     rms          rms(c)
DAV:   1    -0.101694535529E+03   -0.63489E-01   -0.79843E-03   156   0.249E-01    0.770E-03
RMM:   2    -0.101694614820E+03   -0.79291E-04   -0.82263E-04   120   0.859E-02
   1197 T=   668. E= -.89136259E+02 F= -.10169461E+03 E0= -.10169885E+03  EK= 0.45762E+01 SP= 0.80E+01 SK= 0.13E-01
 bond charge predicted
 prediction of wavefunctions
       N       E                     dE             d eps       ncg     rms          rms(c)
DAV:   1    -0.101757818972E+03   -0.63283E-01   -0.91495E-03   168   0.289E-01    0.151E-02
RMM:   2    -0.101758020582E+03   -0.20161E-03   -0.21179E-03   120   0.137E-01    0.949E-03
RMM:   3    -0.101758042605E+03   -0.22023E-04   -0.23311E-04    83   0.468E-02
   1198 T=   685. E= -.89136331E+02 F= -.10175804E+03 E0= -.10176228E+03  EK= 0.46906E+01 SP= 0.79E+01 SK= 0.73E-02
 bond charge predicted
 prediction of wavefunctions
       N       E                     dE             d eps       ncg     rms          rms(c)
DAV:   1    -0.101816640695E+03   -0.58620E-01   -0.85870E-03   144   0.260E-01    0.945E-03
RMM:   2    -0.101816732790E+03   -0.92094E-04   -0.97327E-04   120   0.923E-02
   1199 T=   698. E= -.89136035E+02 F= -.10181673E+03 E0= -.10182101E+03  EK= 0.47849E+01 SP= 0.79E+01 SK= 0.25E-02
 bond charge predicted
 prediction of wavefunctions
       N       E                     dE             d eps       ncg     rms          rms(c)
DAV:   1    -0.101867740236E+03   -0.51100E-01   -0.93172E-03   192   0.298E-01    0.170E-02
RMM:   2    -0.101867950328E+03   -0.21009E-03   -0.22598E-03   120   0.141E-01    0.110E-02
RMM:   3    -0.101867969761E+03   -0.19432E-04   -0.23243E-04    85   0.462E-02
   1200 T=   708. E= -.89135680E+02 F= -.10186797E+03 E0= -.10187231E+03  EK= 0.48526E+01 SP= 0.79E+01 SK= 0.11E-03
 bond charge predicted
 prediction of wavefunctions
       N       E                     dE             d eps       ncg     rms          rms(c)
DAV:   1    -0.101910578148E+03   -0.42628E-01   -0.85602E-03   156   0.266E-01    0.126E-02
RMM:   2    -0.101910665485E+03   -0.87337E-04   -0.95893E-04   120   0.926E-02
   1201 T=   714. E= -.89134919E+02 F= -.10191067E+03 E0= -.10191509E+03  EK= 0.48903E+01 SP= 0.79E+01 SK= 0.10E-02
 bond charge predicted
 prediction of wavefunctions
       N       E                     dE             d eps       ncg     rms          rms(c)
DAV:   1    -0.101945907354E+03   -0.35329E-01   -0.93358E-03   180   0.306E-01    0.169E-02
RMM:   2    -0.101946137942E+03   -0.23059E-03   -0.24673E-03   120   0.144E-01    0.979E-03
RMM:   3    -0.101946161055E+03   -0.23114E-04   -0.24440E-04    90   0.476E-02
   1202 T=   715. E= -.89134049E+02 F= -.10194616E+03 E0= -.10195069E+03  EK= 0.48975E+01 SP= 0.79E+01 SK= 0.58E-02
 bond charge predicted
 prediction of wavefunctions
       N       E                     dE             d eps       ncg     rms          rms(c)
DAV:   1    -0.101976857130E+03   -0.30719E-01   -0.81746E-03   156   0.270E-01    0.127E-02
RMM:   2    -0.101976944325E+03   -0.87195E-04   -0.97195E-04   120   0.927E-02
   1203 T=   712. E= -.89133149E+02 F= -.10197694E+03 E0= -.10198159E+03  EK= 0.48767E+01 SP= 0.80E+01 SK= 0.14E-01
 bond charge predicted
 prediction of wavefunctions
       N       E                     dE             d eps       ncg     rms          rms(c)
DAV:   1    -0.102006563129E+03   -0.29706E-01   -0.87172E-03   156   0.309E-01    0.149E-02
RMM:   2    -0.102006793885E+03   -0.23076E-03   -0.24357E-03   120   0.144E-01    0.879E-03
RMM:   3    -0.102006818088E+03   -0.24202E-04   -0.25338E-04    95   0.479E-02
   1204 T=   705. E= -.89132240E+02 F= -.10200682E+03 E0= -.10201161E+03  EK= 0.48326E+01 SP= 0.80E+01 SK= 0.26E-01
 bond charge predicted
 prediction of wavefunctions
       N       E                     dE             d eps       ncg     rms          rms(c)
DAV:   1    -0.102038900909E+03   -0.32107E-01   -0.73072E-03   180   0.274E-01    0.121E-02
RMM:   2    -0.102038991970E+03   -0.91061E-04   -0.10016E-03   120   0.957E-02    0.861E-03
RMM:   3    -0.102039003942E+03   -0.11972E-04   -0.17769E-04    69   0.400E-02
   1205 T=   696. E= -.89131536E+02 F= -.10203900E+03 E0= -.10204395E+03  EK= 0.47704E+01 SP= 0.81E+01 SK= 0.40E-01
 bond charge predicted
 prediction of wavefunctions
       N       E                     dE             d eps       ncg     rms          rms(c)
DAV:   1    -0.102074985153E+03   -0.35993E-01   -0.69819E-03   144   0.278E-01    0.866E-03
RMM:   2    -0.102075090155E+03   -0.10500E-03   -0.10896E-03   120   0.102E-01    0.516E-03
RMM:   3    -0.102075106741E+03   -0.16586E-04   -0.16860E-04    80   0.388E-02
   1206 T=   685. E= -.89130862E+02 F= -.10207511E+03 E0= -.10208016E+03  EK= 0.46943E+01 SP= 0.82E+01 SK= 0.55E-01
 bond charge predicted
 prediction of wavefunctions
       N       E                     dE             d eps       ncg     rms          rms(c)
DAV:   1    -0.102115101139E+03   -0.40011E-01   -0.63655E-03   180   0.276E-01    0.837E-03
RMM:   2    -0.102115203821E+03   -0.10268E-03   -0.10632E-03   120   0.101E-01    0.581E-03
RMM:   3    -0.102115212442E+03   -0.86216E-05   -0.99422E-05    62   0.288E-02
   1207 T=   673. E= -.89130240E+02 F= -.10211521E+03 E0= -.10212028E+03  EK= 0.46075E+01 SP= 0.83E+01 SK= 0.70E-01
 bond charge predicted
 prediction of wavefunctions
       N       E                     dE             d eps       ncg     rms          rms(c)
DAV:   1    -0.102158043068E+03   -0.42839E-01   -0.59441E-03   180   0.273E-01    0.663E-03
RMM:   2    -0.102158148889E+03   -0.10582E-03   -0.10704E-03   120   0.961E-02    0.435E-03
RMM:   3    -0.102158162550E+03   -0.13661E-04   -0.13623E-04    65   0.332E-02
   1208 T=   659. E= -.89129876E+02 F= -.10215816E+03 E0= -.10216307E+03  EK= 0.45120E+01 SP= 0.84E+01 SK= 0.84E-01
 bond charge predicted
 prediction of wavefunctions
       N       E                     dE             d eps       ncg     rms          rms(c)
DAV:   1    -0.102200550003E+03   -0.42401E-01   -0.57623E-03   228   0.270E-01    0.617E-03
RMM:   2    -0.102200649187E+03   -0.99184E-04   -0.10045E-03   120   0.982E-02    0.458E-03
RMM:   3    -0.102200660743E+03   -0.11556E-04   -0.11657E-04    68   0.329E-02
   1209 T=   643. E= -.89129548E+02 F= -.10220066E+03 E0= -.10220523E+03  EK= 0.44079E+01 SP= 0.86E+01 SK= 0.96E-01
 bond charge predicted
 prediction of wavefunctions
       N       E                     dE             d eps       ncg     rms          rms(c)
DAV:   1    -0.102238640645E+03   -0.37991E-01   -0.47939E-03   156   0.266E-01    0.598E-03
RMM:   2    -0.102238738421E+03   -0.97776E-04   -0.98961E-04   120   0.952E-02
   1210 T=   627. E= -.89129175E+02 F= -.10223874E+03 E0= -.10224287E+03  EK= 0.42950E+01 SP= 0.87E+01 SK= 0.10E+00
 bond charge predicted
 prediction of wavefunctions
       N       E                     dE             d eps       ncg     rms          rms(c)
DAV:   1    -0.102268419294E+03   -0.29779E-01   -0.55075E-03   204   0.283E-01    0.947E-03
RMM:   2    -0.102268599376E+03   -0.18008E-03   -0.18298E-03   120   0.130E-01    0.728E-03
RMM:   3    -0.102268621732E+03   -0.22355E-04   -0.22314E-04    83   0.442E-02
   1211 T=   609. E= -.89128773E+02 F= -.10226862E+03 E0= -.10227237E+03  EK= 0.41731E+01 SP= 0.89E+01 SK= 0.11E+00
 bond charge predicted
 prediction of wavefunctions
       N       E                     dE             d eps       ncg     rms          rms(c)
DAV:   1    -0.102287307300E+03   -0.18708E-01   -0.47816E-03   180   0.250E-01    0.599E-03
RMM:   2    -0.102287389253E+03   -0.81953E-04   -0.83786E-04   120   0.851E-02
   1212 T=   590. E= -.89128166E+02 F= -.10228739E+03 E0= -.10229088E+03  EK= 0.40432E+01 SP= 0.90E+01 SK= 0.11E+00
 bond charge predicted
 prediction of wavefunctions
       N       E                     dE             d eps       ncg     rms          rms(c)
DAV:   1    -0.102293526935E+03   -0.62196E-02   -0.53263E-03   180   0.277E-01    0.912E-03
RMM:   2    -0.102293721559E+03   -0.19462E-03   -0.19727E-03   120   0.132E-01    0.614E-03
RMM:   3    -0.102293738452E+03   -0.16894E-04   -0.15515E-04    70   0.364E-02
   1213 T=   570. E= -.89127466E+02 F= -.10229374E+03 E0= -.10229713E+03  EK= 0.39071E+01 SP= 0.92E+01 SK= 0.11E+00
 bond charge predicted
 prediction of wavefunctions
       N       E                     dE             d eps       ncg     rms          rms(c)
DAV:   1    -0.102288455219E+03    0.52663E-02   -0.41766E-03   180   0.224E-01    0.514E-03
RMM:   2    -0.102288500689E+03   -0.45470E-04   -0.46686E-04   119   0.614E-02
   1214 T=   550. E= -.89126843E+02 F= -.10228850E+03 E0= -.10229194E+03  EK= 0.37689E+01 SP= 0.93E+01 SK= 0.96E-01
 bond charge predicted
 prediction of wavefunctions
       N       E                     dE             d eps       ncg     rms          rms(c)
DAV:   1    -0.102274368428E+03    0.14087E-01   -0.52653E-03   216   0.253E-01    0.804E-03
RMM:   2    -0.102274513441E+03   -0.14501E-03   -0.14751E-03   120   0.117E-01    0.564E-03
RMM:   3    -0.102274527258E+03   -0.13818E-04   -0.13155E-04    65   0.347E-02
   1215 T=   530. E= -.89126271E+02 F= -.10227453E+03 E0= -.10227817E+03  EK= 0.36341E+01 SP= 0.94E+01 SK= 0.83E-01
 bond charge predicted
 prediction of wavefunctions
       N       E                     dE             d eps       ncg     rms          rms(c)
DAV:   1    -0.102255894247E+03    0.18619E-01   -0.39753E-03   180   0.213E-01    0.493E-03
RMM:   2    -0.102255961800E+03   -0.67553E-04   -0.68454E-04   120   0.730E-02
   1216 T=   512. E= -.89125651E+02 F= -.10225596E+03 E0= -.10225994E+03  EK= 0.35091E+01 SP= 0.96E+01 SK= 0.67E-01
 bond charge predicted
 prediction of wavefunctions
       N       E                     dE             d eps       ncg     rms          rms(c)
DAV:   1    -0.102238084378E+03    0.17810E-01   -0.45961E-03   168   0.240E-01    0.934E-03
RMM:   2    -0.102238240807E+03   -0.15643E-03   -0.15984E-03   120   0.116E-01    0.645E-03
RMM:   3    -0.102238259363E+03   -0.18556E-04   -0.17872E-04    69   0.393E-02
   1217 T=   496. E= -.89125084E+02 F= -.10223826E+03 E0= -.10224268E+03  EK= 0.34008E+01 SP= 0.97E+01 SK= 0.50E-01
 bond charge predicted
 prediction of wavefunctions
       N       E                     dE             d eps       ncg     rms          rms(c)
DAV:   1    -0.102226949707E+03    0.11291E-01   -0.37145E-03   144   0.201E-01    0.473E-03
RMM:   2    -0.102227008979E+03   -0.59272E-04   -0.60784E-04   119   0.712E-02
   1218 T=   484. E= -.89124491E+02 F= -.10222701E+03 E0= -.10223191E+03  EK= 0.33157E+01 SP= 0.98E+01 SK= 0.33E-01
 bond charge predicted
 prediction of wavefunctions
       N       E                     dE             d eps       ncg     rms          rms(c)
DAV:   1    -0.102227243679E+03   -0.29397E-03   -0.41422E-03   168   0.229E-01    0.951E-03
RMM:   2    -0.102227392351E+03   -0.14867E-03   -0.15405E-03   120   0.112E-01    0.616E-03
RMM:   3    -0.102227412110E+03   -0.19759E-04   -0.19377E-04    68   0.415E-02
   1219 T=   476. E= -.89124003E+02 F= -.10222741E+03 E0= -.10223275E+03  EK= 0.32593E+01 SP= 0.98E+01 SK= 0.19E-01
 bond charge predicted
 prediction of wavefunctions
       N       E                     dE             d eps       ncg     rms          rms(c)
DAV:   1    -0.102243302634E+03   -0.15910E-01   -0.36306E-03   192   0.190E-01    0.607E-03
RMM:   2    -0.102243346365E+03   -0.43731E-04   -0.46395E-04   119   0.612E-02
   1220 T=   472. E= -.89123453E+02 F= -.10224335E+03 E0= -.10224903E+03  EK= 0.32356E+01 SP= 0.99E+01 SK= 0.80E-02
 bond charge predicted
 prediction of wavefunctions
       N       E                     dE             d eps       ncg     rms          rms(c)
DAV:   1    -0.102278095393E+03   -0.34793E-01   -0.40653E-03   144   0.218E-01    0.110E-02
RMM:   2    -0.102278215727E+03   -0.12033E-03   -0.12947E-03   120   0.103E-01    0.619E-03
RMM:   3    -0.102278233295E+03   -0.17569E-04   -0.18788E-04    67   0.402E-02
   1221 T=   474. E= -.89123142E+02 F= -.10227823E+03 E0= -.10228415E+03  EK= 0.32475E+01 SP= 0.99E+01 SK= 0.17E-02
 bond charge predicted
 prediction of wavefunctions
       N       E                     dE             d eps       ncg     rms          rms(c)
DAV:   1    -0.102333741567E+03   -0.55526E-01   -0.38735E-03   156   0.191E-01    0.774E-03
RMM:   2    -0.102333788056E+03   -0.46489E-04   -0.50806E-04   119   0.657E-02
   1222 T=   481. E= -.89122955E+02 F= -.10233379E+03 E0= -.10233986E+03  EK= 0.32966E+01 SP= 0.99E+01 SK= 0.19E-04
 bond charge predicted
 prediction of wavefunctions
       N       E                     dE             d eps       ncg     rms          rms(c)
DAV:   1    -0.102409061065E+03   -0.75319E-01   -0.47981E-03   132   0.223E-01    0.111E-02
RMM:   2    -0.102409184240E+03   -0.12317E-03   -0.13219E-03   120   0.104E-01    0.632E-03
RMM:   3    -0.102409200944E+03   -0.16704E-04   -0.17895E-04    72   0.396E-02
   1223 T=   494. E= -.89122679E+02 F= -.10240920E+03 E0= -.10241541E+03  EK= 0.33816E+01 SP= 0.99E+01 SK= 0.22E-02
 bond charge predicted
 prediction of wavefunctions
       N       E                     dE             d eps       ncg     rms          rms(c)
DAV:   1    -0.102502449487E+03   -0.93265E-01   -0.48678E-03   156   0.203E-01    0.836E-03
RMM:   2    -0.102502496506E+03   -0.47019E-04   -0.52129E-04   119   0.677E-02
   1224 T=   511. E= -.89122530E+02 F= -.10250250E+03 E0= -.10250884E+03  EK= 0.34995E+01 SP= 0.99E+01 SK= 0.69E-02
 bond charge predicted
 prediction of wavefunctions
       N       E                     dE             d eps       ncg     rms          rms(c)
DAV:   1    -0.102610292578E+03   -0.10784E+00   -0.59837E-03   168   0.238E-01    0.109E-02
RMM:   2    -0.102610424436E+03   -0.13186E-03   -0.14099E-03   120   0.110E-01    0.571E-03
RMM:   3    -0.102610443248E+03   -0.18812E-04   -0.19709E-04    74   0.419E-02
   1225 T=   532. E= -.89122462E+02 F= -.10261044E+03 E0= -.10261693E+03  EK= 0.36459E+01 SP= 0.98E+01 SK= 0.13E-01
 bond charge predicted
 prediction of wavefunctions
       N       E                     dE             d eps       ncg     rms          rms(c)
DAV:   1    -0.102727741823E+03   -0.11732E+00   -0.63147E-03   132   0.220E-01    0.870E-03
RMM:   2    -0.102727795895E+03   -0.54072E-04   -0.59636E-04   120   0.725E-02
   1226 T=   557. E= -.89122310E+02 F= -.10272780E+03 E0= -.10273447E+03  EK= 0.38137E+01 SP= 0.98E+01 SK= 0.18E-01
 bond charge predicted
 prediction of wavefunctions
       N       E                     dE             d eps       ncg     rms          rms(c)
DAV:   1    -0.102848271732E+03   -0.12053E+00   -0.76042E-03   180   0.256E-01    0.108E-02
RMM:   2    -0.102848418677E+03   -0.14695E-03   -0.15599E-03   120   0.116E-01    0.598E-03
RMM:   3    -0.102848436629E+03   -0.17952E-04   -0.18605E-04    69   0.403E-02
   1227 T=   583. E= -.89122403E+02 F= -.10284844E+03 E0= -.10285534E+03  EK= 0.39938E+01 SP= 0.97E+01 SK= 0.21E-01
 bond charge predicted
 prediction of wavefunctions
       N       E                     dE             d eps       ncg     rms          rms(c)
DAV:   1    -0.102964996308E+03   -0.11658E+00   -0.77491E-03   144   0.240E-01    0.794E-03
RMM:   2    -0.102965057267E+03   -0.60959E-04   -0.65164E-04   120   0.774E-02
   1228 T=   609. E= -.89122394E+02 F= -.10296506E+03 E0= -.10297225E+03  EK= 0.41754E+01 SP= 0.96E+01 SK= 0.21E-01
 bond charge predicted
 prediction of wavefunctions
       N       E                     dE             d eps       ncg     rms          rms(c)
DAV:   1    -0.103070507638E+03   -0.10551E+00   -0.92535E-03   168   0.278E-01    0.115E-02
RMM:   2    -0.103070666263E+03   -0.15863E-03   -0.16851E-03   120   0.124E-01    0.632E-03
RMM:   3    -0.103070685414E+03   -0.19151E-04   -0.20113E-04    77   0.431E-02
   1229 T=   635. E= -.89122483E+02 F= -.10307069E+03 E0= -.10307823E+03  EK= 0.43469E+01 SP= 0.96E+01 SK= 0.19E-01
 bond charge predicted
 prediction of wavefunctions
       N       E                     dE             d eps       ncg     rms          rms(c)
DAV:   1    -0.103157782999E+03   -0.87117E-01   -0.90491E-03   168   0.257E-01    0.812E-03
RMM:   2    -0.103157854316E+03   -0.71317E-04   -0.75941E-04   120   0.831E-02
   1230 T=   656. E= -.89122404E+02 F= -.10315785E+03 E0= -.10316583E+03  EK= 0.44961E+01 SP= 0.95E+01 SK= 0.14E-01
 bond charge predicted
 prediction of wavefunctions
       N       E                     dE             d eps       ncg     rms          rms(c)
DAV:   1    -0.103220080496E+03   -0.62297E-01   -0.10230E-02   216   0.294E-01    0.121E-02
RMM:   2    -0.103220251338E+03   -0.17084E-03   -0.18237E-03   120   0.130E-01    0.694E-03
RMM:   3    -0.103220268118E+03   -0.16779E-04   -0.18330E-04    70   0.412E-02
   1231 T=   673. E= -.89122396E+02 F= -.10322027E+03 E0= -.10322876E+03  EK= 0.46117E+01 SP= 0.95E+01 SK= 0.88E-02
 bond charge predicted
 prediction of wavefunctions
       N       E                     dE             d eps       ncg     rms          rms(c)
DAV:   1    -0.103252711135E+03   -0.32460E-01   -0.95135E-03   132   0.270E-01    0.916E-03
RMM:   2    -0.103252785954E+03   -0.74819E-04   -0.80845E-04   120   0.866E-02
   1232 T=   684. E= -.89122449E+02 F= -.10325279E+03 E0= -.10326188E+03  EK= 0.46843E+01 SP= 0.94E+01 SK= 0.40E-02
 bond charge predicted
 prediction of wavefunctions
       N       E                     dE             d eps       ncg     rms          rms(c)
DAV:   1    -0.103251202633E+03    0.15085E-02   -0.10018E-02   168   0.306E-01    0.141E-02
RMM:   2    -0.103251398442E+03   -0.19581E-03   -0.21229E-03   120   0.140E-01    0.753E-03
RMM:   3    -0.103251421144E+03   -0.22702E-04   -0.25003E-04    91   0.487E-02
   1233 T=   687. E= -.89122112E+02 F= -.10325142E+03 E0= -.10326111E+03  EK= 0.47074E+01 SP= 0.94E+01 SK= 0.91E-03
 bond charge predicted
 prediction of wavefunctions
       N       E                     dE             d eps       ncg     rms          rms(c)
DAV:   1    -0.103215060888E+03    0.36338E-01   -0.87412E-03   120   0.275E-01    0.111E-02
RMM:   2    -0.103215139063E+03   -0.78175E-04   -0.87952E-04   120   0.899E-02
   1234 T=   683. E= -.89121573E+02 F= -.10321514E+03 E0= -.10322535E+03  EK= 0.46787E+01 SP= 0.94E+01 SK= 0.75E-05
 bond charge predicted
 prediction of wavefunctions
       N       E                     dE             d eps       ncg     rms          rms(c)
DAV:   1    -0.103144423621E+03    0.70637E-01   -0.88535E-03   168   0.304E-01    0.121E-02
RMM:   2    -0.103144620197E+03   -0.19658E-03   -0.20823E-03   120   0.137E-01    0.725E-03
RMM:   3    -0.103144642270E+03   -0.22073E-04   -0.23577E-04    85   0.463E-02
   1235 T=   671. E= -.89120703E+02 F= -.10314464E+03 E0= -.10315524E+03  EK= 0.46001E+01 SP= 0.94E+01 SK= 0.11E-02
 bond charge predicted
 prediction of wavefunctions
       N       E                     dE             d eps       ncg     rms          rms(c)
DAV:   1    -0.103043186938E+03    0.10143E+00   -0.75050E-03   168   0.271E-01    0.106E-02
RMM:   2    -0.103043263817E+03   -0.76879E-04   -0.86183E-04   120   0.900E-02
   1236 T=   654. E= -.89119618E+02 F= -.10304326E+03 E0= -.10305407E+03  EK= 0.44774E+01 SP= 0.94E+01 SK= 0.32E-02
 bond charge predicted
 prediction of wavefunctions
       N       E                     dE             d eps       ncg     rms          rms(c)
DAV:   1    -0.102916912728E+03    0.12627E+00   -0.77992E-03   168   0.300E-01    0.118E-02
RMM:   2    -0.102917118915E+03   -0.20619E-03   -0.21761E-03   120   0.138E-01    0.645E-03
RMM:   3    -0.102917144193E+03   -0.25278E-04   -0.25294E-04    91   0.485E-02
   1237 T=   631. E= -.89118638E+02 F= -.10291714E+03 E0= -.10292798E+03  EK= 0.43207E+01 SP= 0.95E+01 SK= 0.54E-02
 bond charge predicted
 prediction of wavefunctions
       N       E                     dE             d eps       ncg     rms          rms(c)
DAV:   1    -0.102773824020E+03    0.14329E+00   -0.65921E-03   180   0.258E-01    0.995E-03
RMM:   2    -0.102773910858E+03   -0.86839E-04   -0.95019E-04   120   0.888E-02
   1238 T=   605. E= -.89117605E+02 F= -.10277391E+03 E0= -.10278461E+03  EK= 0.41426E+01 SP= 0.95E+01 SK= 0.65E-02
 bond charge predicted
 prediction of wavefunctions
       N       E                     dE             d eps       ncg     rms          rms(c)
DAV:   1    -0.102622859243E+03    0.15096E+00   -0.67809E-03   192   0.283E-01    0.113E-02
RMM:   2    -0.102623054113E+03   -0.19487E-03   -0.20236E-03   120   0.131E-01    0.730E-03
RMM:   3    -0.102623074230E+03   -0.20117E-04   -0.20318E-04    78   0.424E-02
   1239 T=   578. E= -.89116594E+02 F= -.10262307E+03 E0= -.10263352E+03  EK= 0.39575E+01 SP= 0.95E+01 SK= 0.61E-02
 bond charge predicted
 prediction of wavefunctions
       N       E                     dE             d eps       ncg     rms          rms(c)
DAV:   1    -0.102473843403E+03    0.14921E+00   -0.52287E-03   156   0.244E-01    0.804E-03
RMM:   2    -0.102473919688E+03   -0.76285E-04   -0.81499E-04   120   0.832E-02
   1240 T=   552. E= -.89115555E+02 F= -.10247392E+03 E0= -.10248403E+03  EK= 0.37791E+01 SP= 0.96E+01 SK= 0.42E-02
 bond charge predicted
 prediction of wavefunctions
       N       E                     dE             d eps       ncg     rms          rms(c)
DAV:   1    -0.102335748260E+03    0.13810E+00   -0.56593E-03   216   0.267E-01    0.117E-02
RMM:   2    -0.102335925566E+03   -0.17731E-03   -0.18604E-03   120   0.125E-01    0.764E-03
RMM:   3    -0.102335944276E+03   -0.18710E-04   -0.19197E-04    72   0.417E-02
   1241 T=   528. E= -.89114808E+02 F= -.10233594E+03 E0= -.10234565E+03  EK= 0.36201E+01 SP= 0.96E+01 SK= 0.18E-02
 bond charge predicted
 prediction of wavefunctions
       N       E                     dE             d eps       ncg     rms          rms(c)
DAV:   1    -0.102216975168E+03    0.11895E+00   -0.46266E-03   204   0.229E-01    0.815E-03
RMM:   2    -0.102217039901E+03   -0.64733E-04   -0.70049E-04   120   0.785E-02
   1242 T=   510. E= -.89114224E+02 F= -.10221704E+03 E0= -.10222628E+03  EK= 0.34912E+01 SP= 0.96E+01 SK= 0.15E-03
 bond charge predicted
 prediction of wavefunctions
       N       E                     dE             d eps       ncg     rms          rms(c)
DAV:   1    -0.102122684598E+03    0.94291E-01   -0.44915E-03   168   0.249E-01    0.106E-02
RMM:   2    -0.102122831428E+03   -0.14683E-03   -0.15419E-03   120   0.115E-01    0.659E-03
RMM:   3    -0.102122849786E+03   -0.18358E-04   -0.18694E-04    73   0.414E-02
   1243 T=   496. E= -.89113785E+02 F= -.10212285E+03 E0= -.10213160E+03  EK= 0.33998E+01 SP= 0.96E+01 SK= 0.59E-03
 bond charge predicted
 prediction of wavefunctions
       N       E                     dE             d eps       ncg     rms          rms(c)
DAV:   1    -0.102056279939E+03    0.66551E-01   -0.42110E-03   192   0.218E-01    0.703E-03
RMM:   2    -0.102056341549E+03   -0.61610E-04   -0.65174E-04   120   0.753E-02
   1244 T=   489. E= -.89113413E+02 F= -.10205634E+03 E0= -.10206459E+03  EK= 0.33501E+01 SP= 0.96E+01 SK= 0.42E-02
 bond charge predicted
 prediction of wavefunctions
       N       E                     dE             d eps       ncg     rms          rms(c)
DAV:   1    -0.102017656335E+03    0.38624E-01   -0.44251E-03   168   0.236E-01    0.116E-02
RMM:   2    -0.102017798635E+03   -0.14230E-03   -0.14933E-03   120   0.111E-01    0.742E-03
RMM:   3    -0.102017818392E+03   -0.19757E-04   -0.20226E-04    73   0.423E-02
   1245 T=   488. E= -.89113377E+02 F= -.10201782E+03 E0= -.10202560E+03  EK= 0.33430E+01 SP= 0.96E+01 SK= 0.11E-01
 bond charge predicted
 prediction of wavefunctions
       N       E                     dE             d eps       ncg     rms          rms(c)
DAV:   1    -0.102004254110E+03    0.13545E-01   -0.39702E-03   144   0.209E-01    0.766E-03
RMM:   2    -0.102004309622E+03   -0.55511E-04   -0.60014E-04   120   0.721E-02
   1246 T=   493. E= -.89113271E+02 F= -.10200431E+03 E0= -.10201168E+03  EK= 0.33765E+01 SP= 0.95E+01 SK= 0.22E-01
 bond charge predicted
 prediction of wavefunctions
       N       E                     dE             d eps       ncg     rms          rms(c)
DAV:   1    -0.102011008695E+03   -0.67546E-02   -0.45523E-03   180   0.232E-01    0.108E-02
RMM:   2    -0.102011141711E+03   -0.13302E-03   -0.13973E-03   120   0.106E-01    0.668E-03
RMM:   3    -0.102011158504E+03   -0.16793E-04   -0.17146E-04    72   0.379E-02
   1247 T=   503. E= -.89113334E+02 F= -.10201116E+03 E0= -.10201822E+03  EK= 0.34457E+01 SP= 0.94E+01 SK= 0.35E-01
 bond charge predicted
 prediction of wavefunctions
       N       E                     dE             d eps       ncg     rms          rms(c)
DAV:   1    -0.102031736390E+03   -0.20595E-01   -0.38686E-03   180   0.208E-01    0.763E-03
RMM:   2    -0.102031792301E+03   -0.55911E-04   -0.60034E-04   120   0.727E-02
   1248 T=   517. E= -.89113392E+02 F= -.10203179E+03 E0= -.10203865E+03  EK= 0.35440E+01 SP= 0.93E+01 SK= 0.48E-01
 bond charge predicted
 prediction of wavefunctions
       N       E                     dE             d eps       ncg     rms          rms(c)
DAV:   1    -0.102058808771E+03   -0.27072E-01   -0.42831E-03   180   0.237E-01    0.108E-02
RMM:   2    -0.102058952182E+03   -0.14341E-03   -0.14950E-03   120   0.111E-01    0.710E-03
RMM:   3    -0.102058970008E+03   -0.17825E-04   -0.18033E-04    72   0.392E-02
   1249 T=   535. E= -.89113506E+02 F= -.10205897E+03 E0= -.10206574E+03  EK= 0.36634E+01 SP= 0.92E+01 SK= 0.61E-01
 bond charge predicted
 prediction of wavefunctions
       N       E                     dE             d eps       ncg     rms          rms(c)
DAV:   1    -0.102085028977E+03   -0.26077E-01   -0.39915E-03   132   0.213E-01    0.815E-03
RMM:   2    -0.102085090684E+03   -0.61707E-04   -0.66536E-04   120   0.760E-02
   1250 T=   554. E= -.89113812E+02 F= -.10208509E+03 E0= -.10209193E+03  EK= 0.37946E+01 SP= 0.91E+01 SK= 0.72E-01
 bond charge predicted
 prediction of wavefunctions
       N       E                     dE             d eps       ncg     rms          rms(c)
DAV:   1    -0.102102058913E+03   -0.17030E-01   -0.50411E-03   180   0.248E-01    0.111E-02
RMM:   2    -0.102102218015E+03   -0.15910E-03   -0.16542E-03   120   0.119E-01    0.730E-03
RMM:   3    -0.102102235213E+03   -0.17199E-04   -0.17239E-04    73   0.394E-02
   1251 T=   573. E= -.89113960E+02 F= -.10210224E+03 E0= -.10210931E+03  EK= 0.39279E+01 SP= 0.90E+01 SK= 0.79E-01
 bond charge predicted
 prediction of wavefunctions
       N       E                     dE             d eps       ncg     rms          rms(c)
DAV:   1    -0.102104034162E+03   -0.18161E-02   -0.46539E-03   156   0.220E-01    0.808E-03
RMM:   2    -0.102104098602E+03   -0.64440E-04   -0.68731E-04   120   0.781E-02
   1252 T=   592. E= -.89114109E+02 F= -.10210410E+03 E0= -.10211157E+03  EK= 0.40542E+01 SP= 0.89E+01 SK= 0.82E-01
 bond charge predicted
 prediction of wavefunctions
       N       E                     dE             d eps       ncg     rms          rms(c)
DAV:   1    -0.102085175219E+03    0.18859E-01   -0.61944E-03   204   0.257E-01    0.124E-02
RMM:   2    -0.102085336443E+03   -0.16122E-03   -0.16885E-03   120   0.123E-01    0.818E-03
RMM:   3    -0.102085352726E+03   -0.16283E-04   -0.17220E-04    76   0.398E-02
   1253 T=   608. E= -.89114092E+02 F= -.10208535E+03 E0= -.10209330E+03  EK= 0.41649E+01 SP= 0.87E+01 SK= 0.82E-01
 bond charge predicted
 prediction of wavefunctions
       N       E                     dE             d eps       ncg     rms          rms(c)
DAV:   1    -0.102042517057E+03    0.42819E-01   -0.60531E-03   156   0.229E-01    0.916E-03
RMM:   2    -0.102042591208E+03   -0.74152E-04   -0.79848E-04   120   0.834E-02
   1254 T=   621. E= -.89113942E+02 F= -.10204259E+03 E0= -.10205103E+03  EK= 0.42534E+01 SP= 0.86E+01 SK= 0.79E-01
 bond charge predicted
 prediction of wavefunctions
       N       E                     dE             d eps       ncg     rms          rms(c)
DAV:   1    -0.101974632218E+03    0.67885E-01   -0.80058E-03   216   0.266E-01    0.138E-02
RMM:   2    -0.101974808683E+03   -0.17647E-03   -0.18697E-03   120   0.129E-01    0.883E-03
RMM:   3    -0.101974823668E+03   -0.14985E-04   -0.15875E-04    71   0.384E-02
   1255 T=   630. E= -.89113652E+02 F= -.10197482E+03 E0= -.10198374E+03  EK= 0.43155E+01 SP= 0.85E+01 SK= 0.73E-01
 bond charge predicted
 prediction of wavefunctions
       N       E                     dE             d eps       ncg     rms          rms(c)
DAV:   1    -0.101883570367E+03    0.91238E-01   -0.80188E-03   156   0.235E-01    0.100E-02
RMM:   2    -0.101883642463E+03   -0.72096E-04   -0.78650E-04   120   0.856E-02
   1256 T=   635. E= -.89113169E+02 F= -.10188364E+03 E0= -.10189300E+03  EK= 0.43504E+01 SP= 0.84E+01 SK= 0.66E-01
 bond charge predicted
 prediction of wavefunctions
       N       E                     dE             d eps       ncg     rms          rms(c)
DAV:   1    -0.101772835755E+03    0.11073E+00   -0.96871E-03   192   0.272E-01    0.132E-02
RMM:   2    -0.101773023048E+03   -0.18729E-03   -0.19657E-03   120   0.132E-01    0.835E-03
RMM:   3    -0.101773043322E+03   -0.20274E-04   -0.20908E-04    76   0.439E-02
   1257 T=   636. E= -.89112545E+02 F= -.10177304E+03 E0= -.10178282E+03  EK= 0.43600E+01 SP= 0.82E+01 SK= 0.59E-01
 bond charge predicted
 prediction of wavefunctions
       N       E                     dE             d eps       ncg     rms          rms(c)
DAV:   1    -0.101648879331E+03    0.12414E+00   -0.98919E-03   180   0.238E-01    0.108E-02
RMM:   2    -0.101648958448E+03   -0.79117E-04   -0.86837E-04   120   0.876E-02
   1258 T=   635. E= -.89111730E+02 F= -.10164896E+03 E0= -.10165908E+03  EK= 0.43497E+01 SP= 0.81E+01 SK= 0.52E-01
 bond charge predicted
 prediction of wavefunctions
       N       E                     dE             d eps       ncg     rms          rms(c)
DAV:   1    -0.101518862781E+03    0.13002E+00   -0.10333E-02   144   0.272E-01    0.139E-02
RMM:   2    -0.101519056543E+03   -0.19376E-03   -0.20466E-03   120   0.132E-01    0.860E-03
RMM:   3    -0.101519079979E+03   -0.23436E-04   -0.24294E-04    88   0.471E-02
   1259 T=   632. E= -.89110850E+02 F= -.10151908E+03 E0= -.10152946E+03  EK= 0.43266E+01 SP= 0.80E+01 SK= 0.47E-01
 bond charge predicted
 prediction of wavefunctions
       N       E                     dE             d eps       ncg     rms          rms(c)
DAV:   1    -0.101391554326E+03    0.12750E+00   -0.93020E-03   144   0.238E-01    0.102E-02
RMM:   2    -0.101391630557E+03   -0.76231E-04   -0.82729E-04   120   0.870E-02
   1260 T=   628. E= -.89110050E+02 F= -.10139163E+03 E0= -.10140217E+03  EK= 0.42995E+01 SP= 0.79E+01 SK= 0.42E-01
 bond charge predicted
 prediction of wavefunctions
       N       E                     dE             d eps       ncg     rms          rms(c)
DAV:   1    -0.101273982408E+03    0.11757E+00   -0.96673E-03   180   0.272E-01    0.139E-02
RMM:   2    -0.101274177401E+03   -0.19499E-03   -0.20501E-03   120   0.130E-01    0.870E-03
RMM:   3    -0.101274196593E+03   -0.19191E-04   -0.19659E-04    77   0.415E-02
   1261 T=   624. E= -.89109280E+02 F= -.10127420E+03 E0= -.10128480E+03  EK= 0.42765E+01 SP= 0.79E+01 SK= 0.38E-01
 bond charge predicted
 prediction of wavefunctions
       N       E                     dE             d eps       ncg     rms          rms(c)
DAV:   1    -0.101173687099E+03    0.10049E+00   -0.92762E-03   168   0.236E-01    0.976E-03
RMM:   2    -0.101173763341E+03   -0.76242E-04   -0.82708E-04   120   0.802E-02
   1262 T=   623. E= -.89108680E+02 F= -.10117376E+03 E0= -.10118429E+03  EK= 0.42655E+01 SP= 0.78E+01 SK= 0.34E-01
 bond charge predicted
 prediction of wavefunctions
       N       E                     dE             d eps       ncg     rms          rms(c)
DAV:   1    -0.101095136825E+03    0.78550E-01   -0.10677E-02   204   0.271E-01    0.133E-02
RMM:   2    -0.101095328113E+03   -0.19129E-03   -0.20051E-03   120   0.131E-01    0.816E-03
RMM:   3    -0.101095345981E+03   -0.17867E-04   -0.17986E-04    69   0.406E-02
   1263 T=   624. E= -.89108227E+02 F= -.10109535E+03 E0= -.10110558E+03  EK= 0.42721E+01 SP= 0.77E+01 SK= 0.31E-01
 bond charge predicted
 prediction of wavefunctions
       N       E                     dE             d eps       ncg     rms          rms(c)
DAV:   1    -0.101041002898E+03    0.54325E-01   -0.98649E-03   192   0.242E-01    0.956E-03
RMM:   2    -0.101041091873E+03   -0.88975E-04   -0.95354E-04   120   0.865E-02
   1264 T=   627. E= -.89107833E+02 F= -.10104109E+03 E0= -.10105080E+03  EK= 0.42987E+01 SP= 0.76E+01 SK= 0.28E-01
 bond charge predicted
 prediction of wavefunctions
       N       E                     dE             d eps       ncg     rms          rms(c)
DAV:   1    -0.101010424324E+03    0.30579E-01   -0.11274E-02   192   0.280E-01    0.154E-02
RMM:   2    -0.101010633545E+03   -0.20922E-03   -0.22400E-03   120   0.135E-01    0.932E-03
RMM:   3    -0.101010654780E+03   -0.21235E-04   -0.22484E-04    84   0.453E-02
   1265 T=   634. E= -.89107681E+02 F= -.10101065E+03 E0= -.10101969E+03  EK= 0.43444E+01 SP= 0.75E+01 SK= 0.24E-01
 bond charge predicted
 prediction of wavefunctions
       N       E                     dE             d eps       ncg     rms          rms(c)
DAV:   1    -0.101001243190E+03    0.93904E-02   -0.10223E-02   204   0.247E-01    0.949E-03
RMM:   2    -0.101001328168E+03   -0.84978E-04   -0.91436E-04   120   0.842E-02
   1266 T=   643. E= -.89107643E+02 F= -.10100133E+03 E0= -.10100964E+03  EK= 0.44056E+01 SP= 0.75E+01 SK= 0.19E-01
 bond charge predicted
 prediction of wavefunctions
       N       E                     dE             d eps       ncg     rms          rms(c)
DAV:   1    -0.101008162753E+03   -0.69196E-02   -0.12101E-02   180   0.279E-01    0.134E-02
RMM:   2    -0.101008366173E+03   -0.20342E-03   -0.21282E-03   120   0.133E-01    0.827E-03
RMM:   3    -0.101008385115E+03   -0.18942E-04   -0.18468E-04    78   0.412E-02
   1267 T=   653. E= -.89107958E+02 F= -.10100839E+03 E0= -.10101601E+03  EK= 0.44757E+01 SP= 0.74E+01 SK= 0.15E-01
 bond charge predicted
 prediction of wavefunctions
       N       E                     dE             d eps       ncg     rms          rms(c)
DAV:   1    -0.101024592737E+03   -0.16227E-01   -0.10449E-02   180   0.251E-01    0.789E-03
RMM:   2    -0.101024686205E+03   -0.93468E-04   -0.97055E-04   120   0.868E-02
   1268 T=   664. E= -.89108055E+02 F= -.10102469E+03 E0= -.10103171E+03  EK= 0.45462E+01 SP= 0.74E+01 SK= 0.97E-02
 bond charge predicted
 prediction of wavefunctions
       N       E                     dE             d eps       ncg     rms          rms(c)
DAV:   1    -0.101042920789E+03   -0.18328E-01   -0.12257E-02   192   0.291E-01    0.133E-02
RMM:   2    -0.101043152911E+03   -0.23212E-03   -0.24105E-03   120   0.142E-01    0.881E-03
RMM:   3    -0.101043173700E+03   -0.20789E-04   -0.20634E-04    82   0.443E-02
   1269 T=   673. E= -.89108279E+02 F= -.10104317E+03 E0= -.10104974E+03  EK= 0.46073E+01 SP= 0.73E+01 SK= 0.52E-02
 bond charge predicted
 prediction of wavefunctions
       N       E                     dE             d eps       ncg     rms          rms(c)
DAV:   1    -0.101056353175E+03   -0.13200E-01   -0.10632E-02   180   0.257E-01    0.795E-03
RMM:   2    -0.101056460680E+03   -0.10751E-03   -0.11140E-03   120   0.902E-02    0.582E-03
RMM:   3    -0.101056482144E+03   -0.21464E-04   -0.22059E-04    85   0.411E-02
   1270 T=   679. E= -.89108544E+02 F= -.10105648E+03 E0= -.10106275E+03  EK= 0.46495E+01 SP= 0.73E+01 SK= 0.18E-02
Information: wavefunction orthogonal band   60  0.8968
 bond charge predicted
 prediction of wavefunctions
       N       E                     dE             d eps       ncg     rms          rms(c)
DAV:   1    -0.101058568446E+03   -0.21078E-02   -0.10080E-02   180   0.259E-01    0.937E-03
RMM:   2    -0.101058671798E+03   -0.10335E-03   -0.10785E-03   120   0.969E-02    0.551E-03
RMM:   3    -0.101058685051E+03   -0.13254E-04   -0.13829E-04    76   0.350E-02
   1271 T=   681. E= -.89108531E+02 F= -.10105869E+03 E0= -.10106475E+03  EK= 0.46657E+01 SP= 0.73E+01 SK= 0.14E-03
 bond charge predicted
 prediction of wavefunctions
       N       E                     dE             d eps       ncg     rms          rms(c)
DAV:   1    -0.101045776720E+03    0.12895E-01   -0.91327E-03   192   0.258E-01    0.749E-03
RMM:   2    -0.101045881958E+03   -0.10524E-03   -0.10797E-03   120   0.961E-02    0.555E-03
RMM:   3    -0.101045894455E+03   -0.12497E-04   -0.13206E-04    71   0.332E-02
   1272 T=   679. E= -.89108421E+02 F= -.10104589E+03 E0= -.10105181E+03  EK= 0.46512E+01 SP= 0.73E+01 SK= 0.36E-03
 bond charge predicted
 prediction of wavefunctions
       N       E                     dE             d eps       ncg     rms          rms(c)
DAV:   1    -0.101016384978E+03    0.29497E-01   -0.84362E-03   180   0.253E-01    0.644E-03
RMM:   2    -0.101016476117E+03   -0.91138E-04   -0.92724E-04   120   0.902E-02
   1273 T=   672. E= -.89107883E+02 F= -.10101648E+03 E0= -.10102219E+03  EK= 0.46052E+01 SP= 0.73E+01 SK= 0.23E-02
 bond charge predicted
 prediction of wavefunctions
       N       E                     dE             d eps       ncg     rms          rms(c)
DAV:   1    -0.100971720989E+03    0.44664E-01   -0.84907E-03   204   0.278E-01    0.864E-03
RMM:   2    -0.100971921451E+03   -0.20046E-03   -0.20269E-03   120   0.132E-01    0.701E-03
RMM:   3    -0.100971948241E+03   -0.26791E-04   -0.25753E-04    88   0.472E-02
   1274 T=   661. E= -.89107003E+02 F= -.10097195E+03 E0= -.10097734E+03  EK= 0.45308E+01 SP= 0.73E+01 SK= 0.55E-02
 bond charge predicted
 prediction of wavefunctions
       N       E                     dE             d eps       ncg     rms          rms(c)
DAV:   1    -0.100916611232E+03    0.55310E-01   -0.68155E-03   180   0.244E-01    0.643E-03
RMM:   2    -0.100916690999E+03   -0.79767E-04   -0.81128E-04   120   0.822E-02
   1275 T=   647. E= -.89105970E+02 F= -.10091669E+03 E0= -.10092161E+03  EK= 0.44348E+01 SP= 0.74E+01 SK= 0.91E-02
 bond charge predicted
 prediction of wavefunctions
       N       E                     dE             d eps       ncg     rms          rms(c)
DAV:   1    -0.100857161203E+03    0.59450E-01   -0.70529E-03   192   0.277E-01    0.932E-03
RMM:   2    -0.100857367093E+03   -0.20589E-03   -0.20800E-03   120   0.133E-01    0.709E-03
RMM:   3    -0.100857383828E+03   -0.16735E-04   -0.15430E-04    76   0.371E-02
   1276 T=   632. E= -.89104846E+02 F= -.10085738E+03 E0= -.10086175E+03  EK= 0.43270E+01 SP= 0.74E+01 SK= 0.12E-01
 bond charge predicted
 prediction of wavefunctions
       N       E                     dE             d eps       ncg     rms          rms(c)
DAV:   1    -0.100802767641E+03    0.54599E-01   -0.60780E-03   216   0.227E-01    0.649E-03
RMM:   2    -0.100802822076E+03   -0.54435E-04   -0.55966E-04   119   0.615E-02
   1277 T=   616. E= -.89104013E+02 F= -.10080282E+03 E0= -.10080664E+03  EK= 0.42191E+01 SP= 0.75E+01 SK= 0.14E-01
 bond charge predicted
 prediction of wavefunctions
       N       E                     dE             d eps       ncg     rms          rms(c)
DAV:   1    -0.100761044761E+03    0.41723E-01   -0.61443E-03   204   0.258E-01    0.892E-03
RMM:   2    -0.100761216302E+03   -0.17154E-03   -0.17432E-03   120   0.123E-01    0.606E-03
RMM:   3    -0.100761234277E+03   -0.17975E-04   -0.17134E-04    74   0.395E-02
   1278 T=   602. E= -.89103361E+02 F= -.10076123E+03 E0= -.10076459E+03  EK= 0.41223E+01 SP= 0.75E+01 SK= 0.15E-01
 bond charge predicted
 prediction of wavefunctions
       N       E                     dE             d eps       ncg     rms          rms(c)
DAV:   1    -0.100739253603E+03    0.21963E-01   -0.47782E-03   192   0.226E-01    0.531E-03
RMM:   2    -0.100739332876E+03   -0.79273E-04   -0.80507E-04   120   0.801E-02
   1279 T=   591. E= -.89102541E+02 F= -.10073933E+03 E0= -.10074233E+03  EK= 0.40459E+01 SP= 0.76E+01 SK= 0.15E-01
 bond charge predicted
 prediction of wavefunctions
       N       E                     dE             d eps       ncg     rms          rms(c)
DAV:   1    -0.100742195372E+03   -0.29418E-02   -0.59483E-03   228   0.261E-01    0.916E-03
RMM:   2    -0.100742383858E+03   -0.18849E-03   -0.19277E-03   120   0.128E-01    0.688E-03
RMM:   3    -0.100742401935E+03   -0.18077E-04   -0.17075E-04    68   0.398E-02
   1280 T=   583. E= -.89101859E+02 F= -.10074240E+03 E0= -.10074513E+03  EK= 0.39966E+01 SP= 0.76E+01 SK= 0.14E-01
 bond charge predicted
 prediction of wavefunctions
       N       E                     dE             d eps       ncg     rms          rms(c)
DAV:   1    -0.100772745508E+03   -0.30362E-01   -0.47757E-03   168   0.220E-01    0.554E-03
RMM:   2    -0.100772818091E+03   -0.72583E-04   -0.73951E-04   120   0.774E-02
   1281 T=   581. E= -.89101765E+02 F= -.10077282E+03 E0= -.10077535E+03  EK= 0.39769E+01 SP= 0.77E+01 SK= 0.12E-01
 bond charge predicted
 prediction of wavefunctions
       N       E                     dE             d eps       ncg     rms          rms(c)
DAV:   1    -0.100829081898E+03   -0.56336E-01   -0.58122E-03   192   0.259E-01    0.106E-02
RMM:   2    -0.100829272040E+03   -0.19014E-03   -0.19580E-03   120   0.128E-01    0.711E-03
RMM:   3    -0.100829293474E+03   -0.21434E-04   -0.20877E-04    76   0.433E-02
   1282 T=   582. E= -.89101838E+02 F= -.10082929E+03 E0= -.10083169E+03  EK= 0.39861E+01 SP= 0.77E+01 SK= 0.11E-01
 bond charge predicted
 prediction of wavefunctions
       N       E                     dE             d eps       ncg     rms          rms(c)
DAV:   1    -0.100908071346E+03   -0.78799E-01   -0.55679E-03   192   0.222E-01    0.643E-03
RMM:   2    -0.100908143299E+03   -0.71953E-04   -0.75333E-04   120   0.751E-02
   1283 T=   587. E= -.89101911E+02 F= -.10090814E+03 E0= -.10091044E+03  EK= 0.40201E+01 SP= 0.78E+01 SK= 0.98E-02
 bond charge predicted
 prediction of wavefunctions
       N       E                     dE             d eps       ncg     rms          rms(c)
DAV:   1    -0.101003069444E+03   -0.94998E-01   -0.73071E-03   192   0.255E-01    0.105E-02
RMM:   2    -0.101003241508E+03   -0.17206E-03   -0.17933E-03   120   0.122E-01    0.660E-03
RMM:   3    -0.101003261780E+03   -0.20272E-04   -0.19909E-04    76   0.425E-02
   1284 T=   594. E= -.89101872E+02 F= -.10100326E+03 E0= -.10100550E+03  EK= 0.40720E+01 SP= 0.78E+01 SK= 0.92E-02
 bond charge predicted
 prediction of wavefunctions
       N       E                     dE             d eps       ncg     rms          rms(c)
DAV:   1    -0.101107664192E+03   -0.10442E+00   -0.69608E-03   216   0.231E-01    0.692E-03
RMM:   2    -0.101107754024E+03   -0.89832E-04   -0.92642E-04   120   0.856E-02
   1285 T=   603. E= -.89101869E+02 F= -.10110775E+03 E0= -.10110995E+03  EK= 0.41333E+01 SP= 0.79E+01 SK= 0.92E-02
 bond charge predicted
 prediction of wavefunctions
       N       E                     dE             d eps       ncg     rms          rms(c)
DAV:   1    -0.101214302759E+03   -0.10664E+00   -0.89748E-03   192   0.272E-01    0.140E-02
RMM:   2    -0.101214604324E+03   -0.30157E-03   -0.31494E-03   120   0.137E-01    0.849E-03
RMM:   3    -0.101214640220E+03   -0.35896E-04   -0.35359E-04   102   0.488E-02
   1286 T=   612. E= -.89101933E+02 F= -.10121464E+03 E0= -.10121682E+03  EK= 0.41954E+01 SP= 0.79E+01 SK= 0.99E-02
Information: wavefunction orthogonal band   60  0.4088
 bond charge predicted
 prediction of wavefunctions
       N       E                     dE             d eps       ncg     rms          rms(c)
DAV:   1    -0.101316682560E+03   -0.10208E+00   -0.10246E-02   156   0.240E-01    0.836E-03
RMM:   2    -0.101316892960E+03   -0.21040E-03   -0.21436E-03   120   0.982E-02    0.561E-03
RMM:   3    -0.101316939845E+03   -0.46885E-04   -0.46485E-04   107   0.475E-02
   1287 T=   620. E= -.89101958E+02 F= -.10131694E+03 E0= -.10131912E+03  EK= 0.42499E+01 SP= 0.80E+01 SK= 0.11E-01
Information: wavefunction orthogonal band   60  0.8049
 bond charge predicted
 prediction of wavefunctions
       N       E                     dE             d eps       ncg     rms          rms(c)
DAV:   1    -0.101409459700E+03   -0.92567E-01   -0.11043E-02   132   0.249E-01    0.122E-02
RMM:   2    -0.101409599255E+03   -0.13955E-03   -0.15089E-03   120   0.107E-01    0.667E-03
RMM:   3    -0.101409621324E+03   -0.22070E-04   -0.23081E-04    98   0.435E-02
   1288 T=   626. E= -.89101852E+02 F= -.10140962E+03 E0= -.10141181E+03  EK= 0.42906E+01 SP= 0.80E+01 SK= 0.13E-01
 bond charge predicted
 prediction of wavefunctions
       N       E                     dE             d eps       ncg     rms          rms(c)
DAV:   1    -0.101489313181E+03   -0.79714E-01   -0.85140E-03   180   0.249E-01    0.942E-03
RMM:   2    -0.101489457308E+03   -0.14413E-03   -0.14949E-03   120   0.104E-01    0.658E-03
RMM:   3    -0.101489472094E+03   -0.14785E-04   -0.15933E-04    82   0.362E-02
   1289 T=   630. E= -.89101670E+02 F= -.10148947E+03 E0= -.10149169E+03  EK= 0.43132E+01 SP= 0.81E+01 SK= 0.16E-01
 bond charge predicted
 prediction of wavefunctions
       N       E                     dE             d eps       ncg     rms          rms(c)
DAV:   1    -0.101554420095E+03   -0.64963E-01   -0.96610E-03   180   0.242E-01    0.777E-03
RMM:   2    -0.101554530653E+03   -0.11056E-03   -0.11453E-03   120   0.963E-02    0.462E-03
RMM:   3    -0.101554547148E+03   -0.16495E-04   -0.15800E-04    78   0.367E-02
   1290 T=   630. E= -.89101223E+02 F= -.10155455E+03 E0= -.10155681E+03  EK= 0.43157E+01 SP= 0.81E+01 SK= 0.19E-01
 bond charge predicted
 prediction of wavefunctions
       N       E                     dE             d eps       ncg     rms          rms(c)
DAV:   1    -0.101604760494E+03   -0.50230E-01   -0.77945E-03   204   0.241E-01    0.746E-03
RMM:   2    -0.101604853060E+03   -0.92566E-04   -0.95074E-04   120   0.939E-02
   1291 T=   627. E= -.89100574E+02 F= -.10160485E+03 E0= -.10160717E+03  EK= 0.42982E+01 SP= 0.82E+01 SK= 0.23E-01
 bond charge predicted
 prediction of wavefunctions
       N       E                     dE             d eps       ncg     rms          rms(c)
DAV:   1    -0.101640969745E+03   -0.36209E-01   -0.82822E-03   192   0.264E-01    0.864E-03
RMM:   2    -0.101641138688E+03   -0.16894E-03   -0.17093E-03   120   0.124E-01    0.623E-03
RMM:   3    -0.101641162835E+03   -0.24147E-04   -0.22766E-04    81   0.453E-02
   1292 T=   622. E= -.89099848E+02 F= -.10164116E+03 E0= -.10164353E+03  EK= 0.42621E+01 SP= 0.83E+01 SK= 0.26E-01
 bond charge predicted
 prediction of wavefunctions
       N       E                     dE             d eps       ncg     rms          rms(c)
DAV:   1    -0.101665777818E+03   -0.24639E-01   -0.78261E-03   132   0.231E-01    0.644E-03
RMM:   2    -0.101665847627E+03   -0.69809E-04   -0.71750E-04   120   0.820E-02
   1293 T=   615. E= -.89098986E+02 F= -.10166585E+03 E0= -.10166825E+03  EK= 0.42113E+01 SP= 0.83E+01 SK= 0.28E-01
 bond charge predicted
 prediction of wavefunctions
       N       E                     dE             d eps       ncg     rms          rms(c)
DAV:   1    -0.101682332666E+03   -0.16555E-01   -0.89457E-03   168   0.267E-01    0.876E-03
RMM:   2    -0.101682521390E+03   -0.18872E-03   -0.19025E-03   120   0.127E-01    0.633E-03
RMM:   3    -0.101682537184E+03   -0.15794E-04   -0.13848E-04    68   0.351E-02
   1294 T=   606. E= -.89098091E+02 F= -.10168254E+03 E0= -.10168496E+03  EK= 0.41507E+01 SP= 0.84E+01 SK= 0.30E-01
 bond charge predicted
 prediction of wavefunctions
       N       E                     dE             d eps       ncg     rms          rms(c)
DAV:   1    -0.101695297760E+03   -0.12776E-01   -0.80694E-03   144   0.216E-01    0.717E-03
RMM:   2    -0.101695336672E+03   -0.38911E-04   -0.41625E-04   119   0.607E-02
   1295 T=   596. E= -.89097358E+02 F= -.10169534E+03 E0= -.10169776E+03  EK= 0.40861E+01 SP= 0.85E+01 SK= 0.30E-01
 bond charge predicted
 prediction of wavefunctions
       N       E                     dE             d eps       ncg     rms          rms(c)
DAV:   1    -0.101708775807E+03   -0.13478E-01   -0.87093E-03   180   0.254E-01    0.664E-03
RMM:   2    -0.101708931663E+03   -0.15586E-03   -0.15674E-03   120   0.119E-01    0.491E-03
RMM:   3    -0.101708948099E+03   -0.16436E-04   -0.15362E-04    69   0.376E-02
   1296 T=   587. E= -.89096924E+02 F= -.10170895E+03 E0= -.10171136E+03  EK= 0.40236E+01 SP= 0.86E+01 SK= 0.29E-01
 bond charge predicted
 prediction of wavefunctions
       N       E                     dE             d eps       ncg     rms          rms(c)
DAV:   1    -0.101727749105E+03   -0.18817E-01   -0.76547E-03   180   0.211E-01    0.729E-03
RMM:   2    -0.101727810726E+03   -0.61621E-04   -0.64294E-04   120   0.742E-02
   1297 T=   579. E= -.89096184E+02 F= -.10172781E+03 E0= -.10173020E+03  EK= 0.39697E+01 SP= 0.86E+01 SK= 0.27E-01
 bond charge predicted
 prediction of wavefunctions
       N       E                     dE             d eps       ncg     rms          rms(c)
DAV:   1    -0.101756422987E+03   -0.28674E-01   -0.81901E-03   144   0.244E-01    0.733E-03
RMM:   2    -0.101756581839E+03   -0.15885E-03   -0.16024E-03   120   0.117E-01    0.599E-03
RMM:   3    -0.101756603081E+03   -0.21242E-04   -0.20438E-04    80   0.421E-02
   1298 T=   574. E= -.89095530E+02 F= -.10175660E+03 E0= -.10175898E+03  EK= 0.39296E+01 SP= 0.87E+01 SK= 0.24E-01
 bond charge predicted
 prediction of wavefunctions
       N       E                     dE             d eps       ncg     rms          rms(c)
DAV:   1    -0.101798658886E+03   -0.42077E-01   -0.69609E-03   156   0.207E-01    0.696E-03
RMM:   2    -0.101798723192E+03   -0.64307E-04   -0.66777E-04   120   0.777E-02
   1299 T=   570. E= -.89094968E+02 F= -.10179872E+03 E0= -.10180108E+03  EK= 0.39073E+01 SP= 0.88E+01 SK= 0.21E-01
 bond charge predicted
 prediction of wavefunctions
       N       E                     dE             d eps       ncg     rms          rms(c)
DAV:   1    -0.101855813568E+03   -0.57155E-01   -0.74343E-03   192   0.242E-01    0.767E-03
RMM:   2    -0.101855972328E+03   -0.15876E-03   -0.16071E-03   120   0.117E-01    0.590E-03
RMM:   3    -0.101855989478E+03   -0.17150E-04   -0.16335E-04    69   0.381E-02
   1300 T=   570. E= -.89094459E+02 F= -.10185599E+03 E0= -.10185834E+03  EK= 0.39049E+01 SP= 0.88E+01 SK= 0.18E-01
 bond charge predicted
 prediction of wavefunctions
       N       E                     dE             d eps       ncg     rms          rms(c)
DAV:   1    -0.101928263619E+03   -0.72291E-01   -0.62286E-03   156   0.200E-01    0.613E-03
RMM:   2    -0.101928320704E+03   -0.57085E-04   -0.59037E-04   120   0.666E-02
   1301 T=   572. E= -.89094203E+02 F= -.10192832E+03 E0= -.10193068E+03  EK= 0.39218E+01 SP= 0.89E+01 SK= 0.15E-01
 bond charge predicted
 prediction of wavefunctions
       N       E                     dE             d eps       ncg     rms          rms(c)
DAV:   1    -0.102013442747E+03   -0.85179E-01   -0.72506E-03   192   0.231E-01    0.754E-03
RMM:   2    -0.102013584612E+03   -0.14187E-03   -0.14466E-03   120   0.110E-01    0.559E-03
RMM:   3    -0.102013598744E+03   -0.14132E-04   -0.14040E-04    70   0.356E-02
   1302 T=   577. E= -.89094089E+02 F= -.10201360E+03 E0= -.10201597E+03  EK= 0.39554E+01 SP= 0.90E+01 SK= 0.13E-01
Information: wavefunction orthogonal band   60  0.8773
 bond charge predicted
 prediction of wavefunctions
       N       E                     dE             d eps       ncg     rms          rms(c)
DAV:   1    -0.102107670251E+03   -0.94086E-01   -0.59453E-03   156   0.207E-01    0.624E-03
RMM:   2    -0.102107746774E+03   -0.76523E-04   -0.78499E-04   120   0.784E-02
   1303 T=   584. E= -.89093959E+02 F= -.10210775E+03 E0= -.10211015E+03  EK= 0.40009E+01 SP= 0.90E+01 SK= 0.12E-01
 bond charge predicted
 prediction of wavefunctions
       N       E                     dE             d eps       ncg     rms          rms(c)
DAV:   1    -0.102205687437E+03   -0.98017E-01   -0.66297E-03   204   0.242E-01    0.985E-03
RMM:   2    -0.102205854323E+03   -0.16689E-03   -0.17354E-03   120   0.121E-01    0.689E-03
RMM:   3    -0.102205871588E+03   -0.17264E-04   -0.17828E-04    80   0.400E-02
   1304 T=   591. E= -.89094008E+02 F= -.10220587E+03 E0= -.10220832E+03  EK= 0.40520E+01 SP= 0.90E+01 SK= 0.11E-01
 bond charge predicted
 prediction of wavefunctions
       N       E                     dE             d eps       ncg     rms          rms(c)
DAV:   1    -0.102301826240E+03   -0.95972E-01   -0.60497E-03   204   0.210E-01    0.632E-03
RMM:   2    -0.102301899196E+03   -0.72956E-04   -0.75474E-04   120   0.780E-02
   1305 T=   599. E= -.89094002E+02 F= -.10230190E+03 E0= -.10230441E+03  EK= 0.41016E+01 SP= 0.91E+01 SK= 0.11E-01
 bond charge predicted
 prediction of wavefunctions
       N       E                     dE             d eps       ncg     rms          rms(c)
DAV:   1    -0.102389948863E+03   -0.88123E-01   -0.59264E-03   192   0.244E-01    0.115E-02
RMM:   2    -0.102390119353E+03   -0.17049E-03   -0.18064E-03   120   0.123E-01    0.687E-03
RMM:   3    -0.102390138691E+03   -0.19338E-04   -0.19871E-04    77   0.425E-02
   1306 T=   605. E= -.89093970E+02 F= -.10239014E+03 E0= -.10239272E+03  EK= 0.41431E+01 SP= 0.91E+01 SK= 0.11E-01
 bond charge predicted
 prediction of wavefunctions
       N       E                     dE             d eps       ncg     rms          rms(c)
DAV:   1    -0.102465518146E+03   -0.75399E-01   -0.55192E-03   180   0.212E-01    0.740E-03
RMM:   2    -0.102465585151E+03   -0.67005E-04   -0.70447E-04   120   0.750E-02
   1307 T=   609. E= -.89093802E+02 F= -.10246559E+03 E0= -.10246824E+03  EK= 0.41705E+01 SP= 0.92E+01 SK= 0.11E-01
 bond charge predicted
 prediction of wavefunctions
       N       E                     dE             d eps       ncg     rms          rms(c)
DAV:   1    -0.102524364068E+03   -0.58846E-01   -0.55681E-03   192   0.246E-01    0.129E-02
RMM:   2    -0.102524520352E+03   -0.15628E-03   -0.17106E-03   120   0.122E-01    0.759E-03
RMM:   3    -0.102524537228E+03   -0.16876E-04   -0.19813E-04    80   0.424E-02
   1308 T=   610. E= -.89093430E+02 F= -.10252454E+03 E0= -.10252727E+03  EK= 0.41797E+01 SP= 0.92E+01 SK= 0.12E-01
 bond charge predicted
 prediction of wavefunctions
       N       E                     dE             d eps       ncg     rms          rms(c)
DAV:   1    -0.102565216481E+03   -0.40696E-01   -0.49993E-03   180   0.217E-01    0.998E-03
RMM:   2    -0.102565280983E+03   -0.64502E-04   -0.72391E-04   120   0.771E-02
   1309 T=   609. E= -.89092986E+02 F= -.10256528E+03 E0= -.10256809E+03  EK= 0.41689E+01 SP= 0.93E+01 SK= 0.13E-01
 bond charge predicted
 prediction of wavefunctions
       N       E                     dE             d eps       ncg     rms          rms(c)
DAV:   1    -0.102587363811E+03   -0.22147E-01   -0.52924E-03   156   0.248E-01    0.121E-02
RMM:   2    -0.102587524766E+03   -0.16096E-03   -0.17307E-03   120   0.120E-01    0.663E-03
RMM:   3    -0.102587543736E+03   -0.18970E-04   -0.19504E-04    74   0.416E-02
   1310 T=   604. E= -.89092446E+02 F= -.10258754E+03 E0= -.10259041E+03  EK= 0.41383E+01 SP= 0.93E+01 SK= 0.14E-01
 bond charge predicted
 prediction of wavefunctions
       N       E                     dE             d eps       ncg     rms          rms(c)
DAV:   1    -0.102591925371E+03   -0.44006E-02   -0.45276E-03   156   0.216E-01    0.917E-03
RMM:   2    -0.102591987076E+03   -0.61705E-04   -0.67952E-04   120   0.746E-02
   1311 T=   597. E= -.89091800E+02 F= -.10259199E+03 E0= -.10259491E+03  EK= 0.40897E+01 SP= 0.94E+01 SK= 0.14E-01
 bond charge predicted
 prediction of wavefunctions
       N       E                     dE             d eps       ncg     rms          rms(c)
DAV:   1    -0.102580210540E+03    0.11715E-01   -0.52194E-03   204   0.249E-01    0.111E-02
RMM:   2    -0.102580364062E+03   -0.15352E-03   -0.16342E-03   120   0.119E-01    0.653E-03
RMM:   3    -0.102580380891E+03   -0.16829E-04   -0.17876E-04    69   0.405E-02
   1312 T=   588. E= -.89091172E+02 F= -.10258038E+03 E0= -.10258333E+03  EK= 0.40261E+01 SP= 0.94E+01 SK= 0.14E-01
 bond charge predicted
 prediction of wavefunctions
       N       E                     dE             d eps       ncg     rms          rms(c)
DAV:   1    -0.102554962953E+03    0.25401E-01   -0.43945E-03   144   0.218E-01    0.885E-03
RMM:   2    -0.102555031063E+03   -0.68110E-04   -0.74074E-04   120   0.769E-02
   1313 T=   577. E= -.89090562E+02 F= -.10255503E+03 E0= -.10255799E+03  EK= 0.39515E+01 SP= 0.95E+01 SK= 0.12E-01
 bond charge predicted
 prediction of wavefunctions
       N       E                     dE             d eps       ncg     rms          rms(c)
DAV:   1    -0.102518298652E+03    0.36664E-01   -0.49410E-03   168   0.248E-01    0.115E-02
RMM:   2    -0.102518450450E+03   -0.15180E-03   -0.16242E-03   120   0.117E-01    0.679E-03
RMM:   3    -0.102518468698E+03   -0.18248E-04   -0.19512E-04    75   0.416E-02
   1314 T=   565. E= -.89089931E+02 F= -.10251847E+03 E0= -.10252144E+03  EK= 0.38703E+01 SP= 0.95E+01 SK= 0.10E-01
 bond charge predicted
 prediction of wavefunctions
       N       E                     dE             d eps       ncg     rms          rms(c)
DAV:   1    -0.102473889376E+03    0.44561E-01   -0.43119E-03   192   0.217E-01    0.868E-03
RMM:   2    -0.102473954965E+03   -0.65589E-04   -0.71314E-04   120   0.766E-02
   1315 T=   553. E= -.89089522E+02 F= -.10247395E+03 E0= -.10247693E+03  EK= 0.37873E+01 SP= 0.96E+01 SK= 0.72E-02
 bond charge predicted
 prediction of wavefunctions
       N       E                     dE             d eps       ncg     rms          rms(c)
DAV:   1    -0.102423765618E+03    0.50124E-01   -0.47026E-03   180   0.245E-01    0.133E-02
RMM:   2    -0.102423911252E+03   -0.14563E-03   -0.16052E-03   120   0.117E-01    0.758E-03
RMM:   3    -0.102423927005E+03   -0.15753E-04   -0.18099E-04    73   0.405E-02
   1316 T=   541. E= -.89088902E+02 F= -.10242393E+03 E0= -.10242690E+03  EK= 0.37070E+01 SP= 0.96E+01 SK= 0.43E-02
 bond charge predicted
 prediction of wavefunctions
       N       E                     dE             d eps       ncg     rms          rms(c)
DAV:   1    -0.102370621224E+03    0.53290E-01   -0.39882E-03   180   0.213E-01    0.109E-02
RMM:   2    -0.102370676435E+03   -0.55211E-04   -0.65170E-04   120   0.742E-02
   1317 T=   530. E= -.89088360E+02 F= -.10237068E+03 E0= -.10237366E+03  EK= 0.36327E+01 SP= 0.96E+01 SK= 0.17E-02
 bond charge predicted
 prediction of wavefunctions
       N       E                     dE             d eps       ncg     rms          rms(c)
DAV:   1    -0.102315892069E+03    0.54729E-01   -0.42824E-03   192   0.240E-01    0.114E-02
RMM:   2    -0.102316039776E+03   -0.14771E-03   -0.15790E-03   120   0.115E-01    0.636E-03
RMM:   3    -0.102316059136E+03   -0.19360E-04   -0.19910E-04    77   0.427E-02
   1318 T=   521. E= -.89087901E+02 F= -.10231606E+03 E0= -.10231906E+03  EK= 0.35676E+01 SP= 0.97E+01 SK= 0.19E-03
 bond charge predicted
 prediction of wavefunctions
       N       E                     dE             d eps       ncg     rms          rms(c)
DAV:   1    -0.102261696929E+03    0.54343E-01   -0.33078E-03   144   0.205E-01    0.991E-03
RMM:   2    -0.102261755353E+03   -0.58424E-04   -0.66126E-04   120   0.762E-02
   1319 T=   513. E= -.89087397E+02 F= -.10226176E+03 E0= -.10226480E+03  EK= 0.35144E+01 SP= 0.97E+01 SK= 0.29E-03
 bond charge predicted
 prediction of wavefunctions
       N       E                     dE             d eps       ncg     rms          rms(c)
DAV:   1    -0.102209193634E+03    0.52503E-01   -0.39797E-03   156   0.236E-01    0.107E-02
RMM:   2    -0.102209331952E+03   -0.13832E-03   -0.14699E-03   120   0.111E-01    0.604E-03
RMM:   3    -0.102209347685E+03   -0.15733E-04   -0.15573E-04    73   0.375E-02
   1320 T=   507. E= -.89086807E+02 F= -.10220935E+03 E0= -.10221247E+03  EK= 0.34756E+01 SP= 0.96E+01 SK= 0.26E-02
 bond charge predicted
 prediction of wavefunctions
       N       E                     dE             d eps       ncg     rms          rms(c)
DAV:   1    -0.102160316377E+03    0.49016E-01   -0.30792E-03   156   0.201E-01    0.867E-03
RMM:   2    -0.102160378431E+03   -0.62054E-04   -0.67631E-04   120   0.772E-02
   1321 T=   504. E= -.89086396E+02 F= -.10216038E+03 E0= -.10216361E+03  EK= 0.34530E+01 SP= 0.96E+01 SK= 0.74E-02
 bond charge predicted
 prediction of wavefunctions
       N       E                     dE             d eps       ncg     rms          rms(c)
DAV:   1    -0.102115369625E+03    0.44947E-01   -0.39191E-03   192   0.237E-01    0.105E-02
RMM:   2    -0.102115513424E+03   -0.14380E-03   -0.15077E-03   120   0.114E-01    0.646E-03
RMM:   3    -0.102115531689E+03   -0.18265E-04   -0.18174E-04    69   0.412E-02
   1322 T=   503. E= -.89086128E+02 F= -.10211553E+03 E0= -.10211891E+03  EK= 0.34478E+01 SP= 0.96E+01 SK= 0.15E-01
 bond charge predicted
 prediction of wavefunctions
       N       E                     dE             d eps       ncg     rms          rms(c)
DAV:   1    -0.102075111216E+03    0.40402E-01   -0.31372E-03   132   0.199E-01    0.787E-03
RMM:   2    -0.102075177596E+03   -0.66380E-04   -0.70981E-04   120   0.789E-02
   1323 T=   505. E= -.89085711E+02 F= -.10207518E+03 E0= -.10207874E+03  EK= 0.34608E+01 SP= 0.95E+01 SK= 0.25E-01
 bond charge predicted
 prediction of wavefunctions
       N       E                     dE             d eps       ncg     rms          rms(c)
DAV:   1    -0.102039950159E+03    0.35161E-01   -0.43630E-03   204   0.240E-01    0.109E-02
RMM:   2    -0.102040107613E+03   -0.15745E-03   -0.16513E-03   120   0.117E-01    0.658E-03
RMM:   3    -0.102040125230E+03   -0.17617E-04   -0.17014E-04    70   0.391E-02
   1324 T=   510. E= -.89085355E+02 F= -.10204013E+03 E0= -.10204389E+03  EK= 0.34928E+01 SP= 0.94E+01 SK= 0.37E-01
 bond charge predicted
 prediction of wavefunctions
       N       E                     dE             d eps       ncg     rms          rms(c)
DAV:   1    -0.102010849264E+03    0.29258E-01   -0.35266E-03   156   0.204E-01    0.797E-03
RMM:   2    -0.102010922648E+03   -0.73384E-04   -0.77905E-04   120   0.833E-02
   1325 T=   517. E= -.89085143E+02 F= -.10201092E+03 E0= -.10201492E+03  EK= 0.35442E+01 SP= 0.93E+01 SK= 0.50E-01
 bond charge predicted
 prediction of wavefunctions
       N       E                     dE             d eps       ncg     rms          rms(c)
DAV:   1    -0.101987483325E+03    0.23366E-01   -0.47071E-03   168   0.246E-01    0.118E-02
RMM:   2    -0.101987652378E+03   -0.16905E-03   -0.17744E-03   120   0.122E-01    0.765E-03
RMM:   3    -0.101987672360E+03   -0.19982E-04   -0.20139E-04    78   0.433E-02
   1326 T=   528. E= -.89084738E+02 F= -.10198767E+03 E0= -.10199190E+03  EK= 0.36152E+01 SP= 0.92E+01 SK= 0.64E-01
 bond charge predicted
 prediction of wavefunctions
       N       E                     dE             d eps       ncg     rms          rms(c)
DAV:   1    -0.101971183225E+03    0.16469E-01   -0.42301E-03   192   0.204E-01    0.873E-03
RMM:   2    -0.101971250096E+03   -0.66870E-04   -0.72588E-04   120   0.808E-02
   1327 T=   541. E= -.89084416E+02 F= -.10197125E+03 E0= -.10197570E+03  EK= 0.37058E+01 SP= 0.91E+01 SK= 0.77E-01
 bond charge predicted
 prediction of wavefunctions
       N       E                     dE             d eps       ncg     rms          rms(c)
DAV:   1    -0.101961756320E+03    0.94269E-02   -0.55626E-03   168   0.248E-01    0.112E-02
RMM:   2    -0.101961934963E+03   -0.17864E-03   -0.18560E-03   120   0.123E-01    0.698E-03
RMM:   3    -0.101961953720E+03   -0.18757E-04   -0.17717E-04    74   0.400E-02
   1328 T=   557. E= -.89084058E+02 F= -.10196195E+03 E0= -.10196663E+03  EK= 0.38154E+01 SP= 0.90E+01 SK= 0.88E-01
 bond charge predicted
 prediction of wavefunctions
       N       E                     dE             d eps       ncg     rms          rms(c)
DAV:   1    -0.101959516271E+03    0.24187E-02   -0.48488E-03   204   0.210E-01    0.895E-03
RMM:   2    -0.101959587102E+03   -0.70831E-04   -0.76693E-04   120   0.832E-02
   1329 T=   575. E= -.89083809E+02 F= -.10195959E+03 E0= -.10196450E+03  EK= 0.39423E+01 SP= 0.88E+01 SK= 0.96E-01
 bond charge predicted
 prediction of wavefunctions
       N       E                     dE             d eps       ncg     rms          rms(c)
DAV:   1    -0.101963101445E+03   -0.35852E-02   -0.66160E-03   180   0.257E-01    0.110E-02
RMM:   2    -0.101963292207E+03   -0.19076E-03   -0.19703E-03   120   0.128E-01    0.694E-03
RMM:   3    -0.101963315612E+03   -0.23405E-04   -0.22639E-04    82   0.454E-02
   1330 T=   596. E= -.89083675E+02 F= -.10196332E+03 E0= -.10196848E+03  EK= 0.40835E+01 SP= 0.87E+01 SK= 0.99E-01
 bond charge predicted
 prediction of wavefunctions
       N       E                     dE             d eps       ncg     rms          rms(c)
DAV:   1    -0.101971614121E+03   -0.83219E-02   -0.59446E-03   180   0.216E-01    0.800E-03
RMM:   2    -0.101971704159E+03   -0.90038E-04   -0.94271E-04   120   0.890E-02
   1331 T=   618. E= -.89083543E+02 F= -.10197170E+03 E0= -.10197715E+03  EK= 0.42348E+01 SP= 0.86E+01 SK= 0.97E-01
 bond charge predicted
 prediction of wavefunctions
       N       E                     dE             d eps       ncg     rms          rms(c)
DAV:   1    -0.101982476931E+03   -0.10863E-01   -0.76631E-03   192   0.265E-01    0.115E-02
RMM:   2    -0.101982688019E+03   -0.21109E-03   -0.21617E-03   120   0.134E-01    0.793E-03
RMM:   3    -0.101982707698E+03   -0.19678E-04   -0.17782E-04    74   0.409E-02
   1332 T=   641. E= -.89083572E+02 F= -.10198271E+03 E0= -.10198847E+03  EK= 0.43905E+01 SP= 0.84E+01 SK= 0.90E-01
 bond charge predicted
 prediction of wavefunctions
       N       E                     dE             d eps       ncg     rms          rms(c)
DAV:   1    -0.101993724676E+03   -0.11037E-01   -0.64107E-03   204   0.223E-01    0.795E-03
RMM:   2    -0.101993813372E+03   -0.88696E-04   -0.92624E-04   120   0.887E-02
   1333 T=   663. E= -.89083664E+02 F= -.10199381E+03 E0= -.10199990E+03  EK= 0.45437E+01 SP= 0.83E+01 SK= 0.78E-01
 bond charge predicted
 prediction of wavefunctions
       N       E                     dE             d eps       ncg     rms          rms(c)
DAV:   1    -0.102001834144E+03   -0.81095E-02   -0.75479E-03   192   0.279E-01    0.129E-02
RMM:   2    -0.102002070910E+03   -0.23677E-03   -0.24450E-03   120   0.142E-01    0.839E-03
RMM:   3    -0.102002093623E+03   -0.22714E-04   -0.21063E-04    80   0.443E-02
   1334 T=   684. E= -.89083734E+02 F= -.10200209E+03 E0= -.10200846E+03  EK= 0.46865E+01 SP= 0.82E+01 SK= 0.63E-01
 bond charge predicted
 prediction of wavefunctions
       N       E                     dE             d eps       ncg     rms          rms(c)
DAV:   1    -0.102004913980E+03   -0.28431E-02   -0.60700E-03   192   0.230E-01    0.813E-03
RMM:   2    -0.102005013002E+03   -0.99022E-04   -0.10356E-03   120   0.899E-02    0.550E-03
RMM:   3    -0.102005029704E+03   -0.16702E-04   -0.17856E-04    79   0.386E-02
   1335 T=   702. E= -.89083949E+02 F= -.10200503E+03 E0= -.10201159E+03  EK= 0.48111E+01 SP= 0.81E+01 SK= 0.47E-01
 bond charge predicted
 prediction of wavefunctions
       N       E                     dE             d eps       ncg     rms          rms(c)
DAV:   1    -0.102001049374E+03    0.39636E-02   -0.61741E-03   204   0.242E-01    0.934E-03
RMM:   2    -0.102001174013E+03   -0.12464E-03   -0.12794E-03   120   0.108E-01    0.586E-03
RMM:   3    -0.102001189966E+03   -0.15952E-04   -0.15683E-04    68   0.387E-02
   1336 T=   717. E= -.89084024E+02 F= -.10200119E+03 E0= -.10200781E+03  EK= 0.49113E+01 SP= 0.80E+01 SK= 0.30E-01
 bond charge predicted
 prediction of wavefunctions
       N       E                     dE             d eps       ncg     rms          rms(c)
DAV:   1    -0.101989923047E+03    0.11251E-01   -0.50215E-03   216   0.244E-01    0.724E-03
RMM:   2    -0.101990052327E+03   -0.12928E-03   -0.13095E-03   120   0.109E-01    0.559E-03
RMM:   3    -0.101990065150E+03   -0.12823E-04   -0.12528E-04    75   0.335E-02
   1337 T=   727. E= -.89083816E+02 F= -.10199007E+03 E0= -.10199662E+03  EK= 0.49821E+01 SP= 0.79E+01 SK= 0.16E-01
 bond charge predicted
 prediction of wavefunctions
       N       E                     dE             d eps       ncg     rms          rms(c)
DAV:   1    -0.101972309218E+03    0.17743E-01   -0.46275E-03   204   0.243E-01    0.729E-03
RMM:   2    -0.101972423499E+03   -0.11428E-03   -0.11552E-03   120   0.101E-01    0.532E-03
RMM:   3    -0.101972436180E+03   -0.12681E-04   -0.12269E-04    69   0.331E-02
   1338 T=   733. E= -.89083625E+02 F= -.10197244E+03 E0= -.10197884E+03  EK= 0.50208E+01 SP= 0.79E+01 SK= 0.60E-02
 bond charge predicted
 prediction of wavefunctions
       N       E                     dE             d eps       ncg     rms          rms(c)
DAV:   1    -0.101950200228E+03    0.22223E-01   -0.48708E-03   216   0.244E-01    0.649E-03
RMM:   2    -0.101950310973E+03   -0.11075E-03   -0.11151E-03   120   0.102E-01    0.494E-03
RMM:   3    -0.101950324478E+03   -0.13505E-04   -0.13024E-04    68   0.349E-02
   1339 T=   734. E= -.89083407E+02 F= -.10195032E+03 E0= -.10195654E+03  EK= 0.50275E+01 SP= 0.78E+01 SK= 0.69E-03
 bond charge predicted
 prediction of wavefunctions
       N       E                     dE             d eps       ncg     rms          rms(c)
DAV:   1    -0.101926585828E+03    0.23725E-01   -0.46457E-03   156   0.244E-01    0.662E-03
RMM:   2    -0.101926695066E+03   -0.10924E-03   -0.11002E-03   120   0.103E-01    0.498E-03
RMM:   3    -0.101926707829E+03   -0.12763E-04   -0.12354E-04    69   0.335E-02
   1340 T=   731. E= -.89082842E+02 F= -.10192671E+03 E0= -.10193277E+03  EK= 0.50050E+01 SP= 0.78E+01 SK= 0.59E-03
 bond charge predicted
 prediction of wavefunctions
       N       E                     dE             d eps       ncg     rms          rms(c)
DAV:   1    -0.101905632419E+03    0.21063E-01   -0.48617E-03   180   0.243E-01    0.671E-03
RMM:   2    -0.101905733372E+03   -0.10095E-03   -0.10194E-03   120   0.985E-02    0.500E-03
RMM:   3    -0.101905746098E+03   -0.12725E-04   -0.12658E-04    68   0.337E-02
   1341 T=   724. E= -.89082329E+02 F= -.10190575E+03 E0= -.10191168E+03  EK= 0.49580E+01 SP= 0.79E+01 SK= 0.53E-02
 bond charge predicted
 prediction of wavefunctions
       N       E                     dE             d eps       ncg     rms          rms(c)
DAV:   1    -0.101890374114E+03    0.15359E-01   -0.46958E-03   168   0.243E-01    0.610E-03
RMM:   2    -0.101890476339E+03   -0.10223E-03   -0.10304E-03   120   0.987E-02    0.458E-03
RMM:   3    -0.101890487615E+03   -0.11277E-04   -0.10953E-04    67   0.312E-02
   1342 T=   714. E= -.89081608E+02 F= -.10189049E+03 E0= -.10189625E+03  EK= 0.48918E+01 SP= 0.79E+01 SK= 0.14E-01
 bond charge predicted
 prediction of wavefunctions
       N       E                     dE             d eps       ncg     rms          rms(c)
DAV:   1    -0.101883365312E+03    0.71110E-02   -0.44112E-03   192   0.240E-01    0.642E-03
RMM:   2    -0.101883459531E+03   -0.94220E-04   -0.95391E-04   120   0.959E-02
   1343 T=   702. E= -.89080710E+02 F= -.10188346E+03 E0= -.10188889E+03  EK= 0.48116E+01 SP= 0.80E+01 SK= 0.25E-01
 bond charge predicted
 prediction of wavefunctions
       N       E                     dE             d eps       ncg     rms          rms(c)
DAV:   1    -0.101886126580E+03   -0.27613E-02   -0.44995E-03   132   0.267E-01    0.844E-03
RMM:   2    -0.101886315341E+03   -0.18876E-03   -0.19132E-03   120   0.130E-01    0.677E-03
RMM:   3    -0.101886340734E+03   -0.25392E-04   -0.24518E-04    87   0.457E-02
   1344 T=   689. E= -.89079925E+02 F= -.10188634E+03 E0= -.10189127E+03  EK= 0.47222E+01 SP= 0.80E+01 SK= 0.38E-01
 bond charge predicted
 prediction of wavefunctions
       N       E                     dE             d eps       ncg     rms          rms(c)
DAV:   1    -0.101899288722E+03   -0.12973E-01   -0.35862E-03   132   0.231E-01    0.687E-03
RMM:   2    -0.101899366241E+03   -0.77519E-04   -0.79309E-04   120   0.867E-02
   1345 T=   675. E= -.89079098E+02 F= -.10189937E+03 E0= -.10190368E+03  EK= 0.46273E+01 SP= 0.81E+01 SK= 0.52E-01
 bond charge predicted
 prediction of wavefunctions
       N       E                     dE             d eps       ncg     rms          rms(c)
DAV:   1    -0.101921293059E+03   -0.22004E-01   -0.43381E-03   192   0.271E-01    0.100E-02
RMM:   2    -0.101921512853E+03   -0.21979E-03   -0.22353E-03   120   0.131E-01    0.685E-03
RMM:   3    -0.101921530895E+03   -0.18042E-04   -0.16079E-04    79   0.353E-02
   1346 T=   661. E= -.89078470E+02 F= -.10192153E+03 E0= -.10192527E+03  EK= 0.45291E+01 SP= 0.82E+01 SK= 0.64E-01
 bond charge predicted
 prediction of wavefunctions
       N       E                     dE             d eps       ncg     rms          rms(c)
DAV:   1    -0.101950457671E+03   -0.28945E-01   -0.48404E-03   180   0.215E-01    0.557E-03
RMM:   2    -0.101950527185E+03   -0.69515E-04   -0.70775E-04   119   0.668E-02
   1347 T=   646. E= -.89078124E+02 F= -.10195053E+03 E0= -.10195379E+03  EK= 0.44285E+01 SP= 0.84E+01 SK= 0.75E-01
Information: wavefunction orthogonal band   60  0.7627
 bond charge predicted
 prediction of wavefunctions
       N       E                     dE             d eps       ncg     rms          rms(c)
DAV:   1    -0.101983620081E+03   -0.33162E-01   -0.53291E-03   180   0.265E-01    0.741E-03
RMM:   2    -0.101983818024E+03   -0.19794E-03   -0.19917E-03   120   0.129E-01    0.565E-03
RMM:   3    -0.101983837679E+03   -0.19655E-04   -0.17083E-04    75   0.398E-02
   1348 T=   632. E= -.89077881E+02 F= -.10198384E+03 E0= -.10198674E+03  EK= 0.43265E+01 SP= 0.85E+01 SK= 0.84E-01
 bond charge predicted
 prediction of wavefunctions
       N       E                     dE             d eps       ncg     rms          rms(c)
DAV:   1    -0.102018679324E+03   -0.34861E-01   -0.44479E-03   192   0.221E-01    0.653E-03
RMM:   2    -0.102018768503E+03   -0.89179E-04   -0.90681E-04   120   0.802E-02
   1349 T=   617. E= -.89077386E+02 F= -.10201877E+03 E0= -.10202142E+03  EK= 0.42237E+01 SP= 0.86E+01 SK= 0.89E-01
 bond charge predicted
 prediction of wavefunctions
       N       E                     dE             d eps       ncg     rms          rms(c)
DAV:   1    -0.102053239108E+03   -0.34560E-01   -0.47663E-03   192   0.255E-01    0.815E-03
RMM:   2    -0.102053427897E+03   -0.18879E-03   -0.19104E-03   120   0.126E-01    0.626E-03
RMM:   3    -0.102053449795E+03   -0.21898E-04   -0.20119E-04    82   0.429E-02
   1350 T=   602. E= -.89077007E+02 F= -.10205345E+03 E0= -.10205592E+03  EK= 0.41209E+01 SP= 0.88E+01 SK= 0.92E-01
 bond charge predicted
 prediction of wavefunctions
       N       E                     dE             d eps       ncg     rms          rms(c)
DAV:   1    -0.102086495511E+03   -0.33068E-01   -0.33377E-03   180   0.215E-01    0.617E-03
RMM:   2    -0.102086570558E+03   -0.75047E-04   -0.77177E-04   120   0.789E-02
   1351 T=   587. E= -.89076482E+02 F= -.10208657E+03 E0= -.10208892E+03  EK= 0.40195E+01 SP= 0.89E+01 SK= 0.91E-01
 bond charge predicted
 prediction of wavefunctions
       N       E                     dE             d eps       ncg     rms          rms(c)
DAV:   1    -0.102118456065E+03   -0.31961E-01   -0.39643E-03   216   0.248E-01    0.794E-03
RMM:   2    -0.102118630228E+03   -0.17416E-03   -0.17611E-03   120   0.123E-01    0.620E-03
RMM:   3    -0.102118644956E+03   -0.14728E-04   -0.12981E-04    69   0.354E-02
   1352 T=   573. E= -.89076001E+02 F= -.10211864E+03 E0= -.10212092E+03  EK= 0.39223E+01 SP= 0.90E+01 SK= 0.86E-01
 bond charge predicted
 prediction of wavefunctions
       N       E                     dE             d eps       ncg     rms          rms(c)
DAV:   1    -0.102151054674E+03   -0.32424E-01   -0.30357E-03   192   0.201E-01    0.655E-03
RMM:   2    -0.102151106885E+03   -0.52211E-04   -0.54347E-04   120   0.645E-02
   1353 T=   559. E= -.89075583E+02 F= -.10215111E+03 E0= -.10215333E+03  EK= 0.38328E+01 SP= 0.92E+01 SK= 0.79E-01
 bond charge predicted
 prediction of wavefunctions
       N       E                     dE             d eps       ncg     rms          rms(c)
DAV:   1    -0.102185872755E+03   -0.34818E-01   -0.38642E-03   204   0.236E-01    0.720E-03
RMM:   2    -0.102186022098E+03   -0.14934E-03   -0.15134E-03   120   0.113E-01    0.544E-03
RMM:   3    -0.102186038113E+03   -0.16015E-04   -0.15337E-04    68   0.369E-02
   1354 T=   548. E= -.89075261E+02 F= -.10218604E+03 E0= -.10218823E+03  EK= 0.37544E+01 SP= 0.93E+01 SK= 0.70E-01
 bond charge predicted
 prediction of wavefunctions
       N       E                     dE             d eps       ncg     rms          rms(c)
DAV:   1    -0.102225631877E+03   -0.39610E-01   -0.34117E-03   180   0.205E-01    0.577E-03
RMM:   2    -0.102225696446E+03   -0.64569E-04   -0.66147E-04   120   0.745E-02
   1355 T=   539. E= -.89074915E+02 F= -.10222570E+03 E0= -.10222787E+03  EK= 0.36907E+01 SP= 0.94E+01 SK= 0.59E-01
 bond charge predicted
 prediction of wavefunctions
       N       E                     dE             d eps       ncg     rms          rms(c)
DAV:   1    -0.102272442619E+03   -0.46811E-01   -0.36876E-03   144   0.236E-01    0.800E-03
RMM:   2    -0.102272594860E+03   -0.15224E-03   -0.15525E-03   120   0.113E-01    0.587E-03
RMM:   3    -0.102272616094E+03   -0.21234E-04   -0.20786E-04    82   0.429E-02
   1356 T=   532. E= -.89074531E+02 F= -.10227262E+03 E0= -.10227478E+03  EK= 0.36449E+01 SP= 0.95E+01 SK= 0.48E-01
 bond charge predicted
 prediction of wavefunctions
       N       E                     dE             d eps       ncg     rms          rms(c)
DAV:   1    -0.102328394923E+03   -0.55800E-01   -0.35107E-03   204   0.204E-01    0.800E-03
RMM:   2    -0.102328575111E+03   -0.18019E-03   -0.18412E-03   120   0.770E-02    0.393E-03
RMM:   3    -0.102328604199E+03   -0.29088E-04   -0.29082E-04    93   0.376E-02
   1357 T=   528. E= -.89074141E+02 F= -.10232860E+03 E0= -.10233076E+03  EK= 0.36191E+01 SP= 0.96E+01 SK= 0.37E-01
Information: wavefunction orthogonal band   60  0.2220
 bond charge predicted
 prediction of wavefunctions
       N       E                     dE             d eps       ncg     rms          rms(c)
DAV:   1    -0.102394648634E+03   -0.66074E-01   -0.97065E-03   132   0.218E-01    0.825E-03
RMM:   2    -0.102394756689E+03   -0.10806E-03   -0.11269E-03   120   0.920E-02    0.502E-03
RMM:   3    -0.102394776189E+03   -0.19499E-04   -0.19433E-04    86   0.384E-02
   1358 T=   528. E= -.89073986E+02 F= -.10239478E+03 E0= -.10239693E+03  EK= 0.36140E+01 SP= 0.97E+01 SK= 0.28E-01
 bond charge predicted
 prediction of wavefunctions
       N       E                     dE             d eps       ncg     rms          rms(c)
DAV:   1    -0.102470351805E+03   -0.75595E-01   -0.62983E-03   156   0.219E-01    0.555E-03
RMM:   2    -0.102470458914E+03   -0.10711E-03   -0.10869E-03   120   0.895E-02    0.369E-03
RMM:   3    -0.102470474460E+03   -0.15546E-04   -0.14480E-04    76   0.330E-02
   1359 T=   530. E= -.89073927E+02 F= -.10247047E+03 E0= -.10247263E+03  EK= 0.36290E+01 SP= 0.97E+01 SK= 0.20E-01
 bond charge predicted
 prediction of wavefunctions
       N       E                     dE             d eps       ncg     rms          rms(c)
DAV:   1    -0.102553341592E+03   -0.82883E-01   -0.42656E-03   180   0.213E-01    0.592E-03
RMM:   2    -0.102553402918E+03   -0.61326E-04   -0.63117E-04   120   0.759E-02
   1360 T=   534. E= -.89073733E+02 F= -.10255340E+03 E0= -.10255556E+03  EK= 0.36612E+01 SP= 0.98E+01 SK= 0.13E-01
 bond charge predicted
 prediction of wavefunctions
       N       E                     dE             d eps       ncg     rms          rms(c)
DAV:   1    -0.102640019220E+03   -0.86678E-01   -0.48863E-03   168   0.237E-01    0.599E-03
RMM:   2    -0.102640146140E+03   -0.12692E-03   -0.12770E-03   120   0.106E-01    0.471E-03
RMM:   3    -0.102640165126E+03   -0.18986E-04   -0.18156E-04    72   0.396E-02
   1361 T=   541. E= -.89073679E+02 F= -.10264017E+03 E0= -.10264233E+03  EK= 0.37064E+01 SP= 0.99E+01 SK= 0.84E-02
 bond charge predicted
 prediction of wavefunctions
       N       E                     dE             d eps       ncg     rms          rms(c)
DAV:   1    -0.102726034297E+03   -0.85888E-01   -0.45607E-03   132   0.213E-01    0.537E-03
RMM:   2    -0.102726077893E+03   -0.43596E-04   -0.44543E-04   118   0.625E-02
   1362 T=   549. E= -.89073611E+02 F= -.10272608E+03 E0= -.10272826E+03  EK= 0.37591E+01 SP= 0.99E+01 SK= 0.51E-02
 bond charge predicted
 prediction of wavefunctions
       N       E                     dE             d eps       ncg     rms          rms(c)
DAV:   1    -0.102806054019E+03   -0.80020E-01   -0.49753E-03   168   0.244E-01    0.607E-03
RMM:   2    -0.102806188650E+03   -0.13463E-03   -0.13512E-03   120   0.108E-01    0.481E-03
RMM:   3    -0.102806204208E+03   -0.15558E-04   -0.14635E-04    65   0.353E-02
   1363 T=   557. E= -.89073667E+02 F= -.10280620E+03 E0= -.10280840E+03  EK= 0.38133E+01 SP= 0.99E+01 SK= 0.29E-02
 bond charge predicted
 prediction of wavefunctions
       N       E                     dE             d eps       ncg     rms          rms(c)
DAV:   1    -0.102874849025E+03   -0.68660E-01   -0.43299E-03   168   0.215E-01    0.580E-03
RMM:   2    -0.102874887471E+03   -0.38445E-04   -0.39589E-04   118   0.554E-02
   1364 T=   564. E= -.89073527E+02 F= -.10287489E+03 E0= -.10287711E+03  EK= 0.38625E+01 SP= 0.99E+01 SK= 0.15E-02
 bond charge predicted
 prediction of wavefunctions
       N       E                     dE             d eps       ncg     rms          rms(c)
DAV:   1    -0.102927480993E+03   -0.52632E-01   -0.49908E-03   204   0.246E-01    0.609E-03
RMM:   2    -0.102927616056E+03   -0.13506E-03   -0.13579E-03   120   0.108E-01    0.439E-03
RMM:   3    -0.102927633442E+03   -0.17386E-04   -0.16559E-04    66   0.373E-02
   1365 T=   569. E= -.89073475E+02 F= -.10292763E+03 E0= -.10292988E+03  EK= 0.39012E+01 SP= 0.10E+02 SK= 0.74E-03
 bond charge predicted
 prediction of wavefunctions
       N       E                     dE             d eps       ncg     rms          rms(c)
DAV:   1    -0.102960292249E+03   -0.32676E-01   -0.40929E-03   180   0.221E-01    0.646E-03
RMM:   2    -0.102960351131E+03   -0.58882E-04   -0.60644E-04   120   0.710E-02
   1366 T=   573. E= -.89073232E+02 F= -.10296035E+03 E0= -.10296261E+03  EK= 0.39246E+01 SP= 0.10E+02 SK= 0.29E-03
 bond charge predicted
 prediction of wavefunctions
       N       E                     dE             d eps       ncg     rms          rms(c)
DAV:   1    -0.102970668281E+03   -0.10376E-01   -0.45486E-03   168   0.251E-01    0.588E-03
RMM:   2    -0.102970821426E+03   -0.15314E-03   -0.15428E-03   120   0.115E-01    0.490E-03
RMM:   3    -0.102970841897E+03   -0.20471E-04   -0.19567E-04    74   0.412E-02
   1367 T=   574. E= -.89072949E+02 F= -.10297084E+03 E0= -.10297311E+03  EK= 0.39301E+01 SP= 0.10E+02 SK= 0.56E-04
 bond charge predicted
 prediction of wavefunctions
       N       E                     dE             d eps       ncg     rms          rms(c)
DAV:   1    -0.102958240916E+03    0.12581E-01   -0.36758E-03   144   0.218E-01    0.717E-03
RMM:   2    -0.102958294551E+03   -0.53635E-04   -0.55828E-04   119   0.682E-02
   1368 T=   572. E= -.89072455E+02 F= -.10295829E+03 E0= -.10296057E+03  EK= 0.39170E+01 SP= 0.10E+02 SK= 0.49E-05
 bond charge predicted
 prediction of wavefunctions
       N       E                     dE             d eps       ncg     rms          rms(c)
DAV:   1    -0.102923590993E+03    0.34650E-01   -0.40129E-03   168   0.246E-01    0.663E-03
RMM:   2    -0.102923740744E+03   -0.14975E-03   -0.15151E-03   120   0.113E-01    0.514E-03
RMM:   3    -0.102923758909E+03   -0.18165E-04   -0.17477E-04    71   0.386E-02
   1369 T=   567. E= -.89071954E+02 F= -.10292376E+03 E0= -.10292602E+03  EK= 0.38862E+01 SP= 0.10E+02 SK= 0.17E-03
 bond charge predicted
 prediction of wavefunctions
       N       E                     dE             d eps       ncg     rms          rms(c)
DAV:   1    -0.102869874415E+03    0.53866E-01   -0.31692E-03   180   0.210E-01    0.728E-03
RMM:   2    -0.102869926230E+03   -0.51815E-04   -0.54377E-04   120   0.674E-02
   1370 T=   561. E= -.89071305E+02 F= -.10286993E+03 E0= -.10287218E+03  EK= 0.38413E+01 SP= 0.10E+02 SK= 0.68E-03
 bond charge predicted
 prediction of wavefunctions
       N       E                     dE             d eps       ncg     rms          rms(c)
DAV:   1    -0.102801238015E+03    0.68636E-01   -0.36566E-03   168   0.240E-01    0.731E-03
RMM:   2    -0.102801377462E+03   -0.13945E-03   -0.14182E-03   120   0.111E-01    0.544E-03
RMM:   3    -0.102801395533E+03   -0.18070E-04   -0.18011E-04    68   0.396E-02
   1371 T=   553. E= -.89070572E+02 F= -.10280140E+03 E0= -.10280365E+03  EK= 0.37878E+01 SP= 0.99E+01 SK= 0.18E-02
 bond charge predicted
 prediction of wavefunctions
       N       E                     dE             d eps       ncg     rms          rms(c)
DAV:   1    -0.102724084502E+03    0.77293E-01   -0.31373E-03   144   0.204E-01    0.689E-03
RMM:   2    -0.102724144043E+03   -0.59541E-04   -0.61918E-04   120   0.714E-02
   1372 T=   545. E= -.89069863E+02 F= -.10272414E+03 E0= -.10272640E+03  EK= 0.37324E+01 SP= 0.99E+01 SK= 0.37E-02
 bond charge predicted
 prediction of wavefunctions
       N       E                     dE             d eps       ncg     rms          rms(c)
DAV:   1    -0.102644614245E+03    0.79470E-01   -0.39921E-03   144   0.234E-01    0.868E-03
RMM:   2    -0.102644755028E+03   -0.14078E-03   -0.14586E-03   120   0.111E-01    0.606E-03
RMM:   3    -0.102644772170E+03   -0.17142E-04   -0.17807E-04    69   0.396E-02
   1373 T=   538. E= -.89069172E+02 F= -.10264477E+03 E0= -.10264704E+03  EK= 0.36829E+01 SP= 0.99E+01 SK= 0.68E-02
 bond charge predicted
 prediction of wavefunctions
       N       E                     dE             d eps       ncg     rms          rms(c)
DAV:   1    -0.102569528327E+03    0.75227E-01   -0.35532E-03   168   0.197E-01    0.621E-03
RMM:   2    -0.102569588950E+03   -0.60623E-04   -0.62377E-04   120   0.692E-02
   1374 T=   532. E= -.89068361E+02 F= -.10256959E+03 E0= -.10257189E+03  EK= 0.36466E+01 SP= 0.98E+01 SK= 0.11E-01
 bond charge predicted
 prediction of wavefunctions
       N       E                     dE             d eps       ncg     rms          rms(c)
DAV:   1    -0.102504754687E+03    0.64774E-01   -0.43948E-03   180   0.225E-01    0.108E-02
RMM:   2    -0.102504889819E+03   -0.13513E-03   -0.14376E-03   120   0.109E-01    0.700E-03
RMM:   3    -0.102504905379E+03   -0.15560E-04   -0.17301E-04    66   0.390E-02
   1375 T=   530. E= -.89067612E+02 F= -.10250491E+03 E0= -.10250725E+03  EK= 0.36304E+01 SP= 0.98E+01 SK= 0.18E-01
 bond charge predicted
 prediction of wavefunctions
       N       E                     dE             d eps       ncg     rms          rms(c)
DAV:   1    -0.102455778284E+03    0.49112E-01   -0.42831E-03   156   0.193E-01    0.829E-03
RMM:   2    -0.102455833523E+03   -0.55240E-04   -0.59601E-04   120   0.672E-02
   1376 T=   531. E= -.89067097E+02 F= -.10245583E+03 E0= -.10245824E+03  EK= 0.36398E+01 SP= 0.97E+01 SK= 0.25E-01
 bond charge predicted
 prediction of wavefunctions
       N       E                     dE             d eps       ncg     rms          rms(c)
DAV:   1    -0.102425052804E+03    0.30725E-01   -0.50484E-03   180   0.222E-01    0.131E-02
RMM:   2    -0.102425178965E+03   -0.12616E-03   -0.14008E-03   120   0.109E-01    0.783E-03
RMM:   3    -0.102425191074E+03   -0.12109E-04   -0.16560E-04    64   0.389E-02
   1377 T=   537. E= -.89066769E+02 F= -.10242519E+03 E0= -.10242767E+03  EK= 0.36780E+01 SP= 0.96E+01 SK= 0.34E-01
 bond charge predicted
 prediction of wavefunctions
       N       E                     dE             d eps       ncg     rms          rms(c)
DAV:   1    -0.102413952954E+03    0.11226E-01   -0.50647E-03   156   0.193E-01    0.114E-02
RMM:   2    -0.102414007423E+03   -0.54469E-04   -0.63575E-04   120   0.705E-02
   1378 T=   547. E= -.89066473E+02 F= -.10241401E+03 E0= -.10241658E+03  EK= 0.37461E+01 SP= 0.96E+01 SK= 0.42E-01
 bond charge predicted
 prediction of wavefunctions
       N       E                     dE             d eps       ncg     rms          rms(c)
DAV:   1    -0.102421153017E+03   -0.72001E-02   -0.60791E-03   168   0.228E-01    0.122E-02
RMM:   2    -0.102421291050E+03   -0.13803E-03   -0.15066E-03   120   0.111E-01    0.669E-03
RMM:   3    -0.102421307381E+03   -0.16331E-04   -0.17842E-04    66   0.400E-02
   1379 T=   561. E= -.89066292E+02 F= -.10242131E+03 E0= -.10242397E+03  EK= 0.38424E+01 SP= 0.95E+01 SK= 0.49E-01
 bond charge predicted
 prediction of wavefunctions
       N       E                     dE             d eps       ncg     rms          rms(c)
DAV:   1    -0.102443774984E+03   -0.22484E-01   -0.58668E-03   132   0.199E-01    0.109E-02
RMM:   2    -0.102443835553E+03   -0.60569E-04   -0.69244E-04   120   0.736E-02
   1380 T=   578. E= -.89066262E+02 F= -.10244384E+03 E0= -.10244659E+03  EK= 0.39624E+01 SP= 0.94E+01 SK= 0.54E-01
 bond charge predicted
 prediction of wavefunctions
       N       E                     dE             d eps       ncg     rms          rms(c)
DAV:   1    -0.102476525248E+03   -0.32750E-01   -0.68963E-03   192   0.237E-01    0.134E-02
RMM:   2    -0.102476666739E+03   -0.14149E-03   -0.15623E-03   120   0.116E-01    0.765E-03
RMM:   3    -0.102476682469E+03   -0.15730E-04   -0.18961E-04    69   0.417E-02
   1381 T=   598. E= -.89066331E+02 F= -.10247668E+03 E0= -.10247952E+03  EK= 0.40993E+01 SP= 0.93E+01 SK= 0.56E-01
 bond charge predicted
 prediction of wavefunctions
       N       E                     dE             d eps       ncg     rms          rms(c)
DAV:   1    -0.102513898562E+03   -0.37232E-01   -0.66225E-03   156   0.212E-01    0.112E-02
RMM:   2    -0.102513965189E+03   -0.66627E-04   -0.75833E-04   120   0.793E-02
   1382 T=   620. E= -.89066279E+02 F= -.10251397E+03 E0= -.10251687E+03  EK= 0.42445E+01 SP= 0.91E+01 SK= 0.55E-01
 bond charge predicted
 prediction of wavefunctions
       N       E                     dE             d eps       ncg     rms          rms(c)
DAV:   1    -0.102549714367E+03   -0.35816E-01   -0.76821E-03   168   0.253E-01    0.133E-02
RMM:   2    -0.102549880098E+03   -0.16573E-03   -0.18077E-03   120   0.123E-01    0.746E-03
RMM:   3    -0.102549898861E+03   -0.18763E-04   -0.20656E-04    77   0.438E-02
   1383 T=   641. E= -.89066427E+02 F= -.10254990E+03 E0= -.10255283E+03  EK= 0.43883E+01 SP= 0.90E+01 SK= 0.49E-01
 bond charge predicted
 prediction of wavefunctions
       N       E                     dE             d eps       ncg     rms          rms(c)
DAV:   1    -0.102578082108E+03   -0.28202E-01   -0.71380E-03   180   0.227E-01    0.110E-02
RMM:   2    -0.102578156976E+03   -0.74867E-04   -0.83928E-04   120   0.849E-02
   1384 T=   660. E= -.89066393E+02 F= -.10257816E+03 E0= -.10258108E+03  EK= 0.45204E+01 SP= 0.90E+01 SK= 0.41E-01
 bond charge predicted
 prediction of wavefunctions
       N       E                     dE             d eps       ncg     rms          rms(c)
DAV:   1    -0.102594281846E+03   -0.16200E-01   -0.80557E-03   156   0.270E-01    0.131E-02
RMM:   2    -0.102594471527E+03   -0.18968E-03   -0.20336E-03   120   0.131E-01    0.700E-03
RMM:   3    -0.102594493481E+03   -0.21954E-04   -0.22795E-04    85   0.455E-02
   1385 T=   676. E= -.89066509E+02 F= -.10259449E+03 E0= -.10259737E+03  EK= 0.46318E+01 SP= 0.89E+01 SK= 0.31E-01
 bond charge predicted
 prediction of wavefunctions
       N       E                     dE             d eps       ncg     rms          rms(c)
DAV:   1    -0.102594899978E+03   -0.42845E-03   -0.72023E-03   204   0.240E-01    0.110E-02
RMM:   2    -0.102594978436E+03   -0.78458E-04   -0.87808E-04   120   0.879E-02
   1386 T=   688. E= -.89066345E+02 F= -.10259498E+03 E0= -.10259778E+03  EK= 0.47149E+01 SP= 0.88E+01 SK= 0.21E-01
 bond charge predicted
 prediction of wavefunctions
       N       E                     dE             d eps       ncg     rms          rms(c)
DAV:   1    -0.102577517117E+03    0.17383E-01   -0.80930E-03   168   0.284E-01    0.120E-02
RMM:   2    -0.102577728750E+03   -0.21163E-03   -0.22276E-03   120   0.137E-01    0.702E-03
RMM:   3    -0.102577751296E+03   -0.22546E-04   -0.22556E-04    82   0.457E-02
   1387 T=   695. E= -.89066131E+02 F= -.10257775E+03 E0= -.10258044E+03  EK= 0.47640E+01 SP= 0.87E+01 SK= 0.12E-01
 bond charge predicted
 prediction of wavefunctions
       N       E                     dE             d eps       ncg     rms          rms(c)
DAV:   1    -0.102542186265E+03    0.35542E-01   -0.65737E-03   144   0.251E-01    0.959E-03
RMM:   2    -0.102542267141E+03   -0.80876E-04   -0.87677E-04   120   0.882E-02
   1388 T=   697. E= -.89065687E+02 F= -.10254227E+03 E0= -.10254483E+03  EK= 0.47765E+01 SP= 0.87E+01 SK= 0.52E-02
 bond charge predicted
 prediction of wavefunctions
       N       E                     dE             d eps       ncg     rms          rms(c)
DAV:   1    -0.102489375228E+03    0.52811E-01   -0.73416E-03   192   0.291E-01    0.120E-02
RMM:   2    -0.102489589952E+03   -0.21472E-03   -0.22431E-03   120   0.141E-01    0.701E-03
RMM:   3    -0.102489610266E+03   -0.20314E-04   -0.19835E-04    78   0.431E-02
   1389 T=   694. E= -.89065123E+02 F= -.10248961E+03 E0= -.10249206E+03  EK= 0.47527E+01 SP= 0.87E+01 SK= 0.13E-02
 bond charge predicted
 prediction of wavefunctions
       N       E                     dE             d eps       ncg     rms          rms(c)
DAV:   1    -0.102421942995E+03    0.67647E-01   -0.59885E-03   180   0.254E-01    0.924E-03
RMM:   2    -0.102422018640E+03   -0.75645E-04   -0.82261E-04   120   0.890E-02
   1390 T=   685. E= -.89064481E+02 F= -.10242202E+03 E0= -.10242439E+03  EK= 0.46952E+01 SP= 0.87E+01 SK= 0.13E-05
 bond charge predicted
 prediction of wavefunctions
       N       E                     dE             d eps       ncg     rms          rms(c)
DAV:   1    -0.102342448693E+03    0.79494E-01   -0.63510E-03   132   0.295E-01    0.112E-02
RMM:   2    -0.102342657939E+03   -0.20925E-03   -0.21698E-03   120   0.139E-01    0.692E-03
RMM:   3    -0.102342679851E+03   -0.21912E-04   -0.21891E-04    86   0.452E-02
   1391 T=   673. E= -.89063648E+02 F= -.10234268E+03 E0= -.10234504E+03  EK= 0.46096E+01 SP= 0.87E+01 SK= 0.86E-03
 bond charge predicted
 prediction of wavefunctions
       N       E                     dE             d eps       ncg     rms          rms(c)
DAV:   1    -0.102255603675E+03    0.87054E-01   -0.48469E-03   156   0.253E-01    0.842E-03
RMM:   2    -0.102255686526E+03   -0.82851E-04   -0.87997E-04   120   0.911E-02
   1392 T=   657. E= -.89062539E+02 F= -.10225569E+03 E0= -.10225813E+03  EK= 0.45027E+01 SP= 0.87E+01 SK= 0.30E-02
 bond charge predicted
 prediction of wavefunctions
       N       E                     dE             d eps       ncg     rms          rms(c)
DAV:   1    -0.102165613952E+03    0.89990E-01   -0.52905E-03   168   0.285E-01    0.115E-02
RMM:   2    -0.102165819785E+03   -0.20583E-03   -0.21425E-03   120   0.136E-01    0.726E-03
RMM:   3    -0.102165843629E+03   -0.23845E-04   -0.23885E-04    87   0.461E-02
   1393 T=   640. E= -.89061543E+02 F= -.10216584E+03 E0= -.10216847E+03  EK= 0.43828E+01 SP= 0.87E+01 SK= 0.53E-02
 bond charge predicted
 prediction of wavefunctions
       N       E                     dE             d eps       ncg     rms          rms(c)
DAV:   1    -0.102077388484E+03    0.88431E-01   -0.39629E-03   180   0.244E-01    0.841E-03
RMM:   2    -0.102077471828E+03   -0.83344E-04   -0.88827E-04   120   0.883E-02
   1394 T=   622. E= -.89060701E+02 F= -.10207747E+03 E0= -.10208035E+03  EK= 0.42578E+01 SP= 0.88E+01 SK= 0.72E-02
 bond charge predicted
 prediction of wavefunctions
       N       E                     dE             d eps       ncg     rms          rms(c)
DAV:   1    -0.101994355950E+03    0.83033E-01   -0.54032E-03   216   0.271E-01    0.108E-02
RMM:   2    -0.101994539114E+03   -0.18316E-03   -0.19036E-03   120   0.129E-01    0.683E-03
RMM:   3    -0.101994555974E+03   -0.16860E-04   -0.16497E-04    68   0.395E-02
   1395 T=   604. E= -.89059789E+02 F= -.10199456E+03 E0= -.10199768E+03  EK= 0.41355E+01 SP= 0.88E+01 SK= 0.81E-02
 bond charge predicted
 prediction of wavefunctions
       N       E                     dE             d eps       ncg     rms          rms(c)
DAV:   1    -0.101921097607E+03    0.73442E-01   -0.40934E-03   204   0.229E-01    0.820E-03
RMM:   2    -0.101921179158E+03   -0.81552E-04   -0.86871E-04   120   0.820E-02
   1396 T=   587. E= -.89059172E+02 F= -.10192118E+03 E0= -.10192449E+03  EK= 0.40227E+01 SP= 0.88E+01 SK= 0.79E-02
 bond charge predicted
 prediction of wavefunctions
       N       E                     dE             d eps       ncg     rms          rms(c)
DAV:   1    -0.101859941805E+03    0.61156E-01   -0.56992E-03   168   0.257E-01    0.112E-02
RMM:   2    -0.101860109852E+03   -0.16805E-03   -0.17635E-03   120   0.124E-01    0.699E-03
RMM:   3    -0.101860128627E+03   -0.18776E-04   -0.19205E-04    77   0.427E-02
   1397 T=   573. E= -.89058780E+02 F= -.10186013E+03 E0= -.10186353E+03  EK= 0.39250E+01 SP= 0.89E+01 SK= 0.66E-02
 bond charge predicted
 prediction of wavefunctions
       N       E                     dE             d eps       ncg     rms          rms(c)
DAV:   1    -0.101812869819E+03    0.47240E-01   -0.39858E-03   180   0.219E-01    0.819E-03
RMM:   2    -0.101812946659E+03   -0.76841E-04   -0.82015E-04   120   0.832E-02
   1398 T=   561. E= -.89058354E+02 F= -.10181295E+03 E0= -.10181633E+03  EK= 0.38461E+01 SP= 0.89E+01 SK= 0.48E-02
 bond charge predicted
 prediction of wavefunctions
       N       E                     dE             d eps       ncg     rms          rms(c)
DAV:   1    -0.101780468986E+03    0.32401E-01   -0.45988E-03   204   0.241E-01    0.107E-02
RMM:   2    -0.101780631392E+03   -0.16241E-03   -0.16884E-03   120   0.119E-01    0.698E-03
RMM:   3    -0.101780648042E+03   -0.16650E-04   -0.16142E-04    71   0.387E-02
   1399 T=   553. E= -.89058058E+02 F= -.10178065E+03 E0= -.10178396E+03  EK= 0.37885E+01 SP= 0.89E+01 SK= 0.28E-02
 bond charge predicted
 prediction of wavefunctions
       N       E                     dE             d eps       ncg     rms          rms(c)
DAV:   1    -0.101762688550E+03    0.17943E-01   -0.41177E-03   192   0.206E-01    0.746E-03
RMM:   2    -0.101762751853E+03   -0.63303E-04   -0.67899E-04   120   0.758E-02
   1400 T=   548. E= -.89057898E+02 F= -.10176275E+03 E0= -.10176600E+03  EK= 0.37525E+01 SP= 0.90E+01 SK= 0.12E-02
 bond charge predicted
 prediction of wavefunctions
       N       E                     dE             d eps       ncg     rms          rms(c)
DAV:   1    -0.101757727863E+03    0.49607E-02   -0.45760E-03   180   0.235E-01    0.962E-03
RMM:   2    -0.101757893311E+03   -0.16545E-03   -0.16997E-03   120   0.117E-01    0.651E-03
RMM:   3    -0.101757911058E+03   -0.17747E-04   -0.16859E-04    67   0.391E-02
   1401 T=   546. E= -.89057946E+02 F= -.10175791E+03 E0= -.10176112E+03  EK= 0.37373E+01 SP= 0.90E+01 SK= 0.23E-03
 bond charge predicted
 prediction of wavefunctions
       N       E                     dE             d eps       ncg     rms          rms(c)
DAV:   1    -0.101763958831E+03   -0.60655E-02   -0.45802E-03   156   0.201E-01    0.697E-03
RMM:   2    -0.101764019355E+03   -0.60524E-04   -0.63826E-04   120   0.737E-02
   1402 T=   546. E= -.89057763E+02 F= -.10176402E+03 E0= -.10176723E+03  EK= 0.37416E+01 SP= 0.90E+01 SK= 0.25E-04
 bond charge predicted
 prediction of wavefunctions
       N       E                     dE             d eps       ncg     rms          rms(c)
DAV:   1    -0.101779291069E+03   -0.15332E-01   -0.59344E-03   168   0.228E-01    0.946E-03
RMM:   2    -0.101779443691E+03   -0.15262E-03   -0.15594E-03   120   0.113E-01    0.642E-03
RMM:   3    -0.101779463347E+03   -0.19657E-04   -0.18811E-04    70   0.404E-02
   1403 T=   549. E= -.89057731E+02 F= -.10177946E+03 E0= -.10178270E+03  EK= 0.37631E+01 SP= 0.90E+01 SK= 0.60E-03
 bond charge predicted
 prediction of wavefunctions
       N       E                     dE             d eps       ncg     rms          rms(c)
DAV:   1    -0.101801773306E+03   -0.22330E-01   -0.61570E-03   192   0.201E-01    0.562E-03
RMM:   2    -0.101801845276E+03   -0.71971E-04   -0.73820E-04   120   0.769E-02
   1404 T=   555. E= -.89057584E+02 F= -.10180185E+03 E0= -.10180511E+03  EK= 0.37995E+01 SP= 0.89E+01 SK= 0.18E-02
 bond charge predicted
 prediction of wavefunctions
       N       E                     dE             d eps       ncg     rms          rms(c)
DAV:   1    -0.101829509647E+03   -0.27736E-01   -0.80386E-03   216   0.235E-01    0.114E-02
RMM:   2    -0.101829671408E+03   -0.16176E-03   -0.16763E-03   120   0.119E-01    0.804E-03
RMM:   3    -0.101829688429E+03   -0.17021E-04   -0.16491E-04    69   0.392E-02
   1405 T=   562. E= -.89057403E+02 F= -.10182969E+03 E0= -.10183291E+03  EK= 0.38484E+01 SP= 0.89E+01 SK= 0.33E-02
 bond charge predicted
 prediction of wavefunctions
       N       E                     dE             d eps       ncg     rms          rms(c)
DAV:   1    -0.101862101628E+03   -0.32430E-01   -0.74973E-03   192   0.210E-01    0.654E-03
RMM:   2    -0.101862178919E+03   -0.77291E-04   -0.80452E-04   120   0.787E-02
   1406 T=   570. E= -.89057237E+02 F= -.10186218E+03 E0= -.10186529E+03  EK= 0.39082E+01 SP= 0.89E+01 SK= 0.49E-02
 bond charge predicted
 prediction of wavefunctions
       N       E                     dE             d eps       ncg     rms          rms(c)
DAV:   1    -0.101898432002E+03   -0.36330E-01   -0.95411E-03   180   0.249E-01    0.117E-02
RMM:   2    -0.101898604257E+03   -0.17225E-03   -0.17884E-03   120   0.123E-01    0.790E-03
RMM:   3    -0.101898620276E+03   -0.16019E-04   -0.15613E-04    68   0.387E-02
   1407 T=   581. E= -.89056985E+02 F= -.10189862E+03 E0= -.10190159E+03  EK= 0.39772E+01 SP= 0.89E+01 SK= 0.62E-02
 bond charge predicted
 prediction of wavefunctions
       N       E                     dE             d eps       ncg     rms          rms(c)
DAV:   1    -0.101938540376E+03   -0.39936E-01   -0.86167E-03   144   0.220E-01    0.696E-03
RMM:   2    -0.101938628285E+03   -0.87908E-04   -0.91037E-04   120   0.841E-02
   1408 T=   592. E= -.89056623E+02 F= -.10193863E+03 E0= -.10194147E+03  EK= 0.40534E+01 SP= 0.88E+01 SK= 0.70E-02
 bond charge predicted
 prediction of wavefunctions
       N       E                     dE             d eps       ncg     rms          rms(c)
DAV:   1    -0.101981825582E+03   -0.43285E-01   -0.10787E-02   192   0.263E-01    0.128E-02
RMM:   2    -0.101982052233E+03   -0.22665E-03   -0.23446E-03   120   0.132E-01    0.839E-03
RMM:   3    -0.101982074029E+03   -0.21795E-04   -0.21214E-04    87   0.426E-02
   1409 T=   604. E= -.89056351E+02 F= -.10198207E+03 E0= -.10198480E+03  EK= 0.41349E+01 SP= 0.88E+01 SK= 0.71E-02
Information: wavefunction orthogonal band   60  0.6877
 bond charge predicted
 prediction of wavefunctions
       N       E                     dE             d eps       ncg     rms          rms(c)
DAV:   1    -0.102028552139E+03   -0.46500E-01   -0.10178E-02   204   0.235E-01    0.795E-03
RMM:   2    -0.102028685876E+03   -0.13374E-03   -0.13816E-03   120   0.968E-02    0.524E-03
RMM:   3    -0.102028709192E+03   -0.23316E-04   -0.23639E-04    90   0.434E-02
   1410 T=   616. E= -.89056083E+02 F= -.10202871E+03 E0= -.10203137E+03  EK= 0.42195E+01 SP= 0.87E+01 SK= 0.64E-02
 bond charge predicted
 prediction of wavefunctions
       N       E                     dE             d eps       ncg     rms          rms(c)
DAV:   1    -0.102078184727E+03   -0.49499E-01   -0.94180E-03   192   0.246E-01    0.102E-02
RMM:   2    -0.102078300200E+03   -0.11547E-03   -0.12000E-03   120   0.102E-01    0.613E-03
RMM:   3    -0.102078315554E+03   -0.15355E-04   -0.15524E-04    73   0.378E-02
   1411 T=   628. E= -.89055870E+02 F= -.10207832E+03 E0= -.10208101E+03  EK= 0.43048E+01 SP= 0.87E+01 SK= 0.51E-02
 bond charge predicted
 prediction of wavefunctions
       N       E                     dE             d eps       ncg     rms          rms(c)
DAV:   1    -0.102129630481E+03   -0.51330E-01   -0.78735E-03   204   0.247E-01    0.738E-03
RMM:   2    -0.102129735191E+03   -0.10471E-03   -0.10652E-03   120   0.100E-01    0.519E-03
RMM:   3    -0.102129745730E+03   -0.10539E-04   -0.10616E-04    72   0.305E-02
   1412 T=   640. E= -.89055850E+02 F= -.10212975E+03 E0= -.10213260E+03  EK= 0.43872E+01 SP= 0.87E+01 SK= 0.34E-02
 bond charge predicted
 prediction of wavefunctions
       N       E                     dE             d eps       ncg     rms          rms(c)
DAV:   1    -0.102181081915E+03   -0.51347E-01   -0.68127E-03   156   0.249E-01    0.730E-03
RMM:   2    -0.102181182680E+03   -0.10077E-03   -0.10222E-03   120   0.974E-02    0.468E-03
RMM:   3    -0.102181195005E+03   -0.12325E-04   -0.12038E-04    65   0.319E-02
   1413 T=   651. E= -.89055908E+02 F= -.10218120E+03 E0= -.10218438E+03  EK= 0.44625E+01 SP= 0.87E+01 SK= 0.16E-02
 bond charge predicted
 prediction of wavefunctions
       N       E                     dE             d eps       ncg     rms          rms(c)
DAV:   1    -0.102229832391E+03   -0.48650E-01   -0.66315E-03   180   0.253E-01    0.714E-03
RMM:   2    -0.102229950734E+03   -0.11834E-03   -0.11934E-03   120   0.102E-01    0.488E-03
RMM:   3    -0.102229965902E+03   -0.15168E-04   -0.14698E-04    67   0.344E-02
   1414 T=   661. E= -.89055938E+02 F= -.10222997E+03 E0= -.10223371E+03  EK= 0.45258E+01 SP= 0.86E+01 SK= 0.35E-03
 bond charge predicted
 prediction of wavefunctions
       N       E                     dE             d eps       ncg     rms          rms(c)
DAV:   1    -0.102271921736E+03   -0.41971E-01   -0.70042E-03   204   0.257E-01    0.928E-03
RMM:   2    -0.102272133598E+03   -0.21186E-03   -0.21501E-03   120   0.107E-01    0.549E-03
RMM:   3    -0.102272162493E+03   -0.28895E-04   -0.28126E-04    96   0.400E-02
   1415 T=   667. E= -.89055577E+02 F= -.10227216E+03 E0= -.10227652E+03  EK= 0.45715E+01 SP= 0.86E+01 SK= 0.36E-04
Information: wavefunction orthogonal band   60  0.4157
 bond charge predicted
 prediction of wavefunctions
       N       E                     dE             d eps       ncg     rms          rms(c)
DAV:   1    -0.102304698804E+03   -0.32565E-01   -0.12778E-02   156   0.269E-01    0.182E-02
RMM:   2    -0.102304871053E+03   -0.17225E-03   -0.19300E-03   120   0.116E-01    0.108E-02
RMM:   3    -0.102304892646E+03   -0.21593E-04   -0.28066E-04   100   0.435E-02
   1416 T=   671. E= -.89055301E+02 F= -.10230489E+03 E0= -.10230958E+03  EK= 0.45948E+01 SP= 0.87E+01 SK= 0.11E-02
 bond charge predicted
 prediction of wavefunctions
       N       E                     dE             d eps       ncg     rms          rms(c)
DAV:   1    -0.102325030379E+03   -0.20159E-01   -0.10802E-02   192   0.266E-01    0.115E-02
RMM:   2    -0.102325200102E+03   -0.16972E-03   -0.17648E-03   120   0.112E-01    0.663E-03
RMM:   3    -0.102325220271E+03   -0.20169E-04   -0.19713E-04    89   0.396E-02
   1417 T=   670. E= -.89055147E+02 F= -.10232522E+03 E0= -.10233019E+03  EK= 0.45919E+01 SP= 0.87E+01 SK= 0.36E-02
 bond charge predicted
 prediction of wavefunctions
       N       E                     dE             d eps       ncg     rms          rms(c)
DAV:   1    -0.102329980404E+03   -0.47803E-02   -0.10771E-02   204   0.257E-01    0.139E-02
RMM:   2    -0.102330078090E+03   -0.97686E-04   -0.10953E-03   120   0.101E-01    0.839E-03
RMM:   3    -0.102330086046E+03   -0.79558E-05   -0.11823E-04    76   0.323E-02
   1418 T=   666. E= -.89054959E+02 F= -.10233009E+03 E0= -.10233557E+03  EK= 0.45602E+01 SP= 0.87E+01 SK= 0.74E-02
 bond charge predicted
 prediction of wavefunctions
       N       E                     dE             d eps       ncg     rms          rms(c)
DAV:   1    -0.102316437086E+03    0.13641E-01   -0.63013E-03   180   0.254E-01    0.183E-02
RMM:   2    -0.102316524938E+03   -0.87852E-04   -0.10479E-03   120   0.998E-02    0.112E-02
RMM:   3    -0.102316533507E+03   -0.85693E-05   -0.15081E-04    71   0.349E-02
   1419 T=   657. E= -.89054707E+02 F= -.10231653E+03 E0= -.10232245E+03  EK= 0.44981E+01 SP= 0.88E+01 SK= 0.12E-01
 bond charge predicted
 prediction of wavefunctions
       N       E                     dE             d eps       ncg     rms          rms(c)
DAV:   1    -0.102281970051E+03    0.34555E-01   -0.25489E-03   132   0.253E-01    0.100E-02
RMM:   2    -0.102282062381E+03   -0.92330E-04   -0.96912E-04   120   0.983E-02
   1420 T=   643. E= -.89053956E+02 F= -.10228206E+03 E0= -.10228780E+03  EK= 0.44059E+01 SP= 0.88E+01 SK= 0.17E-01
 bond charge predicted
 prediction of wavefunctions
       N       E                     dE             d eps       ncg     rms          rms(c)
DAV:   1    -0.102226083343E+03    0.55887E-01   -0.25928E-03   192   0.281E-01    0.126E-02
RMM:   2    -0.102226268116E+03   -0.18477E-03   -0.19390E-03   120   0.133E-01    0.810E-03
RMM:   3    -0.102226291343E+03   -0.23227E-04   -0.24498E-04    85   0.461E-02
   1421 T=   626. E= -.89053124E+02 F= -.10222629E+03 E0= -.10223147E+03  EK= 0.42859E+01 SP= 0.89E+01 SK= 0.20E-01
 bond charge predicted
 prediction of wavefunctions
       N       E                     dE             d eps       ncg     rms          rms(c)
DAV:   1    -0.102150960457E+03    0.75308E-01   -0.28170E-03   180   0.236E-01    0.165E-02
RMM:   2    -0.102151029653E+03   -0.69196E-04   -0.86899E-04   120   0.872E-02
   1422 T=   605. E= -.89052047E+02 F= -.10215103E+03 E0= -.10215573E+03  EK= 0.41440E+01 SP= 0.89E+01 SK= 0.22E-01
 bond charge predicted
 prediction of wavefunctions
       N       E                     dE             d eps       ncg     rms          rms(c)
DAV:   1    -0.102060793006E+03    0.90167E-01   -0.43522E-03   168   0.266E-01    0.108E-02
RMM:   2    -0.102060987403E+03   -0.19440E-03   -0.19935E-03   120   0.129E-01    0.713E-03
RMM:   3    -0.102061004205E+03   -0.16802E-04   -0.15502E-04    74   0.377E-02
   1423 T=   582. E= -.89051025E+02 F= -.10206100E+03 E0= -.10206540E+03  EK= 0.39886E+01 SP= 0.90E+01 SK= 0.22E-01
 bond charge predicted
 prediction of wavefunctions
       N       E                     dE             d eps       ncg     rms          rms(c)
DAV:   1    -0.101962981321E+03    0.98006E-01   -0.37697E-03   156   0.208E-01    0.111E-02
RMM:   2    -0.101963037664E+03   -0.56344E-04   -0.66024E-04   120   0.643E-02
   1424 T=   559. E= -.89050367E+02 F= -.10196304E+03 E0= -.10196726E+03  EK= 0.38303E+01 SP= 0.91E+01 SK= 0.19E-01
 bond charge predicted
 prediction of wavefunctions
       N       E                     dE             d eps       ncg     rms          rms(c)
DAV:   1    -0.101864614147E+03    0.98367E-01   -0.51700E-03   204   0.245E-01    0.972E-03
RMM:   2    -0.101864786084E+03   -0.17194E-03   -0.17463E-03   120   0.119E-01    0.661E-03
RMM:   3    -0.101864802869E+03   -0.16785E-04   -0.15998E-04    72   0.371E-02
   1425 T=   537. E= -.89049585E+02 F= -.10186480E+03 E0= -.10186898E+03  EK= 0.36803E+01 SP= 0.91E+01 SK= 0.14E-01
 bond charge predicted
 prediction of wavefunctions
       N       E                     dE             d eps       ncg     rms          rms(c)
DAV:   1    -0.101774561863E+03    0.90224E-01   -0.38610E-03   168   0.205E-01    0.827E-03
RMM:   2    -0.101774642290E+03   -0.80427E-04   -0.84294E-04   120   0.775E-02
   1426 T=   518. E= -.89048893E+02 F= -.10177464E+03 E0= -.10177887E+03  EK= 0.35495E+01 SP= 0.92E+01 SK= 0.83E-02
 bond charge predicted
 prediction of wavefunctions
       N       E                     dE             d eps       ncg     rms          rms(c)
DAV:   1    -0.101700150339E+03    0.74412E-01   -0.43721E-03   192   0.238E-01    0.121E-02
RMM:   2    -0.101700317106E+03   -0.16677E-03   -0.17481E-03   120   0.119E-01    0.883E-03
RMM:   3    -0.101700334646E+03   -0.17540E-04   -0.19482E-04    76   0.419E-02
   1427 T=   503. E= -.89048372E+02 F= -.10170033E+03 E0= -.10170465E+03  EK= 0.34473E+01 SP= 0.92E+01 SK= 0.33E-02
 bond charge predicted
 prediction of wavefunctions
       N       E                     dE             d eps       ncg     rms          rms(c)
DAV:   1    -0.101647986993E+03    0.52330E-01   -0.36192E-03   144   0.203E-01    0.650E-03
RMM:   2    -0.101648059036E+03   -0.72043E-04   -0.74483E-04   120   0.740E-02
   1428 T=   494. E= -.89047852E+02 F= -.10164806E+03 E0= -.10165242E+03  EK= 0.33812E+01 SP= 0.92E+01 SK= 0.37E-03
 bond charge predicted
 prediction of wavefunctions
       N       E                     dE             d eps       ncg     rms          rms(c)
DAV:   1    -0.101621790312E+03    0.26197E-01   -0.40880E-03   180   0.232E-01    0.117E-02
RMM:   2    -0.101621950842E+03   -0.16053E-03   -0.17248E-03   120   0.115E-01    0.761E-03
RMM:   3    -0.101621966467E+03   -0.15625E-04   -0.17518E-04    70   0.392E-02
   1429 T=   490. E= -.89047485E+02 F= -.10162197E+03 E0= -.10162627E+03  EK= 0.33558E+01 SP= 0.92E+01 SK= 0.46E-03
 bond charge predicted
 prediction of wavefunctions
       N       E                     dE             d eps       ncg     rms          rms(c)
DAV:   1    -0.101623735319E+03   -0.17845E-02   -0.35316E-03   168   0.199E-01    0.888E-03
RMM:   2    -0.101623794051E+03   -0.58732E-04   -0.65916E-04   120   0.680E-02
   1430 T=   492. E= -.89047242E+02 F= -.10162379E+03 E0= -.10162792E+03  EK= 0.33733E+01 SP= 0.92E+01 SK= 0.39E-02
 bond charge predicted
 prediction of wavefunctions
       N       E                     dE             d eps       ncg     rms          rms(c)
DAV:   1    -0.101652939311E+03   -0.29204E-01   -0.42346E-03   216   0.232E-01    0.126E-02
RMM:   2    -0.101653078892E+03   -0.13958E-03   -0.15587E-03   120   0.112E-01    0.694E-03
RMM:   3    -0.101653095318E+03   -0.16426E-04   -0.18306E-04    69   0.410E-02
   1431 T=   501. E= -.89047267E+02 F= -.10165310E+03 E0= -.10165700E+03  EK= 0.34330E+01 SP= 0.92E+01 SK= 0.10E-01
 bond charge predicted
 prediction of wavefunctions
       N       E                     dE             d eps       ncg     rms          rms(c)
DAV:   1    -0.101706343238E+03   -0.53264E-01   -0.36808E-03   144   0.213E-01    0.110E-02
RMM:   2    -0.101706407838E+03   -0.64600E-04   -0.77450E-04   120   0.774E-02
   1432 T=   515. E= -.89047292E+02 F= -.10170641E+03 E0= -.10171011E+03  EK= 0.35314E+01 SP= 0.91E+01 SK= 0.18E-01
 bond charge predicted
 prediction of wavefunctions
       N       E                     dE             d eps       ncg     rms          rms(c)
DAV:   1    -0.101778360319E+03   -0.72017E-01   -0.42425E-03   180   0.247E-01    0.938E-03
RMM:   2    -0.101778542315E+03   -0.18200E-03   -0.18836E-03   120   0.120E-01    0.598E-03
RMM:   3    -0.101778566875E+03   -0.24560E-04   -0.23396E-04    78   0.450E-02
   1433 T=   535. E= -.89047126E+02 F= -.10177857E+03 E0= -.10178212E+03  EK= 0.36626E+01 SP= 0.90E+01 SK= 0.27E-01
 bond charge predicted
 prediction of wavefunctions
       N       E                     dE             d eps       ncg     rms          rms(c)
DAV:   1    -0.101864360452E+03   -0.85818E-01   -0.39570E-03   168   0.222E-01    0.921E-03
RMM:   2    -0.101864438445E+03   -0.77993E-04   -0.85464E-04   120   0.828E-02
   1434 T=   558. E= -.89047134E+02 F= -.10186444E+03 E0= -.10186788E+03  EK= 0.38196E+01 SP= 0.90E+01 SK= 0.34E-01
 bond charge predicted
 prediction of wavefunctions
       N       E                     dE             d eps       ncg     rms          rms(c)
DAV:   1    -0.101958022566E+03   -0.93662E-01   -0.49614E-03   192   0.263E-01    0.942E-03
RMM:   2    -0.101958210765E+03   -0.18820E-03   -0.19273E-03   120   0.128E-01    0.663E-03
RMM:   3    -0.101958228284E+03   -0.17519E-04   -0.16363E-04    72   0.387E-02
   1435 T=   583. E= -.89047271E+02 F= -.10195823E+03 E0= -.10196156E+03  EK= 0.39942E+01 SP= 0.89E+01 SK= 0.38E-01
 bond charge predicted
 prediction of wavefunctions
       N       E                     dE             d eps       ncg     rms          rms(c)
DAV:   1    -0.102053979485E+03   -0.95769E-01   -0.44135E-03   156   0.234E-01    0.724E-03
RMM:   2    -0.102054061226E+03   -0.81741E-04   -0.84530E-04   120   0.828E-02
   1436 T=   610. E= -.89047301E+02 F= -.10205406E+03 E0= -.10205727E+03  EK= 0.41772E+01 SP= 0.88E+01 SK= 0.38E-01
 bond charge predicted
 prediction of wavefunctions
       N       E                     dE             d eps       ncg     rms          rms(c)
DAV:   1    -0.102146353755E+03   -0.92374E-01   -0.56560E-03   168   0.279E-01    0.102E-02
RMM:   2    -0.102146578398E+03   -0.22464E-03   -0.22821E-03   120   0.137E-01    0.713E-03
RMM:   3    -0.102146603280E+03   -0.24882E-04   -0.24133E-04    87   0.464E-02
   1437 T=   636. E= -.89047423E+02 F= -.10214660E+03 E0= -.10214967E+03  EK= 0.43589E+01 SP= 0.87E+01 SK= 0.35E-01
 bond charge predicted
 prediction of wavefunctions
       N       E                     dE             d eps       ncg     rms          rms(c)
DAV:   1    -0.102230620468E+03   -0.84042E-01   -0.46438E-03   132   0.248E-01    0.732E-03
RMM:   2    -0.102230719261E+03   -0.98792E-04   -0.10138E-03   120   0.932E-02    0.445E-03
RMM:   3    -0.102230737543E+03   -0.18283E-04   -0.18149E-04    88   0.391E-02
   1438 T=   661. E= -.89047602E+02 F= -.10223074E+03 E0= -.10223367E+03  EK= 0.45290E+01 SP= 0.86E+01 SK= 0.28E-01
 bond charge predicted
 prediction of wavefunctions
       N       E                     dE             d eps       ncg     rms          rms(c)
DAV:   1    -0.102301947393E+03   -0.71228E-01   -0.53859E-03   228   0.258E-01    0.973E-03
RMM:   2    -0.102302045085E+03   -0.97692E-04   -0.10231E-03   120   0.101E-01    0.610E-03
RMM:   3    -0.102302057397E+03   -0.12312E-04   -0.13424E-04    67   0.359E-02
   1439 T=   683. E= -.89047660E+02 F= -.10230206E+03 E0= -.10230492E+03  EK= 0.46776E+01 SP= 0.86E+01 SK= 0.19E-01
 bond charge predicted
 prediction of wavefunctions
       N       E                     dE             d eps       ncg     rms          rms(c)
DAV:   1    -0.102356661492E+03   -0.54616E-01   -0.56488E-03   192   0.261E-01    0.606E-03
RMM:   2    -0.102356768083E+03   -0.10659E-03   -0.10747E-03   120   0.103E-01    0.444E-03
RMM:   3    -0.102356777913E+03   -0.98296E-05   -0.96576E-05    67   0.296E-02
   1440 T=   700. E= -.89047827E+02 F= -.10235678E+03 E0= -.10235969E+03  EK= 0.47955E+01 SP= 0.85E+01 SK= 0.11E-01
 bond charge predicted
 prediction of wavefunctions
       N       E                     dE             d eps       ncg     rms          rms(c)
DAV:   1    -0.102391649092E+03   -0.34881E-01   -0.62156E-03   144   0.258E-01    0.799E-03
RMM:   2    -0.102391740946E+03   -0.91854E-04   -0.94510E-04   120   0.968E-02
   1441 T=   712. E= -.89047469E+02 F= -.10239174E+03 E0= -.10239483E+03  EK= 0.48752E+01 SP= 0.85E+01 SK= 0.40E-02
 bond charge predicted
 prediction of wavefunctions
       N       E                     dE             d eps       ncg     rms          rms(c)
DAV:   1    -0.102405797884E+03   -0.14149E-01   -0.72973E-03   168   0.283E-01    0.775E-03
RMM:   2    -0.102405984162E+03   -0.18628E-03   -0.18673E-03   120   0.134E-01    0.617E-03
RMM:   3    -0.102406010856E+03   -0.26694E-04   -0.25452E-04    89   0.477E-02
   1442 T=   717. E= -.89046914E+02 F= -.10240601E+03 E0= -.10240941E+03  EK= 0.49122E+01 SP= 0.84E+01 SK= 0.37E-03
 bond charge predicted
 prediction of wavefunctions
       N       E                     dE             d eps       ncg     rms          rms(c)
DAV:   1    -0.102399260345E+03    0.67238E-02   -0.66848E-03   168   0.251E-01    0.680E-03
RMM:   2    -0.102399347117E+03   -0.86771E-04   -0.87669E-04   120   0.918E-02
   1443 T=   716. E= -.89045950E+02 F= -.10239935E+03 E0= -.10240315E+03  EK= 0.49049E+01 SP= 0.84E+01 SK= 0.65E-03
 bond charge predicted
 prediction of wavefunctions
       N       E                     dE             d eps       ncg     rms          rms(c)
DAV:   1    -0.102373051877E+03    0.26208E-01   -0.74731E-03   168   0.288E-01    0.990E-03
RMM:   2    -0.102373266718E+03   -0.21484E-03   -0.21537E-03   120   0.139E-01    0.717E-03
RMM:   3    -0.102373285346E+03   -0.18628E-04   -0.16701E-04    69   0.382E-02
   1444 T=   709. E= -.89045081E+02 F= -.10237329E+03 E0= -.10237754E+03  EK= 0.48545E+01 SP= 0.85E+01 SK= 0.47E-02
 bond charge predicted
 prediction of wavefunctions
       N       E                     dE             d eps       ncg     rms          rms(c)
DAV:   1    -0.102330337769E+03    0.42929E-01   -0.66347E-03   132   0.236E-01    0.619E-03
RMM:   2    -0.102330381494E+03   -0.43725E-04   -0.45328E-04   120   0.646E-02
   1445 T=   696. E= -.89044091E+02 F= -.10233038E+03 E0= -.10233504E+03  EK= 0.47660E+01 SP= 0.85E+01 SK= 0.12E-01
 bond charge predicted
 prediction of wavefunctions
       N       E                     dE             d eps       ncg     rms          rms(c)
DAV:   1    -0.102274356475E+03    0.55981E-01   -0.71929E-03   192   0.274E-01    0.826E-03
RMM:   2    -0.102274538239E+03   -0.18176E-03   -0.18340E-03   120   0.130E-01    0.544E-03
RMM:   3    -0.102274557628E+03   -0.19389E-04   -0.18330E-04    69   0.402E-02
   1446 T=   678. E= -.89043037E+02 F= -.10227456E+03 E0= -.10227949E+03  EK= 0.46468E+01 SP= 0.86E+01 SK= 0.20E-01
 bond charge predicted
 prediction of wavefunctions
       N       E                     dE             d eps       ncg     rms          rms(c)
DAV:   1    -0.102209939206E+03    0.64599E-01   -0.62854E-03   168   0.225E-01    0.619E-03
RMM:   2    -0.102209996573E+03   -0.57368E-04   -0.58818E-04   120   0.716E-02
   1447 T=   658. E= -.89041970E+02 F= -.10221000E+03 E0= -.10221504E+03  EK= 0.45058E+01 SP= 0.86E+01 SK= 0.28E-01
 bond charge predicted
 prediction of wavefunctions
       N       E                     dE             d eps       ncg     rms          rms(c)
DAV:   1    -0.102140865175E+03    0.69074E-01   -0.68317E-03   168   0.256E-01    0.791E-03
RMM:   2    -0.102141034198E+03   -0.16902E-03   -0.17106E-03   120   0.121E-01    0.576E-03
RMM:   3    -0.102141057087E+03   -0.22889E-04   -0.22569E-04    81   0.436E-02
   1448 T=   635. E= -.89041129E+02 F= -.10214106E+03 E0= -.10214606E+03  EK= 0.43519E+01 SP= 0.87E+01 SK= 0.34E-01
 bond charge predicted
 prediction of wavefunctions
       N       E                     dE             d eps       ncg     rms          rms(c)
DAV:   1    -0.102070829567E+03    0.70205E-01   -0.59225E-03   180   0.216E-01    0.597E-03
RMM:   2    -0.102070906358E+03   -0.76790E-04   -0.78408E-04   120   0.777E-02
   1449 T=   612. E= -.89040250E+02 F= -.10207091E+03 E0= -.10207578E+03  EK= 0.41935E+01 SP= 0.88E+01 SK= 0.38E-01
Information: wavefunction orthogonal band   59  0.8396
 bond charge predicted
 prediction of wavefunctions
       N       E                     dE             d eps       ncg     rms          rms(c)
DAV:   1    -0.102002476984E+03    0.68353E-01   -0.65989E-03   192   0.245E-01    0.890E-03
RMM:   2    -0.102002637347E+03   -0.16036E-03   -0.16423E-03   120   0.119E-01    0.622E-03
RMM:   3    -0.102002652730E+03   -0.15382E-04   -0.14804E-04    74   0.368E-02
   1450 T=   589. E= -.89039590E+02 F= -.10200265E+03 E0= -.10200737E+03  EK= 0.40379E+01 SP= 0.89E+01 SK= 0.38E-01
 bond charge predicted
 prediction of wavefunctions
       N       E                     dE             d eps       ncg     rms          rms(c)
DAV:   1    -0.101938453069E+03    0.64184E-01   -0.54853E-03   228   0.204E-01    0.495E-03
RMM:   2    -0.101938510542E+03   -0.57473E-04   -0.58897E-04   120   0.645E-02
   1451 T=   568. E= -.89039246E+02 F= -.10193851E+03 E0= -.10194311E+03  EK= 0.38908E+01 SP= 0.90E+01 SK= 0.35E-01
 bond charge predicted
 prediction of wavefunctions
       N       E                     dE             d eps       ncg     rms          rms(c)
DAV:   1    -0.101879406611E+03    0.59046E-01   -0.53559E-03   204   0.231E-01    0.808E-03
RMM:   2    -0.101879544811E+03   -0.13820E-03   -0.14166E-03   120   0.110E-01    0.556E-03
RMM:   3    -0.101879558949E+03   -0.14138E-04   -0.14284E-04    66   0.361E-02
   1452 T=   548. E= -.89039092E+02 F= -.10187956E+03 E0= -.10188411E+03  EK= 0.37565E+01 SP= 0.91E+01 SK= 0.30E-01
 bond charge predicted
 prediction of wavefunctions
       N       E                     dE             d eps       ncg     rms          rms(c)
DAV:   1    -0.101826418659E+03    0.53126E-01   -0.41783E-03   192   0.203E-01    0.536E-03
RMM:   2    -0.101826485853E+03   -0.67194E-04   -0.68927E-04   119   0.710E-02
   1453 T=   531. E= -.89038891E+02 F= -.10182649E+03 E0= -.10183111E+03  EK= 0.36384E+01 SP= 0.91E+01 SK= 0.22E-01
 bond charge predicted
 prediction of wavefunctions
       N       E                     dE             d eps       ncg     rms          rms(c)
DAV:   1    -0.101779742690E+03    0.46676E-01   -0.46653E-03   204   0.228E-01    0.106E-02
RMM:   2    -0.101779888677E+03   -0.14599E-03   -0.15427E-03   120   0.112E-01    0.680E-03
RMM:   3    -0.101779905298E+03   -0.16620E-04   -0.17306E-04    72   0.397E-02
   1454 T=   517. E= -.89038584E+02 F= -.10177991E+03 E0= -.10178476E+03  EK= 0.35388E+01 SP= 0.92E+01 SK= 0.15E-01
 bond charge predicted
 prediction of wavefunctions
       N       E                     dE             d eps       ncg     rms          rms(c)
DAV:   1    -0.101740577812E+03    0.39311E-01   -0.40113E-03   204   0.197E-01    0.647E-03
RMM:   2    -0.101740639932E+03   -0.62120E-04   -0.64600E-04   120   0.681E-02
   1455 T=   505. E= -.89038378E+02 F= -.10174064E+03 E0= -.10174590E+03  EK= 0.34596E+01 SP= 0.92E+01 SK= 0.77E-02
 bond charge predicted
 prediction of wavefunctions
       N       E                     dE             d eps       ncg     rms          rms(c)
DAV:   1    -0.101709662281E+03    0.30916E-01   -0.45061E-03   216   0.219E-01    0.128E-02
RMM:   2    -0.101709782347E+03   -0.12007E-03   -0.13295E-03   120   0.105E-01    0.810E-03
RMM:   3    -0.101709791228E+03   -0.88809E-05   -0.12471E-04    65   0.343E-02
   1456 T=   497. E= -.89038045E+02 F= -.10170979E+03 E0= -.10171562E+03  EK= 0.34029E+01 SP= 0.93E+01 SK= 0.26E-02
 bond charge predicted
 prediction of wavefunctions
       N       E                     dE             d eps       ncg     rms          rms(c)
DAV:   1    -0.101689319210E+03    0.20463E-01   -0.37423E-03   156   0.193E-01    0.986E-03
RMM:   2    -0.101689375195E+03   -0.55985E-04   -0.63728E-04   119   0.682E-02
   1457 T=   492. E= -.89037676E+02 F= -.10168938E+03 E0= -.10169589E+03  EK= 0.33713E+01 SP= 0.93E+01 SK= 0.13E-03
 bond charge predicted
 prediction of wavefunctions
       N       E                     dE             d eps       ncg     rms          rms(c)
DAV:   1    -0.101681438912E+03    0.78803E-02   -0.40818E-03   192   0.218E-01    0.133E-02
RMM:   2    -0.101681567987E+03   -0.12908E-03   -0.14411E-03   120   0.105E-01    0.722E-03
RMM:   3    -0.101681583778E+03   -0.15791E-04   -0.18315E-04    70   0.398E-02
   1458 T=   492. E= -.89037291E+02 F= -.10168158E+03 E0= -.10168869E+03  EK= 0.33672E+01 SP= 0.93E+01 SK= 0.85E-03
 bond charge predicted
 prediction of wavefunctions
       N       E                     dE             d eps       ncg     rms          rms(c)
DAV:   1    -0.101688277698E+03   -0.67097E-02   -0.37151E-03   156   0.193E-01    0.118E-02
RMM:   2    -0.101688333407E+03   -0.55710E-04   -0.66843E-04   120   0.704E-02
   1459 T=   495. E= -.89036937E+02 F= -.10168833E+03 E0= -.10169578E+03  EK= 0.33926E+01 SP= 0.93E+01 SK= 0.48E-02
 bond charge predicted
 prediction of wavefunctions
       N       E                     dE             d eps       ncg     rms          rms(c)
DAV:   1    -0.101711205699E+03   -0.22928E-01   -0.42349E-03   168   0.218E-01    0.119E-02
RMM:   2    -0.101711347891E+03   -0.14219E-03   -0.15402E-03   120   0.108E-01    0.632E-03
RMM:   3    -0.101711368769E+03   -0.20878E-04   -0.21136E-04    82   0.424E-02
   1460 T=   503. E= -.89036521E+02 F= -.10171137E+03 E0= -.10171893E+03  EK= 0.34490E+01 SP= 0.92E+01 SK= 0.11E-01
 bond charge predicted
 prediction of wavefunctions
       N       E                     dE             d eps       ncg     rms          rms(c)
DAV:   1    -0.101752365120E+03   -0.41017E-01   -0.40338E-03   192   0.193E-01    0.107E-02
RMM:   2    -0.101752423991E+03   -0.58871E-04   -0.68041E-04   120   0.710E-02
   1461 T=   516. E= -.89036144E+02 F= -.10175242E+03 E0= -.10175999E+03  EK= 0.35379E+01 SP= 0.92E+01 SK= 0.20E-01
 bond charge predicted
 prediction of wavefunctions
       N       E                     dE             d eps       ncg     rms          rms(c)
DAV:   1    -0.101811872179E+03   -0.59507E-01   -0.49224E-03   204   0.222E-01    0.105E-02
RMM:   2    -0.101812010392E+03   -0.13821E-03   -0.14618E-03   120   0.109E-01    0.617E-03
RMM:   3    -0.101812023834E+03   -0.13442E-04   -0.13129E-04    66   0.351E-02
   1462 T=   534. E= -.89035856E+02 F= -.10181202E+03 E0= -.10181958E+03  EK= 0.36588E+01 SP= 0.91E+01 SK= 0.28E-01
 bond charge predicted
 prediction of wavefunctions
       N       E                     dE             d eps       ncg     rms          rms(c)
DAV:   1    -0.101889394140E+03   -0.77384E-01   -0.44293E-03   192   0.199E-01    0.858E-03
RMM:   2    -0.101889461716E+03   -0.67575E-04   -0.73075E-04   120   0.719E-02
   1463 T=   556. E= -.89035696E+02 F= -.10188946E+03 E0= -.10189713E+03  EK= 0.38096E+01 SP= 0.90E+01 SK= 0.36E-01
 bond charge predicted
 prediction of wavefunctions
       N       E                     dE             d eps       ncg     rms          rms(c)
DAV:   1    -0.101982529127E+03   -0.93135E-01   -0.58664E-03   180   0.234E-01    0.113E-02
RMM:   2    -0.101982687206E+03   -0.15808E-03   -0.16838E-03   120   0.117E-01    0.679E-03
RMM:   3    -0.101982704407E+03   -0.17201E-04   -0.18032E-04    73   0.401E-02
   1464 T=   582. E= -.89035656E+02 F= -.10198270E+03 E0= -.10199067E+03  EK= 0.39863E+01 SP= 0.89E+01 SK= 0.40E-01
 bond charge predicted
 prediction of wavefunctions
       N       E                     dE             d eps       ncg     rms          rms(c)
DAV:   1    -0.102088385672E+03   -0.10570E+00   -0.49815E-03   144   0.214E-01    0.792E-03
RMM:   2    -0.102088468823E+03   -0.83151E-04   -0.87908E-04   120   0.809E-02
   1465 T=   610. E= -.89035614E+02 F= -.10208847E+03 E0= -.10209696E+03  EK= 0.41823E+01 SP= 0.88E+01 SK= 0.41E-01
 bond charge predicted
 prediction of wavefunctions
       N       E                     dE             d eps       ncg     rms          rms(c)
DAV:   1    -0.102202626231E+03   -0.11424E+00   -0.62450E-03   216   0.250E-01    0.112E-02
RMM:   2    -0.102202800765E+03   -0.17453E-03   -0.18320E-03   120   0.124E-01    0.702E-03
RMM:   3    -0.102202819538E+03   -0.18773E-04   -0.18818E-04    74   0.415E-02
   1466 T=   641. E= -.89035693E+02 F= -.10220282E+03 E0= -.10221198E+03  EK= 0.43892E+01 SP= 0.87E+01 SK= 0.37E-01
 bond charge predicted
 prediction of wavefunctions
       N       E                     dE             d eps       ncg     rms          rms(c)
DAV:   1    -0.102320442145E+03   -0.11764E+00   -0.55562E-03   192   0.226E-01    0.950E-03
RMM:   2    -0.102320525474E+03   -0.83329E-04   -0.90916E-04   120   0.851E-02
   1467 T=   671. E= -.89035888E+02 F= -.10232053E+03 E0= -.10233027E+03  EK= 0.45961E+01 SP= 0.87E+01 SK= 0.29E-01
 bond charge predicted
 prediction of wavefunctions
       N       E                     dE             d eps       ncg     rms          rms(c)
DAV:   1    -0.102435114008E+03   -0.11467E+00   -0.58032E-03   168   0.268E-01    0.157E-02
RMM:   2    -0.102435313121E+03   -0.19911E-03   -0.21896E-03   120   0.135E-01    0.846E-03
RMM:   3    -0.102435333348E+03   -0.20227E-04   -0.21421E-04    81   0.442E-02
   1468 T=   699. E= -.89036030E+02 F= -.10243533E+03 E0= -.10244537E+03  EK= 0.47903E+01 SP= 0.86E+01 SK= 0.19E-01
 bond charge predicted
 prediction of wavefunctions
       N       E                     dE             d eps       ncg     rms          rms(c)
DAV:   1    -0.102540908524E+03   -0.10560E+00   -0.43853E-03   144   0.234E-01    0.944E-03
RMM:   2    -0.102540989566E+03   -0.81042E-04   -0.87718E-04   120   0.865E-02
   1469 T=   724. E= -.89036160E+02 F= -.10254099E+03 E0= -.10255103E+03  EK= 0.49583E+01 SP= 0.85E+01 SK= 0.91E-02
 bond charge predicted
 prediction of wavefunctions
       N       E                     dE             d eps       ncg     rms          rms(c)
DAV:   1    -0.102631550281E+03   -0.90642E-01   -0.67804E-03   180   0.274E-01    0.130E-02
RMM:   2    -0.102631758930E+03   -0.20865E-03   -0.21996E-03   120   0.135E-01    0.771E-03
RMM:   3    -0.102631781421E+03   -0.22492E-04   -0.22177E-04    84   0.446E-02
   1470 T=   743. E= -.89036175E+02 F= -.10263178E+03 E0= -.10264160E+03  EK= 0.50876E+01 SP= 0.85E+01 SK= 0.20E-02
 bond charge predicted
 prediction of wavefunctions
       N       E                     dE             d eps       ncg     rms          rms(c)
DAV:   1    -0.102702872390E+03   -0.71113E-01   -0.62059E-03   144   0.236E-01    0.996E-03
RMM:   2    -0.102702960661E+03   -0.88272E-04   -0.95025E-04   120   0.918E-02
   1471 T=   754. E= -.89035994E+02 F= -.10270296E+03 E0= -.10271244E+03  EK= 0.51679E+01 SP= 0.85E+01 SK= 0.16E-03
 bond charge predicted
 prediction of wavefunctions
       N       E                     dE             d eps       ncg     rms          rms(c)
DAV:   1    -0.102750006567E+03   -0.47134E-01   -0.65034E-03   192   0.282E-01    0.152E-02
RMM:   2    -0.102750222945E+03   -0.21638E-03   -0.23168E-03   120   0.143E-01    0.887E-03
RMM:   3    -0.102750243860E+03   -0.20914E-04   -0.21953E-04    82   0.451E-02
   1472 T=   758. E= -.89035499E+02 F= -.10275024E+03 E0= -.10275933E+03  EK= 0.51916E+01 SP= 0.85E+01 SK= 0.52E-02
 bond charge predicted
 prediction of wavefunctions
       N       E                     dE             d eps       ncg     rms          rms(c)
DAV:   1    -0.102771722010E+03   -0.21499E-01   -0.70843E-03   168   0.235E-01    0.830E-03
RMM:   2    -0.102771810543E+03   -0.88533E-04   -0.93291E-04   120   0.915E-02
   1473 T=   753. E= -.89034906E+02 F= -.10277181E+03 E0= -.10278046E+03  EK= 0.51557E+01 SP= 0.86E+01 SK= 0.17E-01
 bond charge predicted
 prediction of wavefunctions
       N       E                     dE             d eps       ncg     rms          rms(c)
DAV:   1    -0.102767761839E+03    0.39602E-02   -0.71057E-03   204   0.280E-01    0.126E-02
RMM:   2    -0.102767982321E+03   -0.22048E-03   -0.22979E-03   120   0.140E-01    0.795E-03
RMM:   3    -0.102768003668E+03   -0.21347E-04   -0.20996E-04    75   0.439E-02
   1474 T=   739. E= -.89033960E+02 F= -.10276800E+03 E0= -.10277614E+03  EK= 0.50632E+01 SP= 0.86E+01 SK= 0.35E-01
 bond charge predicted
 prediction of wavefunctions
       N       E                     dE             d eps       ncg     rms          rms(c)
DAV:   1    -0.102741490379E+03    0.26492E-01   -0.60028E-03   168   0.229E-01    0.892E-03
RMM:   2    -0.102741578163E+03   -0.87784E-04   -0.93435E-04   120   0.921E-02
   1475 T=   718. E= -.89032796E+02 F= -.10274158E+03 E0= -.10274913E+03  EK= 0.49216E+01 SP= 0.87E+01 SK= 0.56E-01
 bond charge predicted
 prediction of wavefunctions
       N       E                     dE             d eps       ncg     rms          rms(c)
DAV:   1    -0.102697018794E+03    0.44472E-01   -0.71259E-03   192   0.272E-01    0.140E-02
RMM:   2    -0.102697233739E+03   -0.21495E-03   -0.22876E-03   120   0.138E-01    0.829E-03
RMM:   3    -0.102697257594E+03   -0.23855E-04   -0.24440E-04    84   0.478E-02
   1476 T=   692. E= -.89031255E+02 F= -.10269726E+03 E0= -.10270427E+03  EK= 0.47424E+01 SP= 0.88E+01 SK= 0.77E-01
 bond charge predicted
 prediction of wavefunctions
       N       E                     dE             d eps       ncg     rms          rms(c)
DAV:   1    -0.102642067429E+03    0.55166E-01   -0.56331E-03   168   0.217E-01    0.880E-03
RMM:   2    -0.102642154515E+03   -0.87086E-04   -0.92243E-04   120   0.917E-02
   1477 T=   663. E= -.89029803E+02 F= -.10264215E+03 E0= -.10264876E+03  EK= 0.45400E+01 SP= 0.90E+01 SK= 0.94E-01
 bond charge predicted
 prediction of wavefunctions
       N       E                     dE             d eps       ncg     rms          rms(c)
DAV:   1    -0.102583795122E+03    0.58272E-01   -0.68217E-03   192   0.258E-01    0.123E-02
RMM:   2    -0.102583990190E+03   -0.19507E-03   -0.20412E-03   120   0.130E-01    0.761E-03
RMM:   3    -0.102584010121E+03   -0.19931E-04   -0.19237E-04    70   0.426E-02
   1478 T=   632. E= -.89028606E+02 F= -.10258401E+03 E0= -.10259033E+03  EK= 0.43293E+01 SP= 0.91E+01 SK= 0.11E+00
 bond charge predicted
 prediction of wavefunctions
       N       E                     dE             d eps       ncg     rms          rms(c)
DAV:   1    -0.102530873715E+03    0.53116E-01   -0.53325E-03   168   0.201E-01    0.882E-03
RMM:   2    -0.102530943870E+03   -0.70155E-04   -0.75643E-04   120   0.821E-02
   1479 T=   602. E= -.89027640E+02 F= -.10253094E+03 E0= -.10253712E+03  EK= 0.41251E+01 SP= 0.93E+01 SK= 0.11E+00
 bond charge predicted
 prediction of wavefunctions
       N       E                     dE             d eps       ncg     rms          rms(c)
DAV:   1    -0.102490348796E+03    0.40525E-01   -0.64594E-03   180   0.242E-01    0.114E-02
RMM:   2    -0.102490523145E+03   -0.17435E-03   -0.18276E-03   120   0.122E-01    0.682E-03
RMM:   3    -0.102490543194E+03   -0.20048E-04   -0.19310E-04    69   0.425E-02
   1480 T=   575. E= -.89027001E+02 F= -.10249054E+03 E0= -.10249668E+03  EK= 0.39397E+01 SP= 0.94E+01 SK= 0.11E+00
 bond charge predicted
 prediction of wavefunctions
       N       E                     dE             d eps       ncg     rms          rms(c)
DAV:   1    -0.102468136983E+03    0.22386E-01   -0.54138E-03   168   0.189E-01    0.836E-03
RMM:   2    -0.102468200554E+03   -0.63571E-04   -0.68487E-04   120   0.779E-02
   1481 T=   552. E= -.89026507E+02 F= -.10246820E+03 E0= -.10247442E+03  EK= 0.37822E+01 SP= 0.96E+01 SK= 0.98E-01
 bond charge predicted
 prediction of wavefunctions
       N       E                     dE             d eps       ncg     rms          rms(c)
DAV:   1    -0.102467718647E+03    0.41834E-03   -0.61309E-03   168   0.226E-01    0.108E-02
RMM:   2    -0.102467870224E+03   -0.15158E-03   -0.15894E-03   120   0.112E-01    0.636E-03
RMM:   3    -0.102467890171E+03   -0.19947E-04   -0.19254E-04    72   0.420E-02
   1482 T=   534. E= -.89026243E+02 F= -.10246789E+03 E0= -.10247429E+03  EK= 0.36587E+01 SP= 0.97E+01 SK= 0.85E-01
 bond charge predicted
 prediction of wavefunctions
       N       E                     dE             d eps       ncg     rms          rms(c)
DAV:   1    -0.102491412071E+03   -0.23542E-01   -0.46086E-03   168   0.183E-01    0.764E-03
RMM:   2    -0.102491470938E+03   -0.58867E-04   -0.63148E-04   120   0.754E-02
   1483 T=   521. E= -.89026126E+02 F= -.10249147E+03 E0= -.10249815E+03  EK= 0.35720E+01 SP= 0.98E+01 SK= 0.70E-01
 bond charge predicted
 prediction of wavefunctions
       N       E                     dE             d eps       ncg     rms          rms(c)
DAV:   1    -0.102538157555E+03   -0.46745E-01   -0.47901E-03   144   0.217E-01    0.101E-02
RMM:   2    -0.102538295620E+03   -0.13806E-03   -0.14408E-03   120   0.108E-01    0.634E-03
RMM:   3    -0.102538312284E+03   -0.16664E-04   -0.15993E-04    67   0.382E-02
   1484 T=   514. E= -.89026168E+02 F= -.10253831E+03 E0= -.10254536E+03  EK= 0.35218E+01 SP= 0.99E+01 SK= 0.55E-01
 bond charge predicted
 prediction of wavefunctions
       N       E                     dE             d eps       ncg     rms          rms(c)
DAV:   1    -0.102605488570E+03   -0.67193E-01   -0.38106E-03   168   0.178E-01    0.678E-03
RMM:   2    -0.102605536473E+03   -0.47902E-04   -0.51114E-04   120   0.680E-02
   1485 T=   512. E= -.89026293E+02 F= -.10260554E+03 E0= -.10261304E+03  EK= 0.35051E+01 SP= 0.10E+02 SK= 0.41E-01
 bond charge predicted
 prediction of wavefunctions
       N       E                     dE             d eps       ncg     rms          rms(c)
DAV:   1    -0.102688518110E+03   -0.83030E-01   -0.42990E-03   144   0.213E-01    0.102E-02
RMM:   2    -0.102688642481E+03   -0.12437E-03   -0.13094E-03   120   0.104E-01    0.609E-03
RMM:   3    -0.102688659013E+03   -0.16532E-04   -0.16415E-04    67   0.386E-02
   1486 T=   513. E= -.89026361E+02 F= -.10268866E+03 E0= -.10269662E+03  EK= 0.35169E+01 SP= 0.10E+02 SK= 0.28E-01
 bond charge predicted
 prediction of wavefunctions
       N       E                     dE             d eps       ncg     rms          rms(c)
DAV:   1    -0.102782320634E+03   -0.93678E-01   -0.35480E-03   156   0.182E-01    0.651E-03
RMM:   2    -0.102782370689E+03   -0.50055E-04   -0.53183E-04   120   0.699E-02
   1487 T=   518. E= -.89026570E+02 F= -.10278237E+03 E0= -.10279076E+03  EK= 0.35512E+01 SP= 0.10E+02 SK= 0.19E-01
 bond charge predicted
 prediction of wavefunctions
       N       E                     dE             d eps       ncg     rms          rms(c)
DAV:   1    -0.102880079913E+03   -0.97759E-01   -0.38359E-03   168   0.216E-01    0.103E-02
RMM:   2    -0.102880200928E+03   -0.12102E-03   -0.12705E-03   120   0.104E-01    0.637E-03
RMM:   3    -0.102880217221E+03   -0.16293E-04   -0.16489E-04    67   0.386E-02
   1488 T=   526. E= -.89026653E+02 F= -.10288022E+03 E0= -.10288898E+03  EK= 0.36008E+01 SP= 0.10E+02 SK= 0.12E-01
 bond charge predicted
 prediction of wavefunctions
       N       E                     dE             d eps       ncg     rms          rms(c)
DAV:   1    -0.102975643050E+03   -0.95442E-01   -0.30550E-03   132   0.187E-01    0.664E-03
RMM:   2    -0.102975692102E+03   -0.49052E-04   -0.52298E-04   120   0.685E-02
   1489 T=   534. E= -.89026836E+02 F= -.10297569E+03 E0= -.10298478E+03  EK= 0.36583E+01 SP= 0.10E+02 SK= 0.67E-02
 bond charge predicted
 prediction of wavefunctions
       N       E                     dE             d eps       ncg     rms          rms(c)
DAV:   1    -0.103062031392E+03   -0.86388E-01   -0.34377E-03   168   0.219E-01    0.104E-02
RMM:   2    -0.103062151192E+03   -0.11980E-03   -0.12705E-03   120   0.104E-01    0.639E-03
RMM:   3    -0.103062166994E+03   -0.15802E-04   -0.16306E-04    64   0.380E-02
   1490 T=   542. E= -.89027018E+02 F= -.10306217E+03 E0= -.10307153E+03  EK= 0.37160E+01 SP= 0.10E+02 SK= 0.35E-02
 bond charge predicted
 prediction of wavefunctions
       N       E                     dE             d eps       ncg     rms          rms(c)
DAV:   1    -0.103133550499E+03   -0.71399E-01   -0.29242E-03   156   0.194E-01    0.663E-03
RMM:   2    -0.103133597642E+03   -0.47142E-04   -0.50020E-04   120   0.669E-02
   1491 T=   550. E= -.89027042E+02 F= -.10313360E+03 E0= -.10314311E+03  EK= 0.37672E+01 SP= 0.10E+02 SK= 0.16E-02
 bond charge predicted
 prediction of wavefunctions
       N       E                     dE             d eps       ncg     rms          rms(c)
DAV:   1    -0.103184546983E+03   -0.50996E-01   -0.33795E-03   144   0.225E-01    0.119E-02
RMM:   2    -0.103184663121E+03   -0.11614E-03   -0.12555E-03   120   0.104E-01    0.748E-03
RMM:   3    -0.103184678217E+03   -0.15095E-04   -0.17275E-04    68   0.392E-02
   1492 T=   555. E= -.89026885E+02 F= -.10318468E+03 E0= -.10319410E+03  EK= 0.38056E+01 SP= 0.10E+02 SK= 0.49E-03
 bond charge predicted
 prediction of wavefunctions
       N       E                     dE             d eps       ncg     rms          rms(c)
DAV:   1    -0.103211658171E+03   -0.26995E-01   -0.27470E-03   156   0.205E-01    0.767E-03
RMM:   2    -0.103211710839E+03   -0.52669E-04   -0.56888E-04   120   0.703E-02
   1493 T=   559. E= -.89026669E+02 F= -.10321171E+03 E0= -.10322064E+03  EK= 0.38269E+01 SP= 0.10E+02 SK= 0.42E-04
 bond charge predicted
 prediction of wavefunctions
       N       E                     dE             d eps       ncg     rms          rms(c)
DAV:   1    -0.103212295234E+03   -0.63706E-03   -0.29490E-03   156   0.231E-01    0.133E-02
RMM:   2    -0.103212417387E+03   -0.12215E-03   -0.13427E-03   120   0.106E-01    0.819E-03
RMM:   3    -0.103212432665E+03   -0.15278E-04   -0.18671E-04    76   0.400E-02
   1494 T=   559. E= -.89026425E+02 F= -.10321243E+03 E0= -.10322040E+03  EK= 0.38283E+01 SP= 0.10E+02 SK= 0.72E-04
 bond charge predicted
 prediction of wavefunctions
       N       E                     dE             d eps       ncg     rms          rms(c)
DAV:   1    -0.103185817809E+03    0.26600E-01   -0.22512E-03   120   0.211E-01    0.980E-03
RMM:   2    -0.103185883609E+03   -0.65800E-04   -0.73065E-04   120   0.721E-02
   1495 T=   556. E= -.89025825E+02 F= -.10318588E+03 E0= -.10319258E+03  EK= 0.38091E+01 SP= 0.10E+02 SK= 0.57E-03
 bond charge predicted
 prediction of wavefunctions
       N       E                     dE             d eps       ncg     rms          rms(c)
DAV:   1    -0.103133968426E+03    0.51849E-01   -0.41626E-03   180   0.236E-01    0.139E-02
RMM:   2    -0.103134135210E+03   -0.16678E-03   -0.18117E-03   120   0.109E-01    0.789E-03
RMM:   3    -0.103134155752E+03   -0.20542E-04   -0.22580E-04    84   0.394E-02
   1496 T=   550. E= -.89025407E+02 F= -.10313416E+03 E0= -.10313957E+03  EK= 0.37713E+01 SP= 0.10E+02 SK= 0.17E-02
Information: wavefunction orthogonal band   60  0.5650
 bond charge predicted
 prediction of wavefunctions
       N       E                     dE             d eps       ncg     rms          rms(c)
DAV:   1    -0.103059418363E+03    0.74717E-01   -0.31453E-03   180   0.220E-01    0.101E-02
RMM:   2    -0.103059543590E+03   -0.12523E-03   -0.13259E-03   120   0.858E-02    0.731E-03
RMM:   3    -0.103059563968E+03   -0.20378E-04   -0.23593E-04    87   0.388E-02
   1497 T=   543. E= -.89025104E+02 F= -.10305956E+03 E0= -.10306391E+03  EK= 0.37179E+01 SP= 0.10E+02 SK= 0.37E-02
 bond charge predicted
 prediction of wavefunctions
       N       E                     dE             d eps       ncg     rms          rms(c)
DAV:   1    -0.102965055885E+03    0.94488E-01   -0.28398E-03   180   0.215E-01    0.849E-03
RMM:   2    -0.102965133378E+03   -0.77492E-04   -0.82049E-04   120   0.772E-02
   1498 T=   533. E= -.89024655E+02 F= -.10296513E+03 E0= -.10296871E+03  EK= 0.36531E+01 SP= 0.10E+02 SK= 0.70E-02
 bond charge predicted
 prediction of wavefunctions
       N       E                     dE             d eps       ncg     rms          rms(c)
DAV:   1    -0.102854762707E+03    0.11029E+00   -0.36405E-03   180   0.238E-01    0.866E-03
RMM:   2    -0.102854901010E+03   -0.13830E-03   -0.14217E-03   120   0.113E-01    0.631E-03
RMM:   3    -0.102854916480E+03   -0.15469E-04   -0.15532E-04    70   0.379E-02
   1499 T=   523. E= -.89024081E+02 F= -.10285492E+03 E0= -.10285798E+03  EK= 0.35819E+01 SP= 0.10E+02 SK= 0.12E-01
 bond charge predicted
 prediction of wavefunctions
       N       E                     dE             d eps       ncg     rms          rms(c)
DAV:   1    -0.102733619531E+03    0.12128E+00   -0.23951E-03   168   0.205E-01    0.736E-03
RMM:   2    -0.102733670876E+03   -0.51346E-04   -0.54713E-04   119   0.608E-02
   1500 T=   512. E= -.89023649E+02 F= -.10273367E+03 E0= -.10273640E+03  EK= 0.35099E+01 SP= 0.10E+02 SK= 0.20E-01
 bond charge predicted
 prediction of wavefunctions
       N       E                     dE             d eps       ncg     rms          rms(c)
DAV:   1    -0.102605914323E+03    0.12771E+00   -0.31456E-03   216   0.224E-01    0.879E-03
RMM:   2    -0.102606027070E+03   -0.11275E-03   -0.11694E-03   120   0.100E-01    0.598E-03
RMM:   3    -0.102606038507E+03   -0.11436E-04   -0.11842E-04    68   0.326E-02
   1501 T=   503. E= -.89023305E+02 F= -.10260604E+03 E0= -.10260855E+03  EK= 0.34429E+01 SP= 0.10E+02 SK= 0.31E-01
 bond charge predicted
 prediction of wavefunctions
       N       E                     dE             d eps       ncg     rms          rms(c)
DAV:   1    -0.102476026030E+03    0.13000E+00   -0.33491E-03   192   0.198E-01    0.649E-03
RMM:   2    -0.102476070890E+03   -0.44860E-04   -0.47770E-04   119   0.589E-02
   1502 T=   494. E= -.89022858E+02 F= -.10247607E+03 E0= -.10247845E+03  EK= 0.33861E+01 SP= 0.10E+02 SK= 0.45E-01
 bond charge predicted
 prediction of wavefunctions
       N       E                     dE             d eps       ncg     rms          rms(c)
DAV:   1    -0.102347635418E+03    0.12839E+00   -0.38796E-03   156   0.222E-01    0.995E-03
RMM:   2    -0.102347751108E+03   -0.11569E-03   -0.12124E-03   120   0.100E-01    0.638E-03
RMM:   3    -0.102347767618E+03   -0.16509E-04   -0.17268E-04    72   0.385E-02
   1503 T=   488. E= -.89022385E+02 F= -.10234777E+03 E0= -.10235007E+03  EK= 0.33445E+01 SP= 0.99E+01 SK= 0.64E-01
 bond charge predicted
 prediction of wavefunctions
       N       E                     dE             d eps       ncg     rms          rms(c)
DAV:   1    -0.102225064245E+03    0.12269E+00   -0.44856E-03   180   0.199E-01    0.749E-03
RMM:   2    -0.102225120492E+03   -0.56246E-04   -0.59930E-04   119   0.689E-02
   1504 T=   485. E= -.89021965E+02 F= -.10222512E+03 E0= -.10222737E+03  EK= 0.33228E+01 SP= 0.98E+01 SK= 0.88E-01
 bond charge predicted
 prediction of wavefunctions
       N       E                     dE             d eps       ncg     rms          rms(c)
DAV:   1    -0.102111116980E+03    0.11395E+00   -0.53158E-03   192   0.222E-01    0.124E-02
RMM:   2    -0.102111235714E+03   -0.11873E-03   -0.12869E-03   120   0.104E-01    0.753E-03
RMM:   3    -0.102111251450E+03   -0.15736E-04   -0.18032E-04    72   0.395E-02
   1505 T=   485. E= -.89021488E+02 F= -.10211125E+03 E0= -.10211347E+03  EK= 0.33253E+01 SP= 0.96E+01 SK= 0.12E+00
 bond charge predicted
 prediction of wavefunctions
       N       E                     dE             d eps       ncg     rms          rms(c)
DAV:   1    -0.102008918360E+03    0.10232E+00   -0.52272E-03   132   0.196E-01    0.100E-02
RMM:   2    -0.102008970223E+03   -0.51863E-04   -0.57751E-04   119   0.653E-02
   1506 T=   490. E= -.89021041E+02 F= -.10200897E+03 E0= -.10201117E+03  EK= 0.33554E+01 SP= 0.95E+01 SK= 0.15E+00
 bond charge predicted
 prediction of wavefunctions
       N       E                     dE             d eps       ncg     rms          rms(c)
DAV:   1    -0.101920171379E+03    0.88747E-01   -0.60174E-03   192   0.224E-01    0.116E-02
RMM:   2    -0.101920297262E+03   -0.12588E-03   -0.13560E-03   120   0.105E-01    0.635E-03
RMM:   3    -0.101920312999E+03   -0.15736E-04   -0.16902E-04    67   0.381E-02
   1507 T=   499. E= -.89020664E+02 F= -.10192031E+03 E0= -.10192252E+03  EK= 0.34161E+01 SP= 0.93E+01 SK= 0.18E+00
 bond charge predicted
 prediction of wavefunctions
       N       E                     dE             d eps       ncg     rms          rms(c)
DAV:   1    -0.101846320830E+03    0.73976E-01   -0.56207E-03   180   0.201E-01    0.986E-03
RMM:   2    -0.101846377778E+03   -0.56948E-04   -0.62904E-04   119   0.716E-02
   1508 T=   512. E= -.89020240E+02 F= -.10184638E+03 E0= -.10184860E+03  EK= 0.35092E+01 SP= 0.91E+01 SK= 0.21E+00
 bond charge predicted
 prediction of wavefunctions
       N       E                     dE             d eps       ncg     rms          rms(c)
DAV:   1    -0.101787622818E+03    0.58698E-01   -0.62772E-03   144   0.235E-01    0.121E-02
RMM:   2    -0.101787764475E+03   -0.14166E-03   -0.15276E-03   120   0.112E-01    0.658E-03
RMM:   3    -0.101787784067E+03   -0.19592E-04   -0.20669E-04    72   0.427E-02
   1509 T=   531. E= -.89019944E+02 F= -.10178778E+03 E0= -.10179006E+03  EK= 0.36355E+01 SP= 0.89E+01 SK= 0.24E+00
 bond charge predicted
 prediction of wavefunctions
       N       E                     dE             d eps       ncg     rms          rms(c)
DAV:   1    -0.101743687793E+03    0.44077E-01   -0.58010E-03   132   0.209E-01    0.950E-03
RMM:   2    -0.101743756194E+03   -0.68400E-04   -0.73943E-04   120   0.779E-02
   1510 T=   554. E= -.89019515E+02 F= -.10174376E+03 E0= -.10174614E+03  EK= 0.37942E+01 SP= 0.87E+01 SK= 0.26E+00
 bond charge predicted
 prediction of wavefunctions
       N       E                     dE             d eps       ncg     rms          rms(c)
DAV:   1    -0.101712540773E+03    0.31147E-01   -0.64904E-03   144   0.251E-01    0.128E-02
RMM:   2    -0.101712709148E+03   -0.16838E-03   -0.18079E-03   120   0.123E-01    0.768E-03
RMM:   3    -0.101712726458E+03   -0.17310E-04   -0.18835E-04    81   0.410E-02
   1511 T=   581. E= -.89019353E+02 F= -.10171273E+03 E0= -.10171529E+03  EK= 0.39825E+01 SP= 0.84E+01 SK= 0.27E+00
 bond charge predicted
 prediction of wavefunctions
       N       E                     dE             d eps       ncg     rms          rms(c)
DAV:   1    -0.101691492373E+03    0.21217E-01   -0.56378E-03   120   0.222E-01    0.942E-03
RMM:   2    -0.101691571916E+03   -0.79543E-04   -0.84804E-04   120   0.865E-02
   1512 T=   612. E= -.89019272E+02 F= -.10169157E+03 E0= -.10169446E+03  EK= 0.41948E+01 SP= 0.82E+01 SK= 0.27E+00
 bond charge predicted
 prediction of wavefunctions
       N       E                     dE             d eps       ncg     rms          rms(c)
DAV:   1    -0.101676589294E+03    0.14903E-01   -0.65263E-03   180   0.272E-01    0.142E-02
RMM:   2    -0.101676788878E+03   -0.19958E-03   -0.21483E-03   120   0.134E-01    0.824E-03
RMM:   3    -0.101676808941E+03   -0.20063E-04   -0.21232E-04    78   0.444E-02
   1513 T=   646. E= -.89019225E+02 F= -.10167681E+03 E0= -.10168027E+03  EK= 0.44237E+01 SP= 0.80E+01 SK= 0.26E+00
 bond charge predicted
 prediction of wavefunctions
       N       E                     dE             d eps       ncg     rms          rms(c)
DAV:   1    -0.101664697954E+03    0.12091E-01   -0.54539E-03   204   0.237E-01    0.105E-02
RMM:   2    -0.101664792858E+03   -0.94904E-04   -0.10190E-03   120   0.929E-02    0.752E-03
RMM:   3    -0.101664806735E+03   -0.13877E-04   -0.17686E-04    71   0.397E-02
   1514 T=   680. E= -.89019586E+02 F= -.10166481E+03 E0= -.10166916E+03  EK= 0.46594E+01 SP= 0.78E+01 SK= 0.24E+00
 bond charge predicted
 prediction of wavefunctions
       N       E                     dE             d eps       ncg     rms          rms(c)
DAV:   1    -0.101651800009E+03    0.12993E-01   -0.56381E-03   180   0.252E-01    0.118E-02
RMM:   2    -0.101651926099E+03   -0.12609E-03   -0.13763E-03   120   0.109E-01    0.630E-03
RMM:   3    -0.101651943745E+03   -0.17645E-04   -0.18715E-04    75   0.406E-02
   1515 T=   714. E= -.89019991E+02 F= -.10165194E+03 E0= -.10165720E+03  EK= 0.48910E+01 SP= 0.75E+01 SK= 0.20E+00
 bond charge predicted
 prediction of wavefunctions
       N       E                     dE             d eps       ncg     rms          rms(c)
DAV:   1    -0.101635379548E+03    0.16547E-01   -0.61396E-03   216   0.258E-01    0.185E-02
RMM:   2    -0.101635503270E+03   -0.12372E-03   -0.14848E-03   120   0.114E-01    0.105E-02
RMM:   3    -0.101635511784E+03   -0.85140E-05   -0.13449E-04    77   0.340E-02
   1516 T=   745. E= -.89020333E+02 F= -.10163551E+03 E0= -.10164122E+03  EK= 0.51070E+01 SP= 0.73E+01 SK= 0.16E+00
 bond charge predicted
 prediction of wavefunctions
       N       E                     dE             d eps       ncg     rms          rms(c)
DAV:   1    -0.101613556180E+03    0.21947E-01   -0.69952E-03   192   0.257E-01    0.989E-03
RMM:   2    -0.101613696064E+03   -0.13988E-03   -0.14467E-03   120   0.110E-01    0.643E-03
RMM:   3    -0.101613713587E+03   -0.17522E-04   -0.17620E-04    73   0.394E-02
   1517 T=   773. E= -.89020691E+02 F= -.10161371E+03 E0= -.10161958E+03  EK= 0.52956E+01 SP= 0.72E+01 SK= 0.11E+00
 bond charge predicted
 prediction of wavefunctions
       N       E                     dE             d eps       ncg     rms          rms(c)
DAV:   1    -0.101585395099E+03    0.28301E-01   -0.85024E-03   180   0.262E-01    0.142E-02
RMM:   2    -0.101585533006E+03   -0.13791E-03   -0.15127E-03   120   0.115E-01    0.838E-03
RMM:   3    -0.101585548036E+03   -0.15031E-04   -0.17188E-04    80   0.396E-02
   1518 T=   795. E= -.89020911E+02 F= -.10158555E+03 E0= -.10159159E+03  EK= 0.54462E+01 SP= 0.70E+01 SK= 0.72E-01
 bond charge predicted
 prediction of wavefunctions
       N       E                     dE             d eps       ncg     rms          rms(c)
DAV:   1    -0.101551293368E+03    0.34240E-01   -0.82353E-03   180   0.266E-01    0.141E-02
RMM:   2    -0.101551425982E+03   -0.13261E-03   -0.14273E-03   120   0.116E-01    0.862E-03
RMM:   3    -0.101551439803E+03   -0.13821E-04   -0.15808E-04    75   0.387E-02
   1519 T=   810. E= -.89020978E+02 F= -.10155144E+03 E0= -.10155776E+03  EK= 0.55508E+01 SP= 0.69E+01 SK= 0.36E-01
 bond charge predicted
 prediction of wavefunctions
       N       E                     dE             d eps       ncg     rms          rms(c)
DAV:   1    -0.101512196770E+03    0.39229E-01   -0.65888E-03   168   0.267E-01    0.959E-03
RMM:   2    -0.101512331444E+03   -0.13467E-03   -0.13853E-03   120   0.113E-01    0.618E-03
RMM:   3    -0.101512346834E+03   -0.15389E-04   -0.15439E-04    74   0.375E-02
   1520 T=   818. E= -.89020685E+02 F= -.10151235E+03 E0= -.10151893E+03  EK= 0.56040E+01 SP= 0.69E+01 SK= 0.12E-01
 bond charge predicted
 prediction of wavefunctions
       N       E                     dE             d eps       ncg     rms          rms(c)
DAV:   1    -0.101470041189E+03    0.42290E-01   -0.58313E-03   180   0.269E-01    0.877E-03
RMM:   2    -0.101470200841E+03   -0.15965E-03   -0.16190E-03   120   0.116E-01    0.604E-03
RMM:   3    -0.101470217830E+03   -0.16989E-04   -0.16296E-04    82   0.371E-02
   1521 T=   818. E= -.89020124E+02 F= -.10147022E+03 E0= -.10147694E+03  EK= 0.56041E+01 SP= 0.68E+01 SK= 0.68E-03
 bond charge predicted
 prediction of wavefunctions
       N       E                     dE             d eps       ncg     rms          rms(c)
DAV:   1    -0.101427395280E+03    0.42806E-01   -0.62137E-03   168   0.266E-01    0.901E-03
RMM:   2    -0.101427593396E+03   -0.19812E-03   -0.20145E-03   120   0.118E-01    0.594E-03
RMM:   3    -0.101427621646E+03   -0.28249E-04   -0.26842E-04    87   0.435E-02
   1522 T=   811. E= -.89019408E+02 F= -.10142762E+03 E0= -.10143440E+03  EK= 0.55531E+01 SP= 0.69E+01 SK= 0.31E-02
Information: wavefunction orthogonal band   60  0.6650
 bond charge predicted
 prediction of wavefunctions
       N       E                     dE             d eps       ncg     rms          rms(c)
DAV:   1    -0.101386125856E+03    0.41468E-01   -0.59019E-03   192   0.266E-01    0.106E-02
RMM:   2    -0.101386322288E+03   -0.19643E-03   -0.20221E-03   120   0.120E-01    0.689E-03
RMM:   3    -0.101386347681E+03   -0.25393E-04   -0.24210E-04    88   0.435E-02
   1523 T=   796. E= -.89018793E+02 F= -.10138635E+03 E0= -.10139326E+03  EK= 0.54553E+01 SP= 0.69E+01 SK= 0.18E-01
 bond charge predicted
 prediction of wavefunctions
       N       E                     dE             d eps       ncg     rms          rms(c)
DAV:   1    -0.101346216306E+03    0.40106E-01   -0.54766E-03   180   0.258E-01    0.765E-03
RMM:   2    -0.101346377144E+03   -0.16084E-03   -0.16219E-03   120   0.113E-01    0.517E-03
RMM:   3    -0.101346397310E+03   -0.20166E-04   -0.18615E-04    78   0.401E-02
   1524 T=   776. E= -.89017991E+02 F= -.10134640E+03 E0= -.10135362E+03  EK= 0.53163E+01 SP= 0.70E+01 SK= 0.42E-01
 bond charge predicted
 prediction of wavefunctions
       N       E                     dE             d eps       ncg     rms          rms(c)
DAV:   1    -0.101307237543E+03    0.39140E-01   -0.48319E-03   216   0.251E-01    0.669E-03
RMM:   2    -0.101307368615E+03   -0.13107E-03   -0.13105E-03   120   0.108E-01    0.536E-03
RMM:   3    -0.101307383584E+03   -0.14969E-04   -0.13939E-04    70   0.366E-02
   1525 T=   751. E= -.89017247E+02 F= -.10130738E+03 E0= -.10131503E+03  EK= 0.51429E+01 SP= 0.71E+01 SK= 0.71E-01
 bond charge predicted
 prediction of wavefunctions
       N       E                     dE             d eps       ncg     rms          rms(c)
DAV:   1    -0.101268154666E+03    0.39214E-01   -0.39257E-03   156   0.242E-01    0.786E-03
RMM:   2    -0.101268272363E+03   -0.11770E-03   -0.11930E-03   120   0.103E-01    0.575E-03
RMM:   3    -0.101268286765E+03   -0.14402E-04   -0.14045E-04    84   0.352E-02
   1526 T=   721. E= -.89016492E+02 F= -.10126829E+03 E0= -.10127625E+03  EK= 0.49425E+01 SP= 0.72E+01 SK= 0.10E+00
 bond charge predicted
 prediction of wavefunctions
       N       E                     dE             d eps       ncg     rms          rms(c)
DAV:   1    -0.101228053414E+03    0.40219E-01   -0.38820E-03   204   0.237E-01    0.776E-03
RMM:   2    -0.101228167705E+03   -0.11429E-03   -0.11786E-03   120   0.101E-01    0.462E-03
RMM:   3    -0.101228181290E+03   -0.13585E-04   -0.12898E-04    69   0.340E-02
   1527 T=   690. E= -.89015520E+02 F= -.10122818E+03 E0= -.10123618E+03  EK= 0.47237E+01 SP= 0.74E+01 SK= 0.13E+00
 bond charge predicted
 prediction of wavefunctions
       N       E                     dE             d eps       ncg     rms          rms(c)
DAV:   1    -0.101188134168E+03    0.40034E-01   -0.34910E-03   192   0.224E-01    0.580E-03
RMM:   2    -0.101188234954E+03   -0.10079E-03   -0.10105E-03   120   0.949E-02    0.468E-03
RMM:   3    -0.101188247534E+03   -0.12580E-04   -0.12010E-04    70   0.331E-02
   1528 T=   656. E= -.89014460E+02 F= -.10118825E+03 E0= -.10119604E+03  EK= 0.44962E+01 SP= 0.75E+01 SK= 0.15E+00
 bond charge predicted
 prediction of wavefunctions
       N       E                     dE             d eps       ncg     rms          rms(c)
DAV:   1    -0.101151564609E+03    0.36670E-01   -0.37530E-03   144   0.217E-01    0.806E-03
RMM:   2    -0.101151655232E+03   -0.90623E-04   -0.92825E-04   120   0.921E-02
   1529 T=   623. E= -.89013445E+02 F= -.10115166E+03 E0= -.10115907E+03  EK= 0.42710E+01 SP= 0.77E+01 SK= 0.16E+00
 bond charge predicted
 prediction of wavefunctions
       N       E                     dE             d eps       ncg     rms          rms(c)
DAV:   1    -0.101122867346E+03    0.28697E-01   -0.48773E-03   192   0.239E-01    0.711E-03
RMM:   2    -0.101123027585E+03   -0.16024E-03   -0.16172E-03   120   0.118E-01    0.561E-03
RMM:   3    -0.101123049974E+03   -0.22389E-04   -0.20764E-04    79   0.419E-02
   1530 T=   592. E= -.89012588E+02 F= -.10112305E+03 E0= -.10113002E+03  EK= 0.40588E+01 SP= 0.79E+01 SK= 0.16E+00
 bond charge predicted
 prediction of wavefunctions
       N       E                     dE             d eps       ncg     rms          rms(c)
DAV:   1    -0.101107462760E+03    0.15565E-01   -0.46584E-03   168   0.197E-01    0.690E-03
RMM:   2    -0.101107529182E+03   -0.66422E-04   -0.68437E-04   120   0.764E-02
   1531 T=   565. E= -.89011777E+02 F= -.10110753E+03 E0= -.10111404E+03  EK= 0.38697E+01 SP= 0.81E+01 SK= 0.16E+00
 bond charge predicted
 prediction of wavefunctions
       N       E                     dE             d eps       ncg     rms          rms(c)
DAV:   1    -0.101109655922E+03   -0.21932E-02   -0.66247E-03   180   0.236E-01    0.832E-03
RMM:   2    -0.101109818234E+03   -0.16231E-03   -0.16470E-03   120   0.116E-01    0.621E-03
RMM:   3    -0.101109831501E+03   -0.13267E-04   -0.11770E-04    65   0.318E-02
   1532 T=   542. E= -.89011216E+02 F= -.10110983E+03 E0= -.10111592E+03  EK= 0.37111E+01 SP= 0.82E+01 SK= 0.14E+00
 bond charge predicted
 prediction of wavefunctions
       N       E                     dE             d eps       ncg     rms          rms(c)
DAV:   1    -0.101133641066E+03   -0.23823E-01   -0.54408E-03   180   0.181E-01    0.495E-03
RMM:   2    -0.101133677515E+03   -0.36449E-04   -0.37179E-04   118   0.533E-02
   1533 T=   524. E= -.89010924E+02 F= -.10113368E+03 E0= -.10113943E+03  EK= 0.35884E+01 SP= 0.84E+01 SK= 0.13E+00
 bond charge predicted
 prediction of wavefunctions
       N       E                     dE             d eps       ncg     rms          rms(c)
DAV:   1    -0.101180777495E+03   -0.47136E-01   -0.60014E-03   216   0.221E-01    0.680E-03
RMM:   2    -0.101180909240E+03   -0.13175E-03   -0.13295E-03   120   0.107E-01    0.492E-03
RMM:   3    -0.101180921611E+03   -0.12370E-04   -0.11326E-04    68   0.317E-02
   1534 T=   511. E= -.89010880E+02 F= -.10118092E+03 E0= -.10118643E+03  EK= 0.35039E+01 SP= 0.86E+01 SK= 0.10E+00
 bond charge predicted
 prediction of wavefunctions
       N       E                     dE             d eps       ncg     rms          rms(c)
DAV:   1    -0.101250789166E+03   -0.69880E-01   -0.50194E-03   180   0.182E-01    0.536E-03
RMM:   2    -0.101250837292E+03   -0.48126E-04   -0.48966E-04   120   0.625E-02
   1535 T=   505. E= -.89010796E+02 F= -.10125084E+03 E0= -.10125616E+03  EK= 0.34571E+01 SP= 0.87E+01 SK= 0.84E-01
 bond charge predicted
 prediction of wavefunctions
       N       E                     dE             d eps       ncg     rms          rms(c)
DAV:   1    -0.101340843397E+03   -0.90054E-01   -0.59270E-03   192   0.220E-01    0.695E-03
RMM:   2    -0.101340977634E+03   -0.13424E-03   -0.13554E-03   120   0.106E-01    0.563E-03
RMM:   3    -0.101340991099E+03   -0.13465E-04   -0.12676E-04    65   0.329E-02
   1536 T=   503. E= -.89010948E+02 F= -.10134099E+03 E0= -.10134612E+03  EK= 0.34446E+01 SP= 0.88E+01 SK= 0.64E-01
 bond charge predicted
 prediction of wavefunctions
       N       E                     dE             d eps       ncg     rms          rms(c)
DAV:   1    -0.101446382444E+03   -0.10540E+00   -0.52941E-03   192   0.187E-01    0.470E-03
RMM:   2    -0.101446442650E+03   -0.60207E-04   -0.60731E-04   119   0.658E-02
   1537 T=   505. E= -.89010956E+02 F= -.10144644E+03 E0= -.10145126E+03  EK= 0.34610E+01 SP= 0.89E+01 SK= 0.47E-01
 bond charge predicted
 prediction of wavefunctions
       N       E                     dE             d eps       ncg     rms          rms(c)
DAV:   1    -0.101561292658E+03   -0.11491E+00   -0.66116E-03   204   0.225E-01    0.888E-03
RMM:   2    -0.101561445342E+03   -0.15268E-03   -0.15748E-03   120   0.112E-01    0.615E-03
RMM:   3    -0.101561461060E+03   -0.15717E-04   -0.15201E-04    71   0.364E-02
   1538 T=   511. E= -.89011064E+02 F= -.10156146E+03 E0= -.10156586E+03  EK= 0.34997E+01 SP= 0.90E+01 SK= 0.33E-01
 bond charge predicted
 prediction of wavefunctions
       N       E                     dE             d eps       ncg     rms          rms(c)
DAV:   1    -0.101679244121E+03   -0.11780E+00   -0.63463E-03   192   0.197E-01    0.628E-03
RMM:   2    -0.101679337893E+03   -0.93772E-04   -0.97270E-04   120   0.723E-02
   1539 T=   519. E= -.89011084E+02 F= -.10167934E+03 E0= -.10168329E+03  EK= 0.35530E+01 SP= 0.91E+01 SK= 0.23E-01
Information: wavefunction orthogonal band   60  0.8892
 bond charge predicted
 prediction of wavefunctions
       N       E                     dE             d eps       ncg     rms          rms(c)
DAV:   1    -0.101793634106E+03   -0.11439E+00   -0.77116E-03   192   0.235E-01    0.919E-03
RMM:   2    -0.101793804069E+03   -0.16996E-03   -0.17532E-03   120   0.117E-01    0.613E-03
RMM:   3    -0.101793820246E+03   -0.16177E-04   -0.14645E-04    75   0.369E-02
   1540 T=   527. E= -.89011068E+02 F= -.10179382E+03 E0= -.10179742E+03  EK= 0.36137E+01 SP= 0.92E+01 SK= 0.15E-01
 bond charge predicted
 prediction of wavefunctions
       N       E                     dE             d eps       ncg     rms          rms(c)
DAV:   1    -0.101899190486E+03   -0.10539E+00   -0.62197E-03   192   0.204E-01    0.587E-03
RMM:   2    -0.101899271996E+03   -0.81510E-04   -0.84062E-04   120   0.733E-02
   1541 T=   536. E= -.89011041E+02 F= -.10189927E+03 E0= -.10190261E+03  EK= 0.36752E+01 SP= 0.92E+01 SK= 0.95E-02
 bond charge predicted
 prediction of wavefunctions
       N       E                     dE             d eps       ncg     rms          rms(c)
DAV:   1    -0.101991144281E+03   -0.91954E-01   -0.70173E-03   192   0.236E-01    0.975E-03
RMM:   2    -0.101991307122E+03   -0.16284E-03   -0.16864E-03   120   0.117E-01    0.681E-03
RMM:   3    -0.101991323184E+03   -0.16062E-04   -0.15371E-04    78   0.377E-02
   1542 T=   545. E= -.89010939E+02 F= -.10199132E+03 E0= -.10199449E+03  EK= 0.37323E+01 SP= 0.92E+01 SK= 0.57E-02
 bond charge predicted
 prediction of wavefunctions
       N       E                     dE             d eps       ncg     rms          rms(c)
DAV:   1    -0.102067042709E+03   -0.75736E-01   -0.51356E-03   156   0.211E-01    0.688E-03
RMM:   2    -0.102067123023E+03   -0.80314E-04   -0.84458E-04   120   0.755E-02
   1543 T=   552. E= -.89010638E+02 F= -.10206712E+03 E0= -.10207019E+03  EK= 0.37812E+01 SP= 0.93E+01 SK= 0.32E-02
 bond charge predicted
 prediction of wavefunctions
       N       E                     dE             d eps       ncg     rms          rms(c)
DAV:   1    -0.102125687779E+03   -0.58645E-01   -0.53549E-03   204   0.241E-01    0.101E-02
RMM:   2    -0.102125859301E+03   -0.17152E-03   -0.17806E-03   120   0.120E-01    0.640E-03
RMM:   3    -0.102125877258E+03   -0.17957E-04   -0.17012E-04    69   0.394E-02
   1544 T=   558. E= -.89010313E+02 F= -.10212588E+03 E0= -.10212893E+03  EK= 0.38201E+01 SP= 0.93E+01 SK= 0.16E-02
 bond charge predicted
 prediction of wavefunctions
       N       E                     dE             d eps       ncg     rms          rms(c)
DAV:   1    -0.102168031338E+03   -0.42172E-01   -0.45623E-03   168   0.212E-01    0.734E-03
RMM:   2    -0.102168102504E+03   -0.71166E-04   -0.75581E-04   120   0.755E-02
   1545 T=   562. E= -.89009927E+02 F= -.10216810E+03 E0= -.10217120E+03  EK= 0.38490E+01 SP= 0.93E+01 SK= 0.64E-03
 bond charge predicted
 prediction of wavefunctions
       N       E                     dE             d eps       ncg     rms          rms(c)
DAV:   1    -0.102195222945E+03   -0.27192E-01   -0.50942E-03   216   0.247E-01    0.989E-03
RMM:   2    -0.102195398818E+03   -0.17587E-03   -0.18184E-03   120   0.121E-01    0.645E-03
RMM:   3    -0.102195418484E+03   -0.19666E-04   -0.18913E-04    74   0.409E-02
   1546 T=   565. E= -.89009158E+02 F= -.10219542E+03 E0= -.10219861E+03  EK= 0.38692E+01 SP= 0.93E+01 SK= 0.14E-03
 bond charge predicted
 prediction of wavefunctions
       N       E                     dE             d eps       ncg     rms          rms(c)
DAV:   1    -0.102211429247E+03   -0.16030E-01   -0.45525E-03   168   0.213E-01    0.796E-03
RMM:   2    -0.102211491605E+03   -0.62358E-04   -0.68032E-04   120   0.751E-02
   1547 T=   567. E= -.89008578E+02 F= -.10221149E+03 E0= -.10221485E+03  EK= 0.38834E+01 SP= 0.93E+01 SK= 0.18E-06
 bond charge predicted
 prediction of wavefunctions
       N       E                     dE             d eps       ncg     rms          rms(c)
DAV:   1    -0.102219855972E+03   -0.84267E-02   -0.48293E-03   168   0.244E-01    0.973E-03
RMM:   2    -0.102220017478E+03   -0.16151E-03   -0.16727E-03   120   0.117E-01    0.616E-03
RMM:   3    -0.102220037571E+03   -0.20093E-04   -0.19668E-04    79   0.417E-02
   1548 T=   569. E= -.89008072E+02 F= -.10222004E+03 E0= -.10222360E+03  EK= 0.38951E+01 SP= 0.93E+01 SK= 0.15E-03
 bond charge predicted
 prediction of wavefunctions
       N       E                     dE             d eps       ncg     rms          rms(c)
DAV:   1    -0.102224892719E+03   -0.48752E-02   -0.40603E-03   192   0.211E-01    0.674E-03
RMM:   2    -0.102224956484E+03   -0.63765E-04   -0.67317E-04   120   0.752E-02
   1549 T=   570. E= -.89007544E+02 F= -.10222496E+03 E0= -.10222876E+03  EK= 0.39081E+01 SP= 0.93E+01 SK= 0.54E-03
 bond charge predicted
 prediction of wavefunctions
       N       E                     dE             d eps       ncg     rms          rms(c)
DAV:   1    -0.102229807379E+03   -0.49147E-02   -0.48143E-03   168   0.244E-01    0.912E-03
RMM:   2    -0.102229965099E+03   -0.15772E-03   -0.16168E-03   120   0.116E-01    0.582E-03
RMM:   3    -0.102229983636E+03   -0.18538E-04   -0.17634E-04    76   0.392E-02
   1550 T=   573. E= -.89006964E+02 F= -.10222998E+03 E0= -.10223407E+03  EK= 0.39260E+01 SP= 0.93E+01 SK= 0.11E-02
 bond charge predicted
 prediction of wavefunctions
       N       E                     dE             d eps       ncg     rms          rms(c)
DAV:   1    -0.102238577137E+03   -0.86120E-02   -0.43285E-03   180   0.211E-01    0.664E-03
RMM:   2    -0.102238640454E+03   -0.63317E-04   -0.66548E-04   120   0.763E-02
   1551 T=   577. E= -.89006410E+02 F= -.10223864E+03 E0= -.10224303E+03  EK= 0.39517E+01 SP= 0.93E+01 SK= 0.18E-02
 bond charge predicted
 prediction of wavefunctions
       N       E                     dE             d eps       ncg     rms          rms(c)
DAV:   1    -0.102253039308E+03   -0.14462E-01   -0.54230E-03   204   0.247E-01    0.949E-03
RMM:   2    -0.102253200029E+03   -0.16072E-03   -0.16573E-03   120   0.120E-01    0.614E-03
RMM:   3    -0.102253218106E+03   -0.18076E-04   -0.17344E-04    69   0.396E-02
   1552 T=   582. E= -.89006017E+02 F= -.10225322E+03 E0= -.10225792E+03  EK= 0.39869E+01 SP= 0.93E+01 SK= 0.25E-02
 bond charge predicted
 prediction of wavefunctions
       N       E                     dE             d eps       ncg     rms          rms(c)
DAV:   1    -0.102274187492E+03   -0.20987E-01   -0.47362E-03   144   0.210E-01    0.613E-03
RMM:   2    -0.102274252455E+03   -0.64962E-04   -0.67110E-04   120   0.762E-02
   1553 T=   588. E= -.89005715E+02 F= -.10227425E+03 E0= -.10227927E+03  EK= 0.40314E+01 SP= 0.92E+01 SK= 0.31E-02
 bond charge predicted
 prediction of wavefunctions
       N       E                     dE             d eps       ncg     rms          rms(c)
DAV:   1    -0.102301828985E+03   -0.27641E-01   -0.50731E-03   192   0.242E-01    0.988E-03
RMM:   2    -0.102301984608E+03   -0.15562E-03   -0.16156E-03   120   0.118E-01    0.618E-03
RMM:   3    -0.102302005882E+03   -0.21274E-04   -0.21097E-04    78   0.434E-02
   1554 T=   596. E= -.89005548E+02 F= -.10230201E+03 E0= -.10230733E+03  EK= 0.40846E+01 SP= 0.92E+01 SK= 0.34E-02
 bond charge predicted
 prediction of wavefunctions
       N       E                     dE             d eps       ncg     rms          rms(c)
DAV:   1    -0.102335968318E+03   -0.33984E-01   -0.43842E-03   204   0.212E-01    0.614E-03
RMM:   2    -0.102336035808E+03   -0.67490E-04   -0.69790E-04   120   0.775E-02
   1555 T=   605. E= -.89005201E+02 F= -.10233604E+03 E0= -.10234167E+03  EK= 0.41450E+01 SP= 0.92E+01 SK= 0.33E-02
 bond charge predicted
 prediction of wavefunctions
       N       E                     dE             d eps       ncg     rms          rms(c)
DAV:   1    -0.102375326226E+03   -0.39358E-01   -0.47202E-03   144   0.242E-01    0.106E-02
RMM:   2    -0.102375489698E+03   -0.16347E-03   -0.17126E-03   120   0.118E-01    0.655E-03
RMM:   3    -0.102375509453E+03   -0.19754E-04   -0.19845E-04    77   0.417E-02
   1556 T=   615. E= -.89004945E+02 F= -.10237551E+03 E0= -.10238142E+03  EK= 0.42102E+01 SP= 0.92E+01 SK= 0.29E-02
 bond charge predicted
 prediction of wavefunctions
       N       E                     dE             d eps       ncg     rms          rms(c)
DAV:   1    -0.102418718771E+03   -0.43229E-01   -0.42717E-03   156   0.210E-01    0.697E-03
RMM:   2    -0.102418776805E+03   -0.58034E-04   -0.61026E-04   120   0.750E-02
   1557 T=   624. E= -.89004778E+02 F= -.10241878E+03 E0= -.10242492E+03  EK= 0.42767E+01 SP= 0.91E+01 SK= 0.21E-02
 bond charge predicted
 prediction of wavefunctions
       N       E                     dE             d eps       ncg     rms          rms(c)
DAV:   1    -0.102463564351E+03   -0.44846E-01   -0.51226E-03   168   0.242E-01    0.111E-02
RMM:   2    -0.102463717909E+03   -0.15356E-03   -0.16254E-03   120   0.118E-01    0.679E-03
RMM:   3    -0.102463735150E+03   -0.17240E-04   -0.17738E-04    78   0.400E-02
   1558 T=   634. E= -.89004593E+02 F= -.10246374E+03 E0= -.10247005E+03  EK= 0.43408E+01 SP= 0.91E+01 SK= 0.12E-02
 bond charge predicted
 prediction of wavefunctions
       N       E                     dE             d eps       ncg     rms          rms(c)
DAV:   1    -0.102508533633E+03   -0.44816E-01   -0.46178E-03   156   0.211E-01    0.739E-03
RMM:   2    -0.102508599006E+03   -0.65373E-04   -0.68973E-04   120   0.768E-02
   1559 T=   642. E= -.89004173E+02 F= -.10250860E+03 E0= -.10251503E+03  EK= 0.43990E+01 SP= 0.91E+01 SK= 0.39E-03
 bond charge predicted
 prediction of wavefunctions
       N       E                     dE             d eps       ncg     rms          rms(c)
DAV:   1    -0.102552088225E+03   -0.43555E-01   -0.58969E-03   204   0.242E-01    0.114E-02
RMM:   2    -0.102552253409E+03   -0.16518E-03   -0.17501E-03   120   0.120E-01    0.681E-03
RMM:   3    -0.102552271333E+03   -0.17924E-04   -0.18633E-04    73   0.409E-02
   1560 T=   649. E= -.89003904E+02 F= -.10255227E+03 E0= -.10255879E+03  EK= 0.44482E+01 SP= 0.91E+01 SK= 0.39E-05
Information: wavefunction orthogonal band   60  0.8930
 bond charge predicted
 prediction of wavefunctions
       N       E                     dE             d eps       ncg     rms          rms(c)
DAV:   1    -0.102593141912E+03   -0.40889E-01   -0.54175E-03   168   0.212E-01    0.829E-03
RMM:   2    -0.102593215120E+03   -0.73209E-04   -0.78311E-04   120   0.789E-02
   1561 T=   655. E= -.89003510E+02 F= -.10259322E+03 E0= -.10259982E+03  EK= 0.44856E+01 SP= 0.91E+01 SK= 0.33E-03
 bond charge predicted
 prediction of wavefunctions
       N       E                     dE             d eps       ncg     rms          rms(c)
DAV:   1    -0.102630678427E+03   -0.37537E-01   -0.61626E-03   192   0.244E-01    0.124E-02
RMM:   2    -0.102630873257E+03   -0.19483E-03   -0.20695E-03   120   0.122E-01    0.719E-03
RMM:   3    -0.102630896422E+03   -0.23165E-04   -0.23534E-04    95   0.439E-02
   1562 T=   658. E= -.89003216E+02 F= -.10263090E+03 E0= -.10263765E+03  EK= 0.45092E+01 SP= 0.91E+01 SK= 0.16E-02
 bond charge predicted
 prediction of wavefunctions
       N       E                     dE             d eps       ncg     rms          rms(c)
DAV:   1    -0.102663964310E+03   -0.33091E-01   -0.69337E-03   156   0.212E-01    0.946E-03
RMM:   2    -0.102664042935E+03   -0.78625E-04   -0.85721E-04   120   0.840E-02
   1563 T=   659. E= -.89002832E+02 F= -.10266404E+03 E0= -.10267102E+03  EK= 0.45174E+01 SP= 0.91E+01 SK= 0.39E-02
 bond charge predicted
 prediction of wavefunctions
       N       E                     dE             d eps       ncg     rms          rms(c)
DAV:   1    -0.102691801899E+03   -0.27838E-01   -0.79881E-03   180   0.250E-01    0.109E-02
RMM:   2    -0.102691982401E+03   -0.18050E-03   -0.18952E-03   120   0.127E-01    0.640E-03
RMM:   3    -0.102692001040E+03   -0.18639E-04   -0.17540E-04    76   0.411E-02
   1564 T=   658. E= -.89002613E+02 F= -.10269200E+03 E0= -.10269931E+03  EK= 0.45089E+01 SP= 0.92E+01 SK= 0.73E-02
 bond charge predicted
 prediction of wavefunctions
       N       E                     dE             d eps       ncg     rms          rms(c)
DAV:   1    -0.102713615335E+03   -0.21633E-01   -0.62185E-03   144   0.211E-01    0.799E-03
RMM:   2    -0.102713685446E+03   -0.70111E-04   -0.74648E-04   120   0.782E-02
   1565 T=   654. E= -.89002142E+02 F= -.10271369E+03 E0= -.10272145E+03  EK= 0.44836E+01 SP= 0.92E+01 SK= 0.11E-01
 bond charge predicted
 prediction of wavefunctions
       N       E                     dE             d eps       ncg     rms          rms(c)
DAV:   1    -0.102728545228E+03   -0.14930E-01   -0.65998E-03   192   0.246E-01    0.104E-02
RMM:   2    -0.102728721589E+03   -0.17636E-03   -0.18325E-03   120   0.122E-01    0.638E-03
RMM:   3    -0.102728741250E+03   -0.19661E-04   -0.18993E-04    74   0.416E-02
   1566 T=   648. E= -.89001637E+02 F= -.10272874E+03 E0= -.10273704E+03  EK= 0.44419E+01 SP= 0.93E+01 SK= 0.16E-01
 bond charge predicted
 prediction of wavefunctions
       N       E                     dE             d eps       ncg     rms          rms(c)
DAV:   1    -0.102736906267E+03   -0.81847E-02   -0.58141E-03   180   0.209E-01    0.784E-03
RMM:   2    -0.102736972468E+03   -0.66201E-04   -0.70469E-04   120   0.777E-02
   1567 T=   640. E= -.89001172E+02 F= -.10273697E+03 E0= -.10274579E+03  EK= 0.43849E+01 SP= 0.93E+01 SK= 0.21E-01
 bond charge predicted
 prediction of wavefunctions
       N       E                     dE             d eps       ncg     rms          rms(c)
DAV:   1    -0.102738039284E+03   -0.11330E-02   -0.64754E-03   180   0.241E-01    0.110E-02
RMM:   2    -0.102738192662E+03   -0.15338E-03   -0.16103E-03   120   0.119E-01    0.676E-03
RMM:   3    -0.102738209527E+03   -0.16865E-04   -0.17180E-04    79   0.398E-02
   1568 T=   630. E= -.89000621E+02 F= -.10273821E+03 E0= -.10274739E+03  EK= 0.43146E+01 SP= 0.94E+01 SK= 0.25E-01
 bond charge predicted
 prediction of wavefunctions
       N       E                     dE             d eps       ncg     rms          rms(c)
DAV:   1    -0.102732990039E+03    0.52026E-02   -0.57498E-03   156   0.208E-01    0.738E-03
RMM:   2    -0.102733058954E+03   -0.68915E-04   -0.73046E-04   120   0.800E-02
   1569 T=   618. E= -.89000124E+02 F= -.10273306E+03 E0= -.10274236E+03  EK= 0.42338E+01 SP= 0.95E+01 SK= 0.28E-01
 bond charge predicted
 prediction of wavefunctions
       N       E                     dE             d eps       ncg     rms          rms(c)
DAV:   1    -0.102722170939E+03    0.10819E-01   -0.68932E-03   180   0.242E-01    0.105E-02
RMM:   2    -0.102722333441E+03   -0.16250E-03   -0.16960E-03   120   0.119E-01    0.675E-03
RMM:   3    -0.102722350272E+03   -0.16831E-04   -0.16621E-04    70   0.389E-02
   1570 T=   605. E= -.88999512E+02 F= -.10272235E+03 E0= -.10273154E+03  EK= 0.41457E+01 SP= 0.95E+01 SK= 0.30E-01
 bond charge predicted
 prediction of wavefunctions
       N       E                     dE             d eps       ncg     rms          rms(c)
DAV:   1    -0.102707812328E+03    0.14521E-01   -0.64824E-03   144   0.202E-01    0.712E-03
RMM:   2    -0.102707871829E+03   -0.59501E-04   -0.62984E-04   120   0.748E-02
   1571 T=   592. E= -.88999013E+02 F= -.10270787E+03 E0= -.10271684E+03  EK= 0.40544E+01 SP= 0.96E+01 SK= 0.29E-01
 bond charge predicted
 prediction of wavefunctions
       N       E                     dE             d eps       ncg     rms          rms(c)
DAV:   1    -0.102691238566E+03    0.16574E-01   -0.76083E-03   168   0.237E-01    0.110E-02
RMM:   2    -0.102691392273E+03   -0.15371E-03   -0.16204E-03   120   0.117E-01    0.663E-03
RMM:   3    -0.102691412228E+03   -0.19955E-04   -0.20205E-04    76   0.430E-02
   1572 T=   579. E= -.88998611E+02 F= -.10269141E+03 E0= -.10270013E+03  EK= 0.39640E+01 SP= 0.97E+01 SK= 0.28E-01
 bond charge predicted
 prediction of wavefunctions
       N       E                     dE             d eps       ncg     rms          rms(c)
DAV:   1    -0.102674473227E+03    0.16919E-01   -0.70399E-03   156   0.199E-01    0.685E-03
RMM:   2    -0.102674539470E+03   -0.66243E-04   -0.69324E-04   120   0.779E-02
   1573 T=   566. E= -.88998061E+02 F= -.10267454E+03 E0= -.10268304E+03  EK= 0.38782E+01 SP= 0.98E+01 SK= 0.24E-01
 bond charge predicted
 prediction of wavefunctions
       N       E                     dE             d eps       ncg     rms          rms(c)
DAV:   1    -0.102659115498E+03    0.15358E-01   -0.75650E-03   180   0.231E-01    0.121E-02
RMM:   2    -0.102659256737E+03   -0.14124E-03   -0.15092E-03   120   0.114E-01    0.764E-03
RMM:   3    -0.102659270179E+03   -0.13442E-04   -0.14988E-04    66   0.369E-02
   1574 T=   555. E= -.88997613E+02 F= -.10265927E+03 E0= -.10266754E+03  EK= 0.38006E+01 SP= 0.98E+01 SK= 0.20E-01
 bond charge predicted
 prediction of wavefunctions
       N       E                     dE             d eps       ncg     rms          rms(c)
DAV:   1    -0.102647108512E+03    0.12148E-01   -0.63556E-03   156   0.197E-01    0.731E-03
RMM:   2    -0.102647169657E+03   -0.61144E-04   -0.64998E-04   120   0.762E-02
   1575 T=   545. E= -.88997222E+02 F= -.10264717E+03 E0= -.10265516E+03  EK= 0.37341E+01 SP= 0.99E+01 SK= 0.15E-01
 bond charge predicted
 prediction of wavefunctions
       N       E                     dE             d eps       ncg     rms          rms(c)
DAV:   1    -0.102639330723E+03    0.77778E-02   -0.61768E-03   192   0.229E-01    0.123E-02
RMM:   2    -0.102639476833E+03   -0.14611E-03   -0.15732E-03   120   0.115E-01    0.725E-03
RMM:   3    -0.102639495403E+03   -0.18570E-04   -0.19547E-04    73   0.428E-02
   1576 T=   537. E= -.88996993E+02 F= -.10263950E+03 E0= -.10264708E+03  EK= 0.36810E+01 SP= 0.10E+02 SK= 0.10E-01
 bond charge predicted
 prediction of wavefunctions
       N       E                     dE             d eps       ncg     rms          rms(c)
DAV:   1    -0.102636277767E+03    0.31991E-02   -0.50626E-03   180   0.195E-01    0.854E-03
RMM:   2    -0.102636333771E+03   -0.56004E-04   -0.61425E-04   120   0.745E-02
   1577 T=   532. E= -.88996784E+02 F= -.10263633E+03 E0= -.10264340E+03  EK= 0.36422E+01 SP= 0.10E+02 SK= 0.59E-02
 bond charge predicted
 prediction of wavefunctions
       N       E                     dE             d eps       ncg     rms          rms(c)
DAV:   1    -0.102637311169E+03   -0.10334E-02   -0.47630E-03   168   0.224E-01    0.132E-02
RMM:   2    -0.102637446385E+03   -0.13522E-03   -0.14828E-03   120   0.112E-01    0.777E-03
RMM:   3    -0.102637462298E+03   -0.15913E-04   -0.17892E-04    70   0.401E-02
   1578 T=   528. E= -.88996469E+02 F= -.10263746E+03 E0= -.10264401E+03  EK= 0.36182E+01 SP= 0.10E+02 SK= 0.26E-02
 bond charge predicted
 prediction of wavefunctions
       N       E                     dE             d eps       ncg     rms          rms(c)
DAV:   1    -0.102642145895E+03   -0.46995E-02   -0.39144E-03   168   0.193E-01    0.864E-03
RMM:   2    -0.102642200284E+03   -0.54390E-04   -0.59605E-04   120   0.736E-02
   1579 T=   527. E= -.88996263E+02 F= -.10264220E+03 E0= -.10264832E+03  EK= 0.36084E+01 SP= 0.10E+02 SK= 0.57E-03
 bond charge predicted
 prediction of wavefunctions
       N       E                     dE             d eps       ncg     rms          rms(c)
DAV:   1    -0.102648524551E+03   -0.63787E-02   -0.41173E-03   156   0.223E-01    0.123E-02
RMM:   2    -0.102648665509E+03   -0.14096E-03   -0.15169E-03   120   0.113E-01    0.712E-03
RMM:   3    -0.102648683077E+03   -0.17567E-04   -0.18081E-04    68   0.409E-02
   1580 T=   527. E= -.88996109E+02 F= -.10264868E+03 E0= -.10265452E+03  EK= 0.36110E+01 SP= 0.10E+02 SK= 0.12E-04
 bond charge predicted
 prediction of wavefunctions
       N       E                     dE             d eps       ncg     rms          rms(c)
DAV:   1    -0.102654596042E+03   -0.59305E-02   -0.34313E-03   180   0.191E-01    0.826E-03
RMM:   2    -0.102654655681E+03   -0.59639E-04   -0.64340E-04   120   0.725E-02
   1581 T=   529. E= -.88995774E+02 F= -.10265466E+03 E0= -.10266031E+03  EK= 0.36240E+01 SP= 0.10E+02 SK= 0.91E-03
 bond charge predicted
 prediction of wavefunctions
       N       E                     dE             d eps       ncg     rms          rms(c)
DAV:   1    -0.102658338527E+03   -0.37425E-02   -0.54351E-03   204   0.221E-01    0.120E-02
RMM:   2    -0.102658473998E+03   -0.13547E-03   -0.14587E-03   120   0.111E-01    0.722E-03
RMM:   3    -0.102658486524E+03   -0.12526E-04   -0.13647E-04    65   0.355E-02
   1582 T=   532. E= -.88995762E+02 F= -.10265849E+03 E0= -.10266403E+03  EK= 0.36450E+01 SP= 0.10E+02 SK= 0.31E-02
 bond charge predicted
 prediction of wavefunctions
       N       E                     dE             d eps       ncg     rms          rms(c)
DAV:   1    -0.102657824155E+03    0.64984E-03   -0.49206E-03   204   0.197E-01    0.889E-03
RMM:   2    -0.102657897770E+03   -0.73615E-04   -0.79028E-04   120   0.807E-02
   1583 T=   536. E= -.88995641E+02 F= -.10265790E+03 E0= -.10266333E+03  EK= 0.36719E+01 SP= 0.10E+02 SK= 0.65E-02
 bond charge predicted
 prediction of wavefunctions
       N       E                     dE             d eps       ncg     rms          rms(c)
DAV:   1    -0.102650959782E+03    0.68644E-02   -0.57001E-03   204   0.232E-01    0.134E-02
RMM:   2    -0.102651126524E+03   -0.16674E-03   -0.17909E-03   120   0.122E-01    0.839E-03
RMM:   3    -0.102651142394E+03   -0.15871E-04   -0.16867E-04    74   0.400E-02
   1584 T=   540. E= -.88995425E+02 F= -.10265114E+03 E0= -.10265640E+03  EK= 0.37025E+01 SP= 0.99E+01 SK= 0.11E-01
 bond charge predicted
 prediction of wavefunctions
       N       E                     dE             d eps       ncg     rms          rms(c)
DAV:   1    -0.102636892552E+03    0.14234E-01   -0.53894E-03   168   0.203E-01    0.923E-03
RMM:   2    -0.102636979347E+03   -0.86795E-04   -0.92729E-04   120   0.826E-02
   1585 T=   545. E= -.88995238E+02 F= -.10263698E+03 E0= -.10264192E+03  EK= 0.37350E+01 SP= 0.99E+01 SK= 0.15E-01
 bond charge predicted
 prediction of wavefunctions
       N       E                     dE             d eps       ncg     rms          rms(c)
DAV:   1    -0.102614436231E+03    0.22456E-01   -0.64030E-03   204   0.239E-01    0.144E-02
RMM:   2    -0.102614612627E+03   -0.17640E-03   -0.19133E-03   120   0.125E-01    0.805E-03
RMM:   3    -0.102614629922E+03   -0.17295E-04   -0.17611E-04    75   0.415E-02
   1586 T=   550. E= -.88994949E+02 F= -.10261463E+03 E0= -.10261913E+03  EK= 0.37682E+01 SP= 0.98E+01 SK= 0.21E-01
 bond charge predicted
 prediction of wavefunctions
       N       E                     dE             d eps       ncg     rms          rms(c)
DAV:   1    -0.102584479313E+03    0.30133E-01   -0.47470E-03   180   0.210E-01    0.103E-02
RMM:   2    -0.102584562239E+03   -0.82926E-04   -0.90618E-04   120   0.853E-02
   1587 T=   555. E= -.88994687E+02 F= -.10258456E+03 E0= -.10258853E+03  EK= 0.38017E+01 SP= 0.98E+01 SK= 0.26E-01
 bond charge predicted
 prediction of wavefunctions
       N       E                     dE             d eps       ncg     rms          rms(c)
DAV:   1    -0.102547794685E+03    0.36685E-01   -0.49966E-03   180   0.248E-01    0.148E-02
RMM:   2    -0.102547975837E+03   -0.18115E-03   -0.19690E-03   120   0.129E-01    0.863E-03
RMM:   3    -0.102547994210E+03   -0.18373E-04   -0.19563E-04    76   0.437E-02
   1588 T=   560. E= -.88994211E+02 F= -.10254799E+03 E0= -.10255145E+03  EK= 0.38364E+01 SP= 0.97E+01 SK= 0.31E-01
 bond charge predicted
 prediction of wavefunctions
       N       E                     dE             d eps       ncg     rms          rms(c)
DAV:   1    -0.102507133070E+03    0.40843E-01   -0.40284E-03   168   0.215E-01    0.115E-02
RMM:   2    -0.102507216405E+03   -0.83335E-04   -0.93439E-04   120   0.869E-02
   1589 T=   565. E= -.88993760E+02 F= -.10250722E+03 E0= -.10251026E+03  EK= 0.38737E+01 SP= 0.96E+01 SK= 0.36E-01
 bond charge predicted
 prediction of wavefunctions
       N       E                     dE             d eps       ncg     rms          rms(c)
DAV:   1    -0.102464153917E+03    0.42979E-01   -0.47866E-03   192   0.255E-01    0.142E-02
RMM:   2    -0.102464360024E+03   -0.20611E-03   -0.21855E-03   120   0.131E-01    0.820E-03
RMM:   3    -0.102464385006E+03   -0.24982E-04   -0.25248E-04    83   0.479E-02
   1590 T=   571. E= -.88993285E+02 F= -.10246439E+03 E0= -.10246711E+03  EK= 0.39152E+01 SP= 0.95E+01 SK= 0.41E-01
 bond charge predicted
 prediction of wavefunctions
       N       E                     dE             d eps       ncg     rms          rms(c)
DAV:   1    -0.102421718850E+03    0.42641E-01   -0.36871E-03   204   0.220E-01    0.115E-02
RMM:   2    -0.102421798187E+03   -0.79337E-04   -0.89646E-04   120   0.906E-02
   1591 T=   578. E= -.88992751E+02 F= -.10242180E+03 E0= -.10242431E+03  EK= 0.39624E+01 SP= 0.94E+01 SK= 0.44E-01
 bond charge predicted
 prediction of wavefunctions
       N       E                     dE             d eps       ncg     rms          rms(c)
DAV:   1    -0.102381426802E+03    0.40292E-01   -0.41370E-03   168   0.262E-01    0.120E-02
RMM:   2    -0.102381619517E+03   -0.19271E-03   -0.20107E-03   120   0.130E-01    0.737E-03
RMM:   3    -0.102381639900E+03   -0.20382E-04   -0.19938E-04    73   0.436E-02
   1592 T=   586. E= -.88992340E+02 F= -.10238164E+03 E0= -.10238401E+03  EK= 0.40163E+01 SP= 0.93E+01 SK= 0.47E-01
 bond charge predicted
 prediction of wavefunctions
       N       E                     dE             d eps       ncg     rms          rms(c)
DAV:   1    -0.102344840395E+03    0.36779E-01   -0.32858E-03   180   0.222E-01    0.962E-03
RMM:   2    -0.102344915090E+03   -0.74696E-04   -0.81438E-04   120   0.862E-02
   1593 T=   595. E= -.88991920E+02 F= -.10234492E+03 E0= -.10234721E+03  EK= 0.40772E+01 SP= 0.92E+01 SK= 0.49E-01
 bond charge predicted
 prediction of wavefunctions
       N       E                     dE             d eps       ncg     rms          rms(c)
DAV:   1    -0.102312022493E+03    0.32818E-01   -0.39941E-03   168   0.266E-01    0.125E-02
RMM:   2    -0.102312220523E+03   -0.19803E-03   -0.20517E-03   120   0.133E-01    0.799E-03
RMM:   3    -0.102312242960E+03   -0.22436E-04   -0.22410E-04    80   0.455E-02
   1594 T=   605. E= -.88991527E+02 F= -.10231224E+03 E0= -.10231451E+03  EK= 0.41442E+01 SP= 0.91E+01 SK= 0.48E-01
 bond charge predicted
 prediction of wavefunctions
       N       E                     dE             d eps       ncg     rms          rms(c)
DAV:   1    -0.102283567128E+03    0.28653E-01   -0.35455E-03   168   0.230E-01    0.851E-03
RMM:   2    -0.102283652270E+03   -0.85142E-04   -0.90042E-04   120   0.897E-02
   1595 T=   615. E= -.88991090E+02 F= -.10228365E+03 E0= -.10228595E+03  EK= 0.42160E+01 SP= 0.90E+01 SK= 0.47E-01
 bond charge predicted
 prediction of wavefunctions
       N       E                     dE             d eps       ncg     rms          rms(c)
DAV:   1    -0.102258856576E+03    0.24711E-01   -0.50358E-03   180   0.273E-01    0.118E-02
RMM:   2    -0.102259062912E+03   -0.20634E-03   -0.21189E-03   120   0.134E-01    0.805E-03
RMM:   3    -0.102259083303E+03   -0.20391E-04   -0.19685E-04    74   0.421E-02
   1596 T=   626. E= -.88990742E+02 F= -.10225908E+03 E0= -.10226150E+03  EK= 0.42906E+01 SP= 0.89E+01 SK= 0.43E-01
 bond charge predicted
 prediction of wavefunctions
       N       E                     dE             d eps       ncg     rms          rms(c)
DAV:   1    -0.102237812029E+03    0.21251E-01   -0.44375E-03   168   0.232E-01    0.763E-03
RMM:   2    -0.102237892894E+03   -0.80866E-04   -0.84376E-04   120   0.849E-02
   1597 T=   637. E= -.88990417E+02 F= -.10223789E+03 E0= -.10224054E+03  EK= 0.43653E+01 SP= 0.88E+01 SK= 0.38E-01
 bond charge predicted
 prediction of wavefunctions
       N       E                     dE             d eps       ncg     rms          rms(c)
DAV:   1    -0.102219145424E+03    0.18667E-01   -0.57005E-03   192   0.275E-01    0.128E-02
RMM:   2    -0.102219360897E+03   -0.21547E-03   -0.22292E-03   120   0.135E-01    0.847E-03
RMM:   3    -0.102219382225E+03   -0.21328E-04   -0.21014E-04    76   0.431E-02
   1598 T=   648. E= -.88990159E+02 F= -.10221938E+03 E0= -.10222242E+03  EK= 0.44373E+01 SP= 0.88E+01 SK= 0.32E-01
 bond charge predicted
 prediction of wavefunctions
       N       E                     dE             d eps       ncg     rms          rms(c)
DAV:   1    -0.102202833908E+03    0.16527E-01   -0.48795E-03   132   0.236E-01    0.759E-03
RMM:   2    -0.102202916776E+03   -0.82868E-04   -0.86367E-04   120   0.865E-02
   1599 T=   657. E= -.88989807E+02 F= -.10220292E+03 E0= -.10220650E+03  EK= 0.45039E+01 SP= 0.87E+01 SK= 0.25E-01
 bond charge predicted
 prediction of wavefunctions
       N       E                     dE             d eps       ncg     rms          rms(c)
DAV:   1    -0.102187448380E+03    0.15386E-01   -0.50021E-03   180   0.278E-01    0.146E-02
RMM:   2    -0.102187654082E+03   -0.20570E-03   -0.21770E-03   120   0.135E-01    0.899E-03
RMM:   3    -0.102187676240E+03   -0.22158E-04   -0.23202E-04    82   0.460E-02
   1600 T=   666. E= -.88989458E+02 F= -.10218768E+03 E0= -.10219189E+03  EK= 0.45618E+01 SP= 0.86E+01 SK= 0.18E-01
 bond charge predicted
 prediction of wavefunctions
       N       E                     dE             d eps       ncg     rms          rms(c)
DAV:   1    -0.102172374071E+03    0.15280E-01   -0.42022E-03   132   0.237E-01    0.896E-03
RMM:   2    -0.102172464279E+03   -0.90208E-04   -0.95291E-04   120   0.903E-02
   1601 T=   673. E= -.88989095E+02 F= -.10217246E+03 E0= -.10217723E+03  EK= 0.46080E+01 SP= 0.86E+01 SK= 0.12E-01
 bond charge predicted
 prediction of wavefunctions
       N       E                     dE             d eps       ncg     rms          rms(c)
DAV:   1    -0.102155858866E+03    0.16515E-01   -0.54671E-03   180   0.273E-01    0.169E-02
RMM:   2    -0.102156053998E+03   -0.19513E-03   -0.21224E-03   120   0.133E-01    0.105E-02
RMM:   3    -0.102156072084E+03   -0.18086E-04   -0.21655E-04    84   0.445E-02
   1602 T=   677. E= -.88988846E+02 F= -.10215607E+03 E0= -.10216121E+03  EK= 0.46392E+01 SP= 0.85E+01 SK= 0.62E-02
 bond charge predicted
 prediction of wavefunctions
       N       E                     dE             d eps       ncg     rms          rms(c)
DAV:   1    -0.102136852525E+03    0.19201E-01   -0.50157E-03   156   0.233E-01    0.126E-02
RMM:   2    -0.102136937629E+03   -0.85104E-04   -0.95764E-04   120   0.886E-02
   1603 T=   679. E= -.88988589E+02 F= -.10213694E+03 E0= -.10214227E+03  EK= 0.46530E+01 SP= 0.85E+01 SK= 0.24E-02
 bond charge predicted
 prediction of wavefunctions
       N       E                     dE             d eps       ncg     rms          rms(c)
DAV:   1    -0.102113093614E+03    0.23759E-01   -0.64686E-03   192   0.269E-01    0.169E-02
RMM:   2    -0.102113285715E+03   -0.19210E-03   -0.21195E-03   120   0.133E-01    0.956E-03
RMM:   3    -0.102113305956E+03   -0.20241E-04   -0.23297E-04    84   0.465E-02
   1604 T=   678. E= -.88988317E+02 F= -.10211331E+03 E0= -.10211873E+03  EK= 0.46468E+01 SP= 0.85E+01 SK= 0.34E-03
 bond charge predicted
 prediction of wavefunctions
       N       E                     dE             d eps       ncg     rms          rms(c)
DAV:   1    -0.102083391905E+03    0.29894E-01   -0.62482E-03   168   0.229E-01    0.135E-02
RMM:   2    -0.102083471340E+03   -0.79435E-04   -0.92568E-04   120   0.893E-02
   1605 T=   674. E= -.88987809E+02 F= -.10208347E+03 E0= -.10208891E+03  EK= 0.46194E+01 SP= 0.85E+01 SK= 0.12E-03
 bond charge predicted
 prediction of wavefunctions
       N       E                     dE             d eps       ncg     rms          rms(c)
DAV:   1    -0.102046533762E+03    0.36858E-01   -0.74993E-03   168   0.264E-01    0.136E-02
RMM:   2    -0.102046730820E+03   -0.19706E-03   -0.20907E-03   120   0.130E-01    0.804E-03
RMM:   3    -0.102046752074E+03   -0.21255E-04   -0.21630E-04    80   0.443E-02
   1606 T=   667. E= -.88987325E+02 F= -.10204675E+03 E0= -.10205215E+03  EK= 0.45708E+01 SP= 0.85E+01 SK= 0.15E-02
 bond charge predicted
 prediction of wavefunctions
       N       E                     dE             d eps       ncg     rms          rms(c)
DAV:   1    -0.102002671530E+03    0.44059E-01   -0.68411E-03   168   0.220E-01    0.116E-02
RMM:   2    -0.102002749470E+03   -0.77941E-04   -0.87133E-04   120   0.861E-02
   1607 T=   657. E= -.88986867E+02 F= -.10200275E+03 E0= -.10200808E+03  EK= 0.45022E+01 SP= 0.85E+01 SK= 0.39E-02
 bond charge predicted
 prediction of wavefunctions
       N       E                     dE             d eps       ncg     rms          rms(c)
DAV:   1    -0.101952391576E+03    0.50280E-01   -0.82118E-03   168   0.259E-01    0.134E-02
RMM:   2    -0.101952589126E+03   -0.19755E-03   -0.20819E-03   120   0.131E-01    0.814E-03
RMM:   3    -0.101952608999E+03   -0.19874E-04   -0.19229E-04    73   0.422E-02
   1608 T=   645. E= -.88986134E+02 F= -.10195261E+03 E0= -.10195786E+03  EK= 0.44174E+01 SP= 0.85E+01 SK= 0.67E-02
 bond charge predicted
 prediction of wavefunctions
       N       E                     dE             d eps       ncg     rms          rms(c)
DAV:   1    -0.101898794839E+03    0.53794E-01   -0.69870E-03   144   0.213E-01    0.961E-03
RMM:   2    -0.101898874990E+03   -0.80150E-04   -0.85981E-04   120   0.855E-02
   1609 T=   631. E= -.88985297E+02 F= -.10189887E+03 E0= -.10190408E+03  EK= 0.43215E+01 SP= 0.86E+01 SK= 0.94E-02
 bond charge predicted
 prediction of wavefunctions
       N       E                     dE             d eps       ncg     rms          rms(c)
DAV:   1    -0.101845195300E+03    0.53600E-01   -0.79632E-03   168   0.256E-01    0.131E-02
RMM:   2    -0.101845385542E+03   -0.19024E-03   -0.19843E-03   120   0.128E-01    0.851E-03
RMM:   3    -0.101845404085E+03   -0.18543E-04   -0.18298E-04    84   0.413E-02
   1610 T=   616. E= -.88984672E+02 F= -.10184540E+03 E0= -.10185061E+03  EK= 0.42210E+01 SP= 0.86E+01 SK= 0.11E-01
 bond charge predicted
 prediction of wavefunctions
       N       E                     dE             d eps       ncg     rms          rms(c)
DAV:   1    -0.101796269056E+03    0.49116E-01   -0.65113E-03   192   0.209E-01    0.850E-03
RMM:   2    -0.101796345674E+03   -0.76619E-04   -0.81284E-04   120   0.849E-02
   1611 T=   602. E= -.88984019E+02 F= -.10179635E+03 E0= -.10180163E+03  EK= 0.41231E+01 SP= 0.87E+01 SK= 0.12E-01
 bond charge predicted
 prediction of wavefunctions
       N       E                     dE             d eps       ncg     rms          rms(c)
DAV:   1    -0.101755718351E+03    0.40551E-01   -0.71337E-03   180   0.255E-01    0.139E-02
RMM:   2    -0.101755913048E+03   -0.19470E-03   -0.20565E-03   120   0.128E-01    0.866E-03
RMM:   3    -0.101755932801E+03   -0.19753E-04   -0.19409E-04    75   0.416E-02
   1612 T=   589. E= -.88983494E+02 F= -.10175593E+03 E0= -.10176141E+03  EK= 0.40342E+01 SP= 0.87E+01 SK= 0.12E-01
 bond charge predicted
 prediction of wavefunctions
       N       E                     dE             d eps       ncg     rms          rms(c)
DAV:   1    -0.101727957158E+03    0.27956E-01   -0.60469E-03   204   0.208E-01    0.842E-03
RMM:   2    -0.101728072004E+03   -0.11485E-03   -0.11882E-03   120   0.880E-02    0.596E-03
RMM:   3    -0.101728090437E+03   -0.18433E-04   -0.19590E-04    81   0.382E-02
   1613 T=   578. E= -.88982967E+02 F= -.10172809E+03 E0= -.10173391E+03  EK= 0.39605E+01 SP= 0.88E+01 SK= 0.11E-01
Information: wavefunction orthogonal band   60  0.4331
 bond charge predicted
 prediction of wavefunctions
       N       E                     dE             d eps       ncg     rms          rms(c)
DAV:   1    -0.101716552336E+03    0.11520E-01   -0.77952E-03   180   0.222E-01    0.105E-02
RMM:   2    -0.101716677975E+03   -0.12564E-03   -0.13153E-03   120   0.102E-01    0.601E-03
RMM:   3    -0.101716697952E+03   -0.19977E-04   -0.19832E-04    73   0.396E-02
   1614 T=   570. E= -.88982774E+02 F= -.10171670E+03 E0= -.10172302E+03  EK= 0.39070E+01 SP= 0.88E+01 SK= 0.87E-02
 bond charge predicted
 prediction of wavefunctions
       N       E                     dE             d eps       ncg     rms          rms(c)
DAV:   1    -0.101723022622E+03   -0.63446E-02   -0.59276E-03   180   0.222E-01    0.738E-03
RMM:   2    -0.101723143862E+03   -0.12124E-03   -0.12420E-03   120   0.990E-02    0.512E-03
RMM:   3    -0.101723158012E+03   -0.14150E-04   -0.13371E-04    66   0.336E-02
   1615 T=   566. E= -.88982558E+02 F= -.10172316E+03 E0= -.10173014E+03  EK= 0.38764E+01 SP= 0.89E+01 SK= 0.66E-02
 bond charge predicted
 prediction of wavefunctions
       N       E                     dE             d eps       ncg     rms          rms(c)
DAV:   1    -0.101747789559E+03   -0.24646E-01   -0.55757E-03   204   0.215E-01    0.749E-03
RMM:   2    -0.101747870006E+03   -0.80448E-04   -0.83209E-04   120   0.884E-02
   1616 T=   565. E= -.88982338E+02 F= -.10174787E+03 E0= -.10175566E+03  EK= 0.38694E+01 SP= 0.89E+01 SK= 0.47E-02
 bond charge predicted
 prediction of wavefunctions
       N       E                     dE             d eps       ncg     rms          rms(c)
DAV:   1    -0.101789478747E+03   -0.41689E-01   -0.57340E-03   156   0.242E-01    0.809E-03
RMM:   2    -0.101789630264E+03   -0.15152E-03   -0.15308E-03   120   0.117E-01    0.573E-03
RMM:   3    -0.101789649389E+03   -0.19125E-04   -0.17891E-04    78   0.404E-02
   1617 T=   567. E= -.88982051E+02 F= -.10178965E+03 E0= -.10179830E+03  EK= 0.38849E+01 SP= 0.89E+01 SK= 0.32E-02
 bond charge predicted
 prediction of wavefunctions
       N       E                     dE             d eps       ncg     rms          rms(c)
DAV:   1    -0.101846584361E+03   -0.56954E-01   -0.50232E-03   168   0.211E-01    0.777E-03
RMM:   2    -0.101846647140E+03   -0.62779E-04   -0.66545E-04   120   0.763E-02
   1618 T=   572. E= -.88981973E+02 F= -.10184665E+03 E0= -.10185605E+03  EK= 0.39203E+01 SP= 0.89E+01 SK= 0.20E-02
 bond charge predicted
 prediction of wavefunctions
       N       E                     dE             d eps       ncg     rms          rms(c)
DAV:   1    -0.101914807180E+03   -0.68223E-01   -0.58022E-03   204   0.254E-01    0.977E-03
RMM:   2    -0.101914976364E+03   -0.16918E-03   -0.17374E-03   120   0.122E-01    0.610E-03
RMM:   3    -0.101914990807E+03   -0.14443E-04   -0.12834E-04    67   0.344E-02
   1619 T=   580. E= -.88981869E+02 F= -.10191499E+03 E0= -.10192491E+03  EK= 0.39712E+01 SP= 0.90E+01 SK= 0.13E-02
 bond charge predicted
 prediction of wavefunctions
       N       E                     dE             d eps       ncg     rms          rms(c)
DAV:   1    -0.101989814789E+03   -0.74838E-01   -0.45666E-03   180   0.206E-01    0.714E-03
RMM:   2    -0.101989855977E+03   -0.41188E-04   -0.43970E-04   120   0.610E-02
   1620 T=   588. E= -.88981806E+02 F= -.10198986E+03 E0= -.10200006E+03  EK= 0.40313E+01 SP= 0.90E+01 SK= 0.95E-03
 bond charge predicted
 prediction of wavefunctions
       N       E                     dE             d eps       ncg     rms          rms(c)
DAV:   1    -0.102066240487E+03   -0.76426E-01   -0.51782E-03   144   0.249E-01    0.905E-03
RMM:   2    -0.102066394264E+03   -0.15378E-03   -0.15649E-03   120   0.115E-01    0.607E-03
RMM:   3    -0.102066410809E+03   -0.16545E-04   -0.16111E-04    68   0.374E-02
   1621 T=   598. E= -.88981624E+02 F= -.10206641E+03 E0= -.10207666E+03  EK= 0.40948E+01 SP= 0.90E+01 SK= 0.82E-03
 bond charge predicted
 prediction of wavefunctions
       N       E                     dE             d eps       ncg     rms          rms(c)
DAV:   1    -0.102140705530E+03   -0.74311E-01   -0.42440E-03   144   0.212E-01    0.624E-03
RMM:   2    -0.102140765659E+03   -0.60129E-04   -0.62316E-04   120   0.716E-02
   1622 T=   607. E= -.88981558E+02 F= -.10214077E+03 E0= -.10215088E+03  EK= 0.41560E+01 SP= 0.90E+01 SK= 0.90E-03
 bond charge predicted
 prediction of wavefunctions
       N       E                     dE             d eps       ncg     rms          rms(c)
DAV:   1    -0.102208842925E+03   -0.68137E-01   -0.58065E-03   168   0.253E-01    0.108E-02
RMM:   2    -0.102209008438E+03   -0.16551E-03   -0.17167E-03   120   0.121E-01    0.726E-03
RMM:   3    -0.102209031651E+03   -0.23213E-04   -0.23631E-04    86   0.460E-02
   1623 T=   614. E= -.88981177E+02 F= -.10220903E+03 E0= -.10221891E+03  EK= 0.42098E+01 SP= 0.90E+01 SK= 0.12E-02
 bond charge predicted
 prediction of wavefunctions
       N       E                     dE             d eps       ncg     rms          rms(c)
DAV:   1    -0.102268824725E+03   -0.59816E-01   -0.51248E-03   132   0.219E-01    0.535E-03
RMM:   2    -0.102268895071E+03   -0.70346E-04   -0.71563E-04   120   0.804E-02
   1624 T=   621. E= -.88980616E+02 F= -.10226890E+03 E0= -.10227853E+03  EK= 0.42525E+01 SP= 0.90E+01 SK= 0.17E-02
 bond charge predicted
 prediction of wavefunctions
       N       E                     dE             d eps       ncg     rms          rms(c)
DAV:   1    -0.102318891447E+03   -0.50067E-01   -0.61187E-03   180   0.253E-01    0.125E-02
RMM:   2    -0.102319048586E+03   -0.15714E-03   -0.16459E-03   120   0.119E-01    0.822E-03
RMM:   3    -0.102319061723E+03   -0.13137E-04   -0.14226E-04    65   0.355E-02
   1625 T=   625. E= -.88980270E+02 F= -.10231906E+03 E0= -.10232850E+03  EK= 0.42813E+01 SP= 0.91E+01 SK= 0.26E-02
 bond charge predicted
 prediction of wavefunctions
       N       E                     dE             d eps       ncg     rms          rms(c)
DAV:   1    -0.102357895053E+03   -0.38846E-01   -0.55881E-03   156   0.216E-01    0.600E-03
RMM:   2    -0.102357950611E+03   -0.55558E-04   -0.57567E-04   120   0.698E-02
   1626 T=   627. E= -.88980038E+02 F= -.10235795E+03 E0= -.10236720E+03  EK= 0.42940E+01 SP= 0.91E+01 SK= 0.38E-02
 bond charge predicted
 prediction of wavefunctions
       N       E                     dE             d eps       ncg     rms          rms(c)
DAV:   1    -0.102383818422E+03   -0.25923E-01   -0.62803E-03   168   0.253E-01    0.134E-02
RMM:   2    -0.102383965636E+03   -0.14721E-03   -0.16102E-03   120   0.121E-01    0.808E-03
RMM:   3    -0.102383981310E+03   -0.15674E-04   -0.19543E-04    73   0.425E-02
   1627 T=   626. E= -.88979765E+02 F= -.10238398E+03 E0= -.10239296E+03  EK= 0.42889E+01 SP= 0.91E+01 SK= 0.52E-02
 bond charge predicted
 prediction of wavefunctions
       N       E                     dE             d eps       ncg     rms          rms(c)
DAV:   1    -0.102395974600E+03   -0.12009E-01   -0.59502E-03   156   0.221E-01    0.964E-03
RMM:   2    -0.102396045175E+03   -0.70575E-04   -0.76721E-04   120   0.796E-02
   1628 T=   623. E= -.88979432E+02 F= -.10239605E+03 E0= -.10240460E+03  EK= 0.42652E+01 SP= 0.91E+01 SK= 0.67E-02
 bond charge predicted
 prediction of wavefunctions
       N       E                     dE             d eps       ncg     rms          rms(c)
DAV:   1    -0.102392920739E+03    0.30539E-02   -0.68840E-03   156   0.254E-01    0.176E-02
RMM:   2    -0.102393075194E+03   -0.15445E-03   -0.18119E-03   120   0.123E-01    0.948E-03
RMM:   3    -0.102393094527E+03   -0.19333E-04   -0.25528E-04    87   0.471E-02
   1629 T=   616. E= -.88978978E+02 F= -.10239309E+03 E0= -.10240111E+03  EK= 0.42228E+01 SP= 0.92E+01 SK= 0.80E-02
 bond charge predicted
 prediction of wavefunctions
       N       E                     dE             d eps       ncg     rms          rms(c)
DAV:   1    -0.102374213180E+03    0.18862E-01   -0.64395E-03   180   0.224E-01    0.131E-02
RMM:   2    -0.102374286178E+03   -0.72998E-04   -0.84405E-04   120   0.830E-02
   1630 T=   608. E= -.88978516E+02 F= -.10237429E+03 E0= -.10238166E+03  EK= 0.41620E+01 SP= 0.92E+01 SK= 0.90E-02
 bond charge predicted
 prediction of wavefunctions
       N       E                     dE             d eps       ncg     rms          rms(c)
DAV:   1    -0.102338573959E+03    0.35639E-01   -0.74639E-03   228   0.256E-01    0.134E-02
RMM:   2    -0.102338741348E+03   -0.16739E-03   -0.18151E-03   120   0.125E-01    0.740E-03
RMM:   3    -0.102338756497E+03   -0.15149E-04   -0.16786E-04    65   0.397E-02
   1631 T=   596. E= -.88977910E+02 F= -.10233876E+03 E0= -.10234542E+03  EK= 0.40838E+01 SP= 0.93E+01 SK= 0.92E-02
 bond charge predicted
 prediction of wavefunctions
       N       E                     dE             d eps       ncg     rms          rms(c)
DAV:   1    -0.102287252129E+03    0.51489E-01   -0.64960E-03   180   0.221E-01    0.118E-02
RMM:   2    -0.102287318535E+03   -0.66406E-04   -0.76037E-04   120   0.775E-02
   1632 T=   583. E= -.88977363E+02 F= -.10228732E+03 E0= -.10229333E+03  EK= 0.39910E+01 SP= 0.93E+01 SK= 0.86E-02
 bond charge predicted
 prediction of wavefunctions
       N       E                     dE             d eps       ncg     rms          rms(c)
DAV:   1    -0.102222366938E+03    0.64885E-01   -0.75462E-03   204   0.256E-01    0.121E-02
RMM:   2    -0.102222541492E+03   -0.17455E-03   -0.18716E-03   120   0.124E-01    0.631E-03
RMM:   3    -0.102222562397E+03   -0.20905E-04   -0.21326E-04    83   0.443E-02
   1633 T=   568. E= -.88976764E+02 F= -.10222256E+03 E0= -.10222812E+03  EK= 0.38887E+01 SP= 0.94E+01 SK= 0.70E-02
 bond charge predicted
 prediction of wavefunctions
       N       E                     dE             d eps       ncg     rms          rms(c)
DAV:   1    -0.102148062638E+03    0.74479E-01   -0.62085E-03   228   0.224E-01    0.105E-02
RMM:   2    -0.102148147993E+03   -0.85355E-04   -0.93528E-04   120   0.852E-02
   1634 T=   552. E= -.88976035E+02 F= -.10214815E+03 E0= -.10215350E+03  EK= 0.37828E+01 SP= 0.94E+01 SK= 0.48E-02
 bond charge predicted
 prediction of wavefunctions
       N       E                     dE             d eps       ncg     rms          rms(c)
DAV:   1    -0.102068865180E+03    0.79197E-01   -0.63458E-03   216   0.253E-01    0.104E-02
RMM:   2    -0.102069039792E+03   -0.17461E-03   -0.18216E-03   120   0.124E-01    0.692E-03
RMM:   3    -0.102069058439E+03   -0.18647E-04   -0.18744E-04    76   0.418E-02
   1635 T=   537. E= -.88975448E+02 F= -.10206906E+03 E0= -.10207449E+03  EK= 0.36801E+01 SP= 0.94E+01 SK= 0.24E-02
 bond charge predicted
 prediction of wavefunctions
       N       E                     dE             d eps       ncg     rms          rms(c)
DAV:   1    -0.101990750024E+03    0.78290E-01   -0.51427E-03   192   0.222E-01    0.829E-03
RMM:   2    -0.101990820178E+03   -0.70154E-04   -0.74835E-04   120   0.798E-02
   1636 T=   524. E= -.88974758E+02 F= -.10199082E+03 E0= -.10199664E+03  EK= 0.35883E+01 SP= 0.94E+01 SK= 0.53E-03
 bond charge predicted
 prediction of wavefunctions
       N       E                     dE             d eps       ncg     rms          rms(c)
DAV:   1    -0.101919121415E+03    0.71629E-01   -0.60943E-03   192   0.254E-01    0.112E-02
RMM:   2    -0.101919301403E+03   -0.17999E-03   -0.18912E-03   120   0.125E-01    0.633E-03
RMM:   3    -0.101919324844E+03   -0.23441E-04   -0.23149E-04    87   0.463E-02
   1637 T=   513. E= -.88974288E+02 F= -.10191932E+03 E0= -.10192573E+03  EK= 0.35142E+01 SP= 0.94E+01 SK= 0.56E-04
 bond charge predicted
 prediction of wavefunctions
       N       E                     dE             d eps       ncg     rms          rms(c)
DAV:   1    -0.101858703116E+03    0.60598E-01   -0.56791E-03   168   0.217E-01    0.889E-03
RMM:   2    -0.101858770668E+03   -0.67552E-04   -0.73420E-04   120   0.776E-02
   1638 T=   506. E= -.88973622E+02 F= -.10185877E+03 E0= -.10186579E+03  EK= 0.34637E+01 SP= 0.94E+01 SK= 0.17E-02
 bond charge predicted
 prediction of wavefunctions
       N       E                     dE             d eps       ncg     rms          rms(c)
DAV:   1    -0.101813000325E+03    0.45703E-01   -0.66658E-03   216   0.244E-01    0.123E-02
RMM:   2    -0.101813142931E+03   -0.14261E-03   -0.15426E-03   120   0.113E-01    0.763E-03
RMM:   3    -0.101813156046E+03   -0.13115E-04   -0.14890E-04    75   0.358E-02
   1639 T=   502. E= -.88973207E+02 F= -.10181316E+03 E0= -.10182054E+03  EK= 0.34410E+01 SP= 0.94E+01 SK= 0.60E-02
 bond charge predicted
 prediction of wavefunctions
       N       E                     dE             d eps       ncg     rms          rms(c)
DAV:   1    -0.101784206855E+03    0.28936E-01   -0.61363E-03   204   0.215E-01    0.804E-03
RMM:   2    -0.101784275105E+03   -0.68250E-04   -0.73126E-04   120   0.774E-02
   1640 T=   503. E= -.88972992E+02 F= -.10178428E+03 E0= -.10179172E+03  EK= 0.34484E+01 SP= 0.93E+01 SK= 0.13E-01
 bond charge predicted
 prediction of wavefunctions
       N       E                     dE             d eps       ncg     rms          rms(c)
DAV:   1    -0.101771676438E+03    0.12530E-01   -0.68493E-03   192   0.244E-01    0.118E-02
RMM:   2    -0.101771832337E+03   -0.15590E-03   -0.16556E-03   120   0.119E-01    0.705E-03
RMM:   3    -0.101771851767E+03   -0.19430E-04   -0.19658E-04    79   0.425E-02
   1641 T=   509. E= -.88972805E+02 F= -.10177185E+03 E0= -.10177920E+03  EK= 0.34861E+01 SP= 0.93E+01 SK= 0.22E-01
 bond charge predicted
 prediction of wavefunctions
       N       E                     dE             d eps       ncg     rms          rms(c)
DAV:   1    -0.101774288623E+03   -0.24563E-02   -0.63854E-03   216   0.213E-01    0.836E-03
RMM:   2    -0.101774356235E+03   -0.67611E-04   -0.73174E-04   120   0.779E-02
   1642 T=   519. E= -.88972662E+02 F= -.10177436E+03 E0= -.10178153E+03  EK= 0.35524E+01 SP= 0.92E+01 SK= 0.33E-01
 bond charge predicted
 prediction of wavefunctions
       N       E                     dE             d eps       ncg     rms          rms(c)
DAV:   1    -0.101788051116E+03   -0.13762E-01   -0.65964E-03   204   0.245E-01    0.106E-02
RMM:   2    -0.101788224740E+03   -0.17362E-03   -0.18095E-03   120   0.121E-01    0.708E-03
RMM:   3    -0.101788244444E+03   -0.19704E-04   -0.19192E-04    73   0.410E-02
   1643 T=   532. E= -.88972564E+02 F= -.10178824E+03 E0= -.10179523E+03  EK= 0.36434E+01 SP= 0.91E+01 SK= 0.44E-01
 bond charge predicted
 prediction of wavefunctions
       N       E                     dE             d eps       ncg     rms          rms(c)
DAV:   1    -0.101808842581E+03   -0.20618E-01   -0.59525E-03   216   0.216E-01    0.746E-03
RMM:   2    -0.101808917702E+03   -0.75122E-04   -0.78832E-04   120   0.806E-02
   1644 T=   548. E= -.88972633E+02 F= -.10180892E+03 E0= -.10181570E+03  EK= 0.37534E+01 SP= 0.90E+01 SK= 0.54E-01
 bond charge predicted
 prediction of wavefunctions
       N       E                     dE             d eps       ncg     rms          rms(c)
DAV:   1    -0.101831771742E+03   -0.22929E-01   -0.70389E-03   192   0.253E-01    0.113E-02
RMM:   2    -0.101831956037E+03   -0.18430E-03   -0.19074E-03   120   0.126E-01    0.736E-03
RMM:   3    -0.101831976841E+03   -0.20804E-04   -0.19726E-04    75   0.426E-02
   1645 T=   566. E= -.88972673E+02 F= -.10183198E+03 E0= -.10183856E+03  EK= 0.38767E+01 SP= 0.89E+01 SK= 0.61E-01
 bond charge predicted
 prediction of wavefunctions
       N       E                     dE             d eps       ncg     rms          rms(c)
DAV:   1    -0.101853767124E+03   -0.21811E-01   -0.58632E-03   192   0.219E-01    0.695E-03
RMM:   2    -0.101853843083E+03   -0.75959E-04   -0.79369E-04   120   0.845E-02
   1646 T=   585. E= -.88972633E+02 F= -.10185384E+03 E0= -.10186024E+03  EK= 0.40075E+01 SP= 0.88E+01 SK= 0.66E-01
 bond charge predicted
 prediction of wavefunctions
       N       E                     dE             d eps       ncg     rms          rms(c)
DAV:   1    -0.101871499512E+03   -0.17732E-01   -0.49935E-03   192   0.263E-01    0.110E-02
RMM:   2    -0.101871698967E+03   -0.19945E-03   -0.20500E-03   120   0.132E-01    0.764E-03
RMM:   3    -0.101871719002E+03   -0.20035E-04   -0.18636E-04    74   0.413E-02
   1647 T=   604. E= -.88972486E+02 F= -.10187172E+03 E0= -.10187797E+03  EK= 0.41405E+01 SP= 0.87E+01 SK= 0.66E-01
 bond charge predicted
 prediction of wavefunctions
       N       E                     dE             d eps       ncg     rms          rms(c)
DAV:   1    -0.101884493571E+03   -0.12795E-01   -0.37741E-03   168   0.223E-01    0.685E-03
RMM:   2    -0.101884574559E+03   -0.80988E-04   -0.83858E-04   120   0.881E-02
   1648 T=   623. E= -.88972292E+02 F= -.10188457E+03 E0= -.10189074E+03  EK= 0.42712E+01 SP= 0.86E+01 SK= 0.63E-01
 bond charge predicted
 prediction of wavefunctions
       N       E                     dE             d eps       ncg     rms          rms(c)
DAV:   1    -0.101892216405E+03   -0.77228E-02   -0.47852E-03   168   0.271E-01    0.117E-02
RMM:   2    -0.101892432050E+03   -0.21564E-03   -0.22258E-03   120   0.136E-01    0.751E-03
RMM:   3    -0.101892457607E+03   -0.25557E-04   -0.24041E-04    84   0.469E-02
   1649 T=   642. E= -.88971915E+02 F= -.10189246E+03 E0= -.10189859E+03  EK= 0.43963E+01 SP= 0.85E+01 SK= 0.57E-01
 bond charge predicted
 prediction of wavefunctions
       N       E                     dE             d eps       ncg     rms          rms(c)
DAV:   1    -0.101896291518E+03   -0.38595E-02   -0.42041E-03   168   0.225E-01    0.675E-03
RMM:   2    -0.101896375883E+03   -0.84365E-04   -0.86841E-04   120   0.894E-02
   1650 T=   659. E= -.88971467E+02 F= -.10189638E+03 E0= -.10190249E+03  EK= 0.45129E+01 SP= 0.84E+01 SK= 0.48E-01
 bond charge predicted
 prediction of wavefunctions
       N       E                     dE             d eps       ncg     rms          rms(c)
DAV:   1    -0.101897763201E+03   -0.14717E-02   -0.60169E-03   204   0.276E-01    0.118E-02
RMM:   2    -0.101897977694E+03   -0.21449E-03   -0.22006E-03   120   0.137E-01    0.783E-03
RMM:   3    -0.101897999164E+03   -0.21470E-04   -0.19831E-04    72   0.427E-02
   1651 T=   674. E= -.88971317E+02 F= -.10189800E+03 E0= -.10190409E+03  EK= 0.46185E+01 SP= 0.83E+01 SK= 0.38E-01
 bond charge predicted
 prediction of wavefunctions
       N       E                     dE             d eps       ncg     rms          rms(c)
DAV:   1    -0.101898210608E+03   -0.23291E-03   -0.53336E-03   168   0.231E-01    0.698E-03
RMM:   2    -0.101898303111E+03   -0.92503E-04   -0.95262E-04   120   0.938E-02
   1652 T=   688. E= -.88971065E+02 F= -.10189830E+03 E0= -.10190434E+03  EK= 0.47105E+01 SP= 0.82E+01 SK= 0.27E-01
 bond charge predicted
 prediction of wavefunctions
       N       E                     dE             d eps       ncg     rms          rms(c)
DAV:   1    -0.101897914957E+03    0.29565E-03   -0.70895E-03   168   0.285E-01    0.133E-02
RMM:   2    -0.101898150605E+03   -0.23565E-03   -0.24508E-03   120   0.144E-01    0.826E-03
RMM:   3    -0.101898177747E+03   -0.27142E-04   -0.26067E-04    87   0.491E-02
   1653 T=   699. E= -.88970846E+02 F= -.10189818E+03 E0= -.10190410E+03  EK= 0.47864E+01 SP= 0.81E+01 SK= 0.16E-01
 bond charge predicted
 prediction of wavefunctions
       N       E                     dE             d eps       ncg     rms          rms(c)
DAV:   1    -0.101897578409E+03    0.57220E-03   -0.61320E-03   156   0.231E-01    0.801E-03
RMM:   2    -0.101897665080E+03   -0.86671E-04   -0.90985E-04   120   0.928E-02
   1654 T=   707. E= -.88970517E+02 F= -.10189767E+03 E0= -.10190342E+03  EK= 0.48431E+01 SP= 0.81E+01 SK= 0.77E-02
 bond charge predicted
 prediction of wavefunctions
       N       E                     dE             d eps       ncg     rms          rms(c)
DAV:   1    -0.101896062505E+03    0.15159E-02   -0.77659E-03   180   0.283E-01    0.129E-02
RMM:   2    -0.101896284126E+03   -0.22162E-03   -0.23051E-03   120   0.139E-01    0.806E-03
RMM:   3    -0.101896304805E+03   -0.20679E-04   -0.19972E-04    78   0.427E-02
   1655 T=   712. E= -.88970246E+02 F= -.10189630E+03 E0= -.10190186E+03  EK= 0.48778E+01 SP= 0.80E+01 SK= 0.21E-02
 bond charge predicted
 prediction of wavefunctions
       N       E                     dE             d eps       ncg     rms          rms(c)
DAV:   1    -0.101892583840E+03    0.37003E-02   -0.68137E-03   192   0.233E-01    0.849E-03
RMM:   2    -0.101892683952E+03   -0.10011E-03   -0.10468E-03   120   0.935E-02    0.622E-03
RMM:   3    -0.101892700398E+03   -0.16445E-04   -0.18680E-04    73   0.393E-02
   1656 T=   713. E= -.88969985E+02 F= -.10189270E+03 E0= -.10189806E+03  EK= 0.48876E+01 SP= 0.80E+01 SK= 0.80E-05
 bond charge predicted
 prediction of wavefunctions
       N       E                     dE             d eps       ncg     rms          rms(c)
DAV:   1    -0.101885962215E+03    0.67217E-02   -0.76663E-03   180   0.243E-01    0.792E-03
RMM:   2    -0.101886090732E+03   -0.12852E-03   -0.13106E-03   120   0.107E-01    0.507E-03
RMM:   3    -0.101886108532E+03   -0.17800E-04   -0.17499E-04    72   0.394E-02
   1657 T=   711. E= -.88969732E+02 F= -.10188611E+03 E0= -.10189129E+03  EK= 0.48712E+01 SP= 0.80E+01 SK= 0.16E-02
 bond charge predicted
 prediction of wavefunctions
       N       E                     dE             d eps       ncg     rms          rms(c)
DAV:   1    -0.101875685798E+03    0.10405E-01   -0.73064E-03   216   0.241E-01    0.763E-03
RMM:   2    -0.101875817795E+03   -0.13200E-03   -0.13401E-03   120   0.107E-01    0.552E-03
RMM:   3    -0.101875830277E+03   -0.12483E-04   -0.12088E-04    79   0.314E-02
   1658 T=   705. E= -.88969483E+02 F= -.10187583E+03 E0= -.10188087E+03  EK= 0.48287E+01 SP= 0.81E+01 SK= 0.67E-02
 bond charge predicted
 prediction of wavefunctions
       N       E                     dE             d eps       ncg     rms          rms(c)
DAV:   1    -0.101861498354E+03    0.14319E-01   -0.81853E-03   192   0.233E-01    0.600E-03
RMM:   2    -0.101861604254E+03   -0.10590E-03   -0.10633E-03   120   0.962E-02    0.450E-03
RMM:   3    -0.101861617172E+03   -0.12918E-04   -0.12357E-04    67   0.332E-02
   1659 T=   695. E= -.88969048E+02 F= -.10186162E+03 E0= -.10186654E+03  EK= 0.47619E+01 SP= 0.81E+01 SK= 0.14E-01
 bond charge predicted
 prediction of wavefunctions
       N       E                     dE             d eps       ncg     rms          rms(c)
DAV:   1    -0.101844447567E+03    0.17157E-01   -0.75470E-03   180   0.230E-01    0.648E-03
RMM:   2    -0.101844553947E+03   -0.10638E-03   -0.10690E-03   120   0.979E-02    0.501E-03
RMM:   3    -0.101844566261E+03   -0.12315E-04   -0.11906E-04    71   0.328E-02
   1660 T=   682. E= -.88968527E+02 F= -.10184457E+03 E0= -.10184938E+03  EK= 0.46743E+01 SP= 0.82E+01 SK= 0.24E-01
 bond charge predicted
 prediction of wavefunctions
       N       E                     dE             d eps       ncg     rms          rms(c)
DAV:   1    -0.101826792206E+03    0.17762E-01   -0.72889E-03   192   0.224E-01    0.589E-03
RMM:   2    -0.101826879959E+03   -0.87754E-04   -0.88010E-04   120   0.902E-02
   1661 T=   667. E= -.88967959E+02 F= -.10182688E+03 E0= -.10183160E+03  EK= 0.45717E+01 SP= 0.83E+01 SK= 0.33E-01
 bond charge predicted
 prediction of wavefunctions
       N       E                     dE             d eps       ncg     rms          rms(c)
DAV:   1    -0.101810307164E+03    0.16485E-01   -0.78490E-03   192   0.247E-01    0.926E-03
RMM:   2    -0.101810473084E+03   -0.16592E-03   -0.16744E-03   120   0.120E-01    0.759E-03
RMM:   3    -0.101810495753E+03   -0.22669E-04   -0.21877E-04    77   0.429E-02
   1662 T=   651. E= -.88967187E+02 F= -.10181050E+03 E0= -.10181513E+03  EK= 0.44599E+01 SP= 0.83E+01 SK= 0.42E-01
 bond charge predicted
 prediction of wavefunctions
       N       E                     dE             d eps       ncg     rms          rms(c)
DAV:   1    -0.101797917971E+03    0.12555E-01   -0.72764E-03   168   0.214E-01    0.533E-03
RMM:   2    -0.101797981037E+03   -0.63066E-04   -0.63924E-04   120   0.754E-02
   1663 T=   634. E= -.88966314E+02 F= -.10179798E+03 E0= -.10180253E+03  EK= 0.43449E+01 SP= 0.84E+01 SK= 0.49E-01
 bond charge predicted
 prediction of wavefunctions
       N       E                     dE             d eps       ncg     rms          rms(c)
DAV:   1    -0.101791708821E+03    0.62092E-02   -0.76765E-03   204   0.248E-01    0.880E-03
RMM:   2    -0.101791871745E+03   -0.16292E-03   -0.16473E-03   120   0.120E-01    0.617E-03
RMM:   3    -0.101791883970E+03   -0.12225E-04   -0.11086E-04    68   0.319E-02
   1664 T=   618. E= -.88965555E+02 F= -.10179188E+03 E0= -.10179635E+03  EK= 0.42326E+01 SP= 0.85E+01 SK= 0.54E-01
 bond charge predicted
 prediction of wavefunctions
       N       E                     dE             d eps       ncg     rms          rms(c)
DAV:   1    -0.101793924428E+03   -0.20527E-02   -0.60334E-03   204   0.203E-01    0.546E-03
RMM:   2    -0.101793960279E+03   -0.35851E-04   -0.37237E-04   119   0.544E-02
   1665 T=   603. E= -.88965129E+02 F= -.10179396E+03 E0= -.10179836E+03  EK= 0.41276E+01 SP= 0.86E+01 SK= 0.56E-01
 bond charge predicted
 prediction of wavefunctions
       N       E                     dE             d eps       ncg     rms          rms(c)
DAV:   1    -0.101805475521E+03   -0.11551E-01   -0.60924E-03   204   0.238E-01    0.613E-03
RMM:   2    -0.101805611182E+03   -0.13566E-03   -0.13686E-03   120   0.111E-01    0.457E-03
RMM:   3    -0.101805625220E+03   -0.14038E-04   -0.13071E-04    63   0.342E-02
   1666 T=   589. E= -.88964915E+02 F= -.10180563E+03 E0= -.10180996E+03  EK= 0.40339E+01 SP= 0.88E+01 SK= 0.55E-01
 bond charge predicted
 prediction of wavefunctions
       N       E                     dE             d eps       ncg     rms          rms(c)
DAV:   1    -0.101827113235E+03   -0.21502E-01   -0.54396E-03   180   0.207E-01    0.543E-03
RMM:   2    -0.101827169203E+03   -0.55968E-04   -0.57043E-04   120   0.675E-02
   1667 T=   577. E= -.88964372E+02 F= -.10182717E+03 E0= -.10183145E+03  EK= 0.39543E+01 SP= 0.89E+01 SK= 0.52E-01
 bond charge predicted
 prediction of wavefunctions
       N       E                     dE             d eps       ncg     rms          rms(c)
DAV:   1    -0.101858984413E+03   -0.31871E-01   -0.60600E-03   168   0.240E-01    0.794E-03
RMM:   2    -0.101859139828E+03   -0.15541E-03   -0.15732E-03   120   0.114E-01    0.635E-03
RMM:   3    -0.101859160878E+03   -0.21051E-04   -0.20529E-04    78   0.417E-02
   1668 T=   568. E= -.88964012E+02 F= -.10185916E+03 E0= -.10186341E+03  EK= 0.38903E+01 SP= 0.90E+01 SK= 0.48E-01
 bond charge predicted
 prediction of wavefunctions
       N       E                     dE             d eps       ncg     rms          rms(c)
DAV:   1    -0.101901137869E+03   -0.41998E-01   -0.54275E-03   156   0.212E-01    0.494E-03
RMM:   2    -0.101901202962E+03   -0.65093E-04   -0.66425E-04   119   0.713E-02
   1669 T=   561. E= -.88963648E+02 F= -.10190120E+03 E0= -.10190545E+03  EK= 0.38426E+01 SP= 0.91E+01 SK= 0.42E-01
 bond charge predicted
 prediction of wavefunctions
       N       E                     dE             d eps       ncg     rms          rms(c)
DAV:   1    -0.101952283804E+03   -0.51146E-01   -0.69077E-03   204   0.244E-01    0.788E-03
RMM:   2    -0.101952464868E+03   -0.18106E-03   -0.18385E-03   120   0.116E-01    0.538E-03
RMM:   3    -0.101952482211E+03   -0.17343E-04   -0.16528E-04    77   0.361E-02
   1670 T=   556. E= -.88963399E+02 F= -.10195248E+03 E0= -.10195675E+03  EK= 0.38110E+01 SP= 0.91E+01 SK= 0.36E-01
Information: wavefunction orthogonal band   60  0.6640
 bond charge predicted
 prediction of wavefunctions
       N       E                     dE             d eps       ncg     rms          rms(c)
DAV:   1    -0.102011676040E+03   -0.59211E-01   -0.60206E-03   168   0.220E-01    0.566E-03
RMM:   2    -0.102011760245E+03   -0.84205E-04   -0.85859E-04   120   0.729E-02
   1671 T=   554. E= -.88963238E+02 F= -.10201176E+03 E0= -.10201608E+03  EK= 0.37944E+01 SP= 0.92E+01 SK= 0.30E-01
 bond charge predicted
 prediction of wavefunctions
       N       E                     dE             d eps       ncg     rms          rms(c)
DAV:   1    -0.102077257060E+03   -0.65581E-01   -0.61740E-03   204   0.252E-01    0.800E-03
RMM:   2    -0.102077427145E+03   -0.17008E-03   -0.17411E-03   120   0.120E-01    0.590E-03
RMM:   3    -0.102077445690E+03   -0.18545E-04   -0.17623E-04    77   0.398E-02
   1672 T=   553. E= -.88963061E+02 F= -.10207745E+03 E0= -.10208185E+03  EK= 0.37915E+01 SP= 0.93E+01 SK= 0.25E-01
 bond charge predicted
 prediction of wavefunctions
       N       E                     dE             d eps       ncg     rms          rms(c)
DAV:   1    -0.102147163416E+03   -0.69736E-01   -0.54824E-03   192   0.225E-01    0.578E-03
RMM:   2    -0.102147238798E+03   -0.75382E-04   -0.77007E-04   119   0.753E-02
   1673 T=   555. E= -.88962825E+02 F= -.10214724E+03 E0= -.10215176E+03  EK= 0.37997E+01 SP= 0.94E+01 SK= 0.20E-01
 bond charge predicted
 prediction of wavefunctions
       N       E                     dE             d eps       ncg     rms          rms(c)
DAV:   1    -0.102218651558E+03   -0.71488E-01   -0.56027E-03   192   0.253E-01    0.104E-02
RMM:   2    -0.102218824797E+03   -0.17324E-03   -0.18115E-03   120   0.122E-01    0.636E-03
RMM:   3    -0.102218845858E+03   -0.21062E-04   -0.21343E-04    90   0.434E-02
   1674 T=   557. E= -.88962609E+02 F= -.10221885E+03 E0= -.10222350E+03  EK= 0.38166E+01 SP= 0.94E+01 SK= 0.15E-01
 bond charge predicted
 prediction of wavefunctions
       N       E                     dE             d eps       ncg     rms          rms(c)
DAV:   1    -0.102289497818E+03   -0.70673E-01   -0.54751E-03   192   0.227E-01    0.654E-03
RMM:   2    -0.102289583317E+03   -0.85499E-04   -0.88422E-04   119   0.757E-02
   1675 T=   560. E= -.88962452E+02 F= -.10228958E+03 E0= -.10229439E+03  EK= 0.38388E+01 SP= 0.95E+01 SK= 0.12E-01
 bond charge predicted
 prediction of wavefunctions
       N       E                     dE             d eps       ncg     rms          rms(c)
DAV:   1    -0.102356037878E+03   -0.66540E-01   -0.64933E-03   216   0.254E-01    0.117E-02
RMM:   2    -0.102356211729E+03   -0.17385E-03   -0.18464E-03   120   0.122E-01    0.759E-03
RMM:   3    -0.102356227393E+03   -0.15664E-04   -0.17573E-04    79   0.396E-02
   1676 T=   564. E= -.88962522E+02 F= -.10235623E+03 E0= -.10236121E+03  EK= 0.38625E+01 SP= 0.95E+01 SK= 0.89E-02
 bond charge predicted
 prediction of wavefunctions
       N       E                     dE             d eps       ncg     rms          rms(c)
DAV:   1    -0.102415270739E+03   -0.59059E-01   -0.58147E-03   180   0.231E-01    0.906E-03
RMM:   2    -0.102415379916E+03   -0.10918E-03   -0.11491E-03   120   0.795E-02    0.713E-03
RMM:   3    -0.102415399185E+03   -0.19269E-04   -0.22393E-04    91   0.366E-02
   1677 T=   567. E= -.88962563E+02 F= -.10241540E+03 E0= -.10242056E+03  EK= 0.38842E+01 SP= 0.96E+01 SK= 0.67E-02
Information: wavefunction orthogonal band   60  0.8248
 bond charge predicted
 prediction of wavefunctions
       N       E                     dE             d eps       ncg     rms          rms(c)
DAV:   1    -0.102464323575E+03   -0.48944E-01   -0.60569E-03   180   0.236E-01    0.870E-03
RMM:   2    -0.102464423319E+03   -0.99744E-04   -0.10630E-03   120   0.911E-02    0.434E-03
RMM:   3    -0.102464436211E+03   -0.12892E-04   -0.13163E-04    75   0.333E-02
   1678 T=   569. E= -.88962499E+02 F= -.10246444E+03 E0= -.10246974E+03  EK= 0.39007E+01 SP= 0.96E+01 SK= 0.49E-02
 bond charge predicted
 prediction of wavefunctions
       N       E                     dE             d eps       ncg     rms          rms(c)
DAV:   1    -0.102500769921E+03   -0.36347E-01   -0.57102E-03   192   0.234E-01    0.852E-03
RMM:   2    -0.102500882930E+03   -0.11301E-03   -0.11786E-03   120   0.883E-02    0.516E-03
RMM:   3    -0.102500896580E+03   -0.13650E-04   -0.14388E-04    87   0.310E-02
   1679 T=   571. E= -.88962550E+02 F= -.10250090E+03 E0= -.10250630E+03  EK= 0.39093E+01 SP= 0.96E+01 SK= 0.35E-02
 bond charge predicted
 prediction of wavefunctions
       N       E                     dE             d eps       ncg     rms          rms(c)
DAV:   1    -0.102522547992E+03   -0.21665E-01   -0.79915E-03   156   0.228E-01    0.690E-03
RMM:   2    -0.102522672677E+03   -0.12468E-03   -0.12751E-03   120   0.888E-02    0.390E-03
RMM:   3    -0.102522691269E+03   -0.18592E-04   -0.17951E-04    92   0.354E-02
   1680 T=   570. E= -.88962336E+02 F= -.10252269E+03 E0= -.10252813E+03  EK= 0.39081E+01 SP= 0.96E+01 SK= 0.24E-02
Information: wavefunction orthogonal band   60  0.6807
 bond charge predicted
 prediction of wavefunctions
       N       E                     dE             d eps       ncg     rms          rms(c)
DAV:   1    -0.102529114001E+03   -0.64413E-02   -0.62369E-03   204   0.229E-01    0.615E-03
RMM:   2    -0.102529247360E+03   -0.13336E-03   -0.13508E-03   120   0.882E-02    0.442E-03
RMM:   3    -0.102529263297E+03   -0.15937E-04   -0.15805E-04    83   0.331E-02
   1681 T=   569. E= -.88962180E+02 F= -.10252926E+03 E0= -.10253467E+03  EK= 0.38962E+01 SP= 0.97E+01 SK= 0.14E-02
 bond charge predicted
 prediction of wavefunctions
       N       E                     dE             d eps       ncg     rms          rms(c)
DAV:   1    -0.102519984120E+03    0.92632E-02   -0.58681E-03   192   0.225E-01    0.536E-03
RMM:   2    -0.102520071485E+03   -0.87366E-04   -0.88434E-04   120   0.845E-02
   1682 T=   565. E= -.88961737E+02 F= -.10252007E+03 E0= -.10252541E+03  EK= 0.38738E+01 SP= 0.97E+01 SK= 0.68E-03
 bond charge predicted
 prediction of wavefunctions
       N       E                     dE             d eps       ncg     rms          rms(c)
DAV:   1    -0.102495718698E+03    0.24265E-01   -0.61956E-03   204   0.244E-01    0.786E-03
RMM:   2    -0.102495864689E+03   -0.14599E-03   -0.14808E-03   120   0.116E-01    0.577E-03
RMM:   3    -0.102495882503E+03   -0.17815E-04   -0.16767E-04    74   0.394E-02
   1683 T=   561. E= -.88961364E+02 F= -.10249588E+03 E0= -.10250117E+03  EK= 0.38417E+01 SP= 0.97E+01 SK= 0.16E-03
 bond charge predicted
 prediction of wavefunctions
       N       E                     dE             d eps       ncg     rms          rms(c)
DAV:   1    -0.102458361081E+03    0.37504E-01   -0.46151E-03   192   0.215E-01    0.535E-03
RMM:   2    -0.102458439863E+03   -0.78782E-04   -0.80333E-04   119   0.732E-02
   1684 T=   555. E= -.88960829E+02 F= -.10245844E+03 E0= -.10246376E+03  EK= 0.38027E+01 SP= 0.97E+01 SK= 0.74E-05
 bond charge predicted
 prediction of wavefunctions
       N       E                     dE             d eps       ncg     rms          rms(c)
DAV:   1    -0.102409916423E+03    0.48445E-01   -0.74642E-03   204   0.242E-01    0.915E-03
RMM:   2    -0.102410068036E+03   -0.15161E-03   -0.15481E-03   120   0.116E-01    0.638E-03
RMM:   3    -0.102410082042E+03   -0.14005E-04   -0.13210E-04    70   0.353E-02
   1685 T=   549. E= -.88960199E+02 F= -.10241008E+03 E0= -.10241552E+03  EK= 0.37598E+01 SP= 0.97E+01 SK= 0.42E-03
 bond charge predicted
 prediction of wavefunctions
       N       E                     dE             d eps       ncg     rms          rms(c)
DAV:   1    -0.102353726828E+03    0.56341E-01   -0.52093E-03   192   0.202E-01    0.565E-03
RMM:   2    -0.102353785193E+03   -0.58365E-04   -0.61163E-04   119   0.672E-02
   1686 T=   542. E= -.88959640E+02 F= -.10235379E+03 E0= -.10235947E+03  EK= 0.37165E+01 SP= 0.97E+01 SK= 0.16E-02
 bond charge predicted
 prediction of wavefunctions
       N       E                     dE             d eps       ncg     rms          rms(c)
DAV:   1    -0.102293114426E+03    0.60612E-01   -0.55915E-03   216   0.230E-01    0.867E-03
RMM:   2    -0.102293257937E+03   -0.14351E-03   -0.14697E-03   120   0.112E-01    0.592E-03
RMM:   3    -0.102293273648E+03   -0.15711E-04   -0.14773E-04    70   0.364E-02
   1687 T=   537. E= -.88959230E+02 F= -.10229327E+03 E0= -.10229929E+03  EK= 0.36774E+01 SP= 0.97E+01 SK= 0.39E-02
 bond charge predicted
 prediction of wavefunctions
       N       E                     dE             d eps       ncg     rms          rms(c)
DAV:   1    -0.102231408157E+03    0.61850E-01   -0.56503E-03   192   0.192E-01    0.583E-03
RMM:   2    -0.102231465527E+03   -0.57369E-04   -0.59681E-04   119   0.694E-02
   1688 T=   532. E= -.88958685E+02 F= -.10223147E+03 E0= -.10223788E+03  EK= 0.36462E+01 SP= 0.96E+01 SK= 0.76E-02
 bond charge predicted
 prediction of wavefunctions
       N       E                     dE             d eps       ncg     rms          rms(c)
DAV:   1    -0.102171763739E+03    0.59644E-01   -0.61518E-03   168   0.219E-01    0.982E-03
RMM:   2    -0.102171911029E+03   -0.14729E-03   -0.15137E-03   120   0.111E-01    0.668E-03
RMM:   3    -0.102171930492E+03   -0.19463E-04   -0.19081E-04    81   0.416E-02
   1689 T=   529. E= -.88958277E+02 F= -.10217193E+03 E0= -.10217873E+03  EK= 0.36270E+01 SP= 0.96E+01 SK= 0.13E-01
 bond charge predicted
 prediction of wavefunctions
       N       E                     dE             d eps       ncg     rms          rms(c)
DAV:   1    -0.102117360285E+03    0.54551E-01   -0.59595E-03   192   0.183E-01    0.626E-03
RMM:   2    -0.102117416930E+03   -0.56645E-04   -0.59570E-04   119   0.674E-02
   1690 T=   529. E= -.88957806E+02 F= -.10211742E+03 E0= -.10212454E+03  EK= 0.36231E+01 SP= 0.95E+01 SK= 0.19E-01
 bond charge predicted
 prediction of wavefunctions
       N       E                     dE             d eps       ncg     rms          rms(c)
DAV:   1    -0.102070122576E+03    0.47238E-01   -0.68386E-03   216   0.210E-01    0.103E-02
RMM:   2    -0.102070246310E+03   -0.12373E-03   -0.12998E-03   120   0.106E-01    0.634E-03
RMM:   3    -0.102070258193E+03   -0.11882E-04   -0.11715E-04    69   0.333E-02
   1691 T=   531. E= -.88957421E+02 F= -.10207026E+03 E0= -.10207759E+03  EK= 0.36370E+01 SP= 0.94E+01 SK= 0.27E-01
 bond charge predicted
 prediction of wavefunctions
       N       E                     dE             d eps       ncg     rms          rms(c)
DAV:   1    -0.102032364388E+03    0.37882E-01   -0.63215E-03   192   0.181E-01    0.672E-03
RMM:   2    -0.102032415603E+03   -0.51215E-04   -0.54562E-04   119   0.653E-02
   1692 T=   536. E= -.88957243E+02 F= -.10203242E+03 E0= -.10203987E+03  EK= 0.36706E+01 SP= 0.94E+01 SK= 0.36E-01
 bond charge predicted
 prediction of wavefunctions
       N       E                     dE             d eps       ncg     rms          rms(c)
DAV:   1    -0.102004941807E+03    0.27423E-01   -0.71931E-03   204   0.211E-01    0.101E-02
RMM:   2    -0.102005076859E+03   -0.13505E-03   -0.14121E-03   120   0.107E-01    0.671E-03
RMM:   3    -0.102005089905E+03   -0.13046E-04   -0.13599E-04    70   0.355E-02
   1693 T=   544. E= -.88956985E+02 F= -.10200509E+03 E0= -.10201259E+03  EK= 0.37252E+01 SP= 0.93E+01 SK= 0.45E-01
 bond charge predicted
 prediction of wavefunctions
       N       E                     dE             d eps       ncg     rms          rms(c)
DAV:   1    -0.101989328113E+03    0.15749E-01   -0.68182E-03   180   0.183E-01    0.704E-03
RMM:   2    -0.101989383455E+03   -0.55341E-04   -0.58469E-04   119   0.677E-02
   1694 T=   555. E= -.88956682E+02 F= -.10198938E+03 E0= -.10199689E+03  EK= 0.38015E+01 SP= 0.92E+01 SK= 0.54E-01
 bond charge predicted
 prediction of wavefunctions
       N       E                     dE             d eps       ncg     rms          rms(c)
DAV:   1    -0.101985438315E+03    0.38898E-02   -0.75303E-03   192   0.216E-01    0.121E-02
RMM:   2    -0.101985573814E+03   -0.13550E-03   -0.14574E-03   120   0.108E-01    0.716E-03
RMM:   3    -0.101985589171E+03   -0.15358E-04   -0.16125E-04    68   0.371E-02
   1695 T=   569. E= -.88956513E+02 F= -.10198559E+03 E0= -.10199310E+03  EK= 0.38987E+01 SP= 0.91E+01 SK= 0.60E-01
 bond charge predicted
 prediction of wavefunctions
       N       E                     dE             d eps       ncg     rms          rms(c)
DAV:   1    -0.101992657117E+03   -0.70833E-02   -0.74335E-03   168   0.195E-01    0.844E-03
RMM:   2    -0.101992715478E+03   -0.58361E-04   -0.63489E-04   120   0.710E-02
   1696 T=   586. E= -.88956337E+02 F= -.10199272E+03 E0= -.10200026E+03  EK= 0.40144E+01 SP= 0.90E+01 SK= 0.64E-01
 bond charge predicted
 prediction of wavefunctions
       N       E                     dE             d eps       ncg     rms          rms(c)
DAV:   1    -0.102009036261E+03   -0.16379E-01   -0.79973E-03   144   0.230E-01    0.128E-02
RMM:   2    -0.102009189566E+03   -0.15330E-03   -0.16562E-03   120   0.116E-01    0.782E-03
RMM:   3    -0.102009207626E+03   -0.18060E-04   -0.20495E-04    77   0.426E-02
   1697 T=   605. E= -.88956317E+02 F= -.10200921E+03 E0= -.10201684E+03  EK= 0.41448E+01 SP= 0.88E+01 SK= 0.65E-01
 bond charge predicted
 prediction of wavefunctions
       N       E                     dE             d eps       ncg     rms          rms(c)
DAV:   1    -0.102032257200E+03   -0.23068E-01   -0.76335E-03   156   0.206E-01    0.987E-03
RMM:   2    -0.102032311867E+03   -0.54667E-04   -0.61307E-04   120   0.719E-02
   1698 T=   625. E= -.88956209E+02 F= -.10203231E+03 E0= -.10204010E+03  EK= 0.42847E+01 SP= 0.87E+01 SK= 0.62E-01
 bond charge predicted
 prediction of wavefunctions
       N       E                     dE             d eps       ncg     rms          rms(c)
DAV:   1    -0.102058899268E+03   -0.26642E-01   -0.79460E-03   180   0.241E-01    0.133E-02
RMM:   2    -0.102059053637E+03   -0.15437E-03   -0.16883E-03   120   0.118E-01    0.698E-03
RMM:   3    -0.102059073222E+03   -0.19585E-04   -0.20805E-04    83   0.435E-02
   1699 T=   646. E= -.88956292E+02 F= -.10205907E+03 E0= -.10206706E+03  EK= 0.44272E+01 SP= 0.86E+01 SK= 0.55E-01
 bond charge predicted
 prediction of wavefunctions
       N       E                     dE             d eps       ncg     rms          rms(c)
DAV:   1    -0.102085842117E+03   -0.26788E-01   -0.71792E-03   156   0.221E-01    0.103E-02
RMM:   2    -0.102085908921E+03   -0.66804E-04   -0.74425E-04   120   0.802E-02
   1700 T=   666. E= -.88956314E+02 F= -.10208591E+03 E0= -.10209408E+03  EK= 0.45648E+01 SP= 0.85E+01 SK= 0.46E-01
 bond charge predicted
 prediction of wavefunctions
       N       E                     dE             d eps       ncg     rms          rms(c)
DAV:   1    -0.102109405486E+03   -0.23563E-01   -0.76021E-03   168   0.260E-01    0.120E-02
RMM:   2    -0.102109587686E+03   -0.18220E-03   -0.19318E-03   120   0.126E-01    0.701E-03
RMM:   3    -0.102109607905E+03   -0.20220E-04   -0.20705E-04    79   0.427E-02
   1701 T=   685. E= -.88956304E+02 F= -.10210961E+03 E0= -.10211782E+03  EK= 0.46896E+01 SP= 0.84E+01 SK= 0.34E-01
 bond charge predicted
 prediction of wavefunctions
       N       E                     dE             d eps       ncg     rms          rms(c)
DAV:   1    -0.102127304063E+03   -0.17716E-01   -0.65462E-03   156   0.234E-01    0.925E-03
RMM:   2    -0.102127377157E+03   -0.73093E-04   -0.79201E-04   120   0.847E-02
   1702 T=   700. E= -.88956110E+02 F= -.10212738E+03 E0= -.10213532E+03  EK= 0.47945E+01 SP= 0.84E+01 SK= 0.22E-01
 bond charge predicted
 prediction of wavefunctions
       N       E                     dE             d eps       ncg     rms          rms(c)
DAV:   1    -0.102138097520E+03   -0.10793E-01   -0.68997E-03   192   0.276E-01    0.123E-02
RMM:   2    -0.102138293633E+03   -0.19611E-03   -0.20760E-03   120   0.134E-01    0.705E-03
RMM:   3    -0.102138316015E+03   -0.22382E-04   -0.22799E-04    80   0.456E-02
   1703 T=   711. E= -.88955799E+02 F= -.10213832E+03 E0= -.10214558E+03  EK= 0.48742E+01 SP= 0.83E+01 SK= 0.12E-01
 bond charge predicted
 prediction of wavefunctions
       N       E                     dE             d eps       ncg     rms          rms(c)
DAV:   1    -0.102142936779E+03   -0.46431E-02   -0.52179E-03   168   0.245E-01    0.939E-03
RMM:   2    -0.102143018308E+03   -0.81529E-04   -0.87724E-04   120   0.877E-02
   1704 T=   719. E= -.88955571E+02 F= -.10214302E+03 E0= -.10214934E+03  EK= 0.49258E+01 SP= 0.83E+01 SK= 0.42E-02
 bond charge predicted
 prediction of wavefunctions
       N       E                     dE             d eps       ncg     rms          rms(c)
DAV:   1    -0.102142114333E+03    0.82245E-03   -0.53531E-03   168   0.284E-01    0.140E-02
RMM:   2    -0.102142323443E+03   -0.20911E-03   -0.22208E-03   120   0.137E-01    0.820E-03
RMM:   3    -0.102142345793E+03   -0.22350E-04   -0.22899E-04    82   0.452E-02
   1705 T=   722. E= -.88955123E+02 F= -.10214235E+03 E0= -.10214776E+03  EK= 0.49480E+01 SP= 0.82E+01 SK= 0.34E-03
 bond charge predicted
 prediction of wavefunctions
       N       E                     dE             d eps       ncg     rms          rms(c)
DAV:   1    -0.102137770629E+03    0.45528E-02   -0.42760E-03   192   0.250E-01    0.802E-03
RMM:   2    -0.102137852734E+03   -0.82105E-04   -0.86830E-04   120   0.893E-02
   1706 T=   721. E= -.88954334E+02 F= -.10213785E+03 E0= -.10214255E+03  EK= 0.49416E+01 SP= 0.82E+01 SK= 0.80E-03
 bond charge predicted
 prediction of wavefunctions
       N       E                     dE             d eps       ncg     rms          rms(c)
DAV:   1    -0.102130952582E+03    0.68180E-02   -0.50437E-03   132   0.289E-01    0.112E-02
RMM:   2    -0.102131173648E+03   -0.22107E-03   -0.22827E-03   120   0.141E-01    0.724E-03
RMM:   3    -0.102131198250E+03   -0.24602E-04   -0.24122E-04    94   0.469E-02
   1707 T=   716. E= -.88953543E+02 F= -.10213120E+03 E0= -.10213540E+03  EK= 0.49082E+01 SP= 0.83E+01 SK= 0.54E-02
 bond charge predicted
 prediction of wavefunctions
       N       E                     dE             d eps       ncg     rms          rms(c)
DAV:   1    -0.102123169276E+03    0.80044E-02   -0.42919E-03   156   0.250E-01    0.711E-03
RMM:   2    -0.102123247029E+03   -0.77753E-04   -0.80790E-04   120   0.881E-02
   1708 T=   708. E= -.88952795E+02 F= -.10212325E+03 E0= -.10212712E+03  EK= 0.48500E+01 SP= 0.83E+01 SK= 0.14E-01
 bond charge predicted
 prediction of wavefunctions
       N       E                     dE             d eps       ncg     rms          rms(c)
DAV:   1    -0.102114042970E+03    0.91263E-02   -0.52095E-03   180   0.288E-01    0.119E-02
RMM:   2    -0.102114250678E+03   -0.20771E-03   -0.21684E-03   120   0.139E-01    0.714E-03
RMM:   3    -0.102114272494E+03   -0.21817E-04   -0.21683E-04    81   0.439E-02
   1709 T=   696. E= -.88952062E+02 F= -.10211427E+03 E0= -.10211792E+03  EK= 0.47698E+01 SP= 0.84E+01 SK= 0.24E-01
 bond charge predicted
 prediction of wavefunctions
       N       E                     dE             d eps       ncg     rms          rms(c)
DAV:   1    -0.102103902120E+03    0.10349E-01   -0.45061E-03   132   0.248E-01    0.704E-03
RMM:   2    -0.102103976507E+03   -0.74386E-04   -0.77466E-04   120   0.852E-02
   1710 T=   682. E= -.88951494E+02 F= -.10210398E+03 E0= -.10210749E+03  EK= 0.46705E+01 SP= 0.84E+01 SK= 0.36E-01
 bond charge predicted
 prediction of wavefunctions
       N       E                     dE             d eps       ncg     rms          rms(c)
DAV:   1    -0.102091315816E+03    0.12586E-01   -0.55140E-03   192   0.279E-01    0.134E-02
RMM:   2    -0.102091500035E+03   -0.18422E-03   -0.19775E-03   120   0.133E-01    0.785E-03
RMM:   3    -0.102091520683E+03   -0.20649E-04   -0.22055E-04    82   0.453E-02
   1711 T=   665. E= -.88950855E+02 F= -.10209152E+03 E0= -.10209496E+03  EK= 0.45553E+01 SP= 0.85E+01 SK= 0.48E-01
 bond charge predicted
 prediction of wavefunctions
       N       E                     dE             d eps       ncg     rms          rms(c)
DAV:   1    -0.102076149300E+03    0.15351E-01   -0.53964E-03   204   0.241E-01    0.885E-03
RMM:   2    -0.102076217608E+03   -0.68308E-04   -0.74275E-04   120   0.840E-02
   1712 T=   646. E= -.88950223E+02 F= -.10207622E+03 E0= -.10207962E+03  EK= 0.44278E+01 SP= 0.86E+01 SK= 0.57E-01
 bond charge predicted
 prediction of wavefunctions
       N       E                     dE             d eps       ncg     rms          rms(c)
DAV:   1    -0.102057499199E+03    0.18650E-01   -0.61394E-03   168   0.271E-01    0.125E-02
RMM:   2    -0.102057670349E+03   -0.17115E-03   -0.18376E-03   120   0.128E-01    0.640E-03
RMM:   3    -0.102057691352E+03   -0.21003E-04   -0.21332E-04    81   0.448E-02
   1713 T=   627. E= -.88949393E+02 F= -.10205769E+03 E0= -.10206111E+03  EK= 0.42921E+01 SP= 0.88E+01 SK= 0.64E-01
 bond charge predicted
 prediction of wavefunctions
       N       E                     dE             d eps       ncg     rms          rms(c)
DAV:   1    -0.102036790412E+03    0.20880E-01   -0.57697E-03   180   0.234E-01    0.922E-03
RMM:   2    -0.102036858797E+03   -0.68385E-04   -0.74392E-04   120   0.830E-02
   1714 T=   606. E= -.88948594E+02 F= -.10203686E+03 E0= -.10204032E+03  EK= 0.41529E+01 SP= 0.89E+01 SK= 0.68E-01
 bond charge predicted
 prediction of wavefunctions
       N       E                     dE             d eps       ncg     rms          rms(c)
DAV:   1    -0.102015655625E+03    0.21135E-01   -0.65600E-03   144   0.263E-01    0.110E-02
RMM:   2    -0.102015831738E+03   -0.17611E-03   -0.18481E-03   120   0.126E-01    0.643E-03
RMM:   3    -0.102015853669E+03   -0.21931E-04   -0.21622E-04    80   0.445E-02
   1715 T=   586. E= -.88947959E+02 F= -.10201585E+03 E0= -.10201938E+03  EK= 0.40161E+01 SP= 0.90E+01 SK= 0.67E-01
 bond charge predicted
 prediction of wavefunctions
       N       E                     dE             d eps       ncg     rms          rms(c)
DAV:   1    -0.101997204860E+03    0.18627E-01   -0.57628E-03   156   0.222E-01    0.846E-03
RMM:   2    -0.101997264437E+03   -0.59577E-04   -0.64636E-04   120   0.761E-02
   1716 T=   567. E= -.88947263E+02 F= -.10199726E+03 E0= -.10200089E+03  EK= 0.38876E+01 SP= 0.91E+01 SK= 0.63E-01
 bond charge predicted
 prediction of wavefunctions
       N       E                     dE             d eps       ncg     rms          rms(c)
DAV:   1    -0.101983479087E+03    0.13726E-01   -0.66429E-03   192   0.249E-01    0.107E-02
RMM:   2    -0.101983631441E+03   -0.15235E-03   -0.16005E-03   120   0.118E-01    0.608E-03
RMM:   3    -0.101983648602E+03   -0.17161E-04   -0.16935E-04    73   0.396E-02
   1717 T=   551. E= -.88946578E+02 F= -.10198365E+03 E0= -.10198740E+03  EK= 0.37724E+01 SP= 0.92E+01 SK= 0.56E-01
 bond charge predicted
 prediction of wavefunctions
       N       E                     dE             d eps       ncg     rms          rms(c)
DAV:   1    -0.101977198813E+03    0.64326E-02   -0.59965E-03   156   0.214E-01    0.744E-03
RMM:   2    -0.101977259661E+03   -0.60849E-04   -0.64616E-04   120   0.755E-02
   1718 T=   536. E= -.88946075E+02 F= -.10197726E+03 E0= -.10198114E+03  EK= 0.36745E+01 SP= 0.93E+01 SK= 0.46E-01
 bond charge predicted
 prediction of wavefunctions
       N       E                     dE             d eps       ncg     rms          rms(c)
DAV:   1    -0.101979744721E+03   -0.25459E-02   -0.65737E-03   180   0.240E-01    0.941E-03
RMM:   2    -0.101979893176E+03   -0.14845E-03   -0.15370E-03   120   0.113E-01    0.609E-03
RMM:   3    -0.101979911867E+03   -0.18691E-04   -0.18533E-04    73   0.404E-02
   1719 T=   525. E= -.88945779E+02 F= -.10197991E+03 E0= -.10198393E+03  EK= 0.35970E+01 SP= 0.94E+01 SK= 0.36E-01
 bond charge predicted
 prediction of wavefunctions
       N       E                     dE             d eps       ncg     rms          rms(c)
DAV:   1    -0.101992484307E+03   -0.12591E-01   -0.59233E-03   156   0.210E-01    0.680E-03
RMM:   2    -0.101992543865E+03   -0.59558E-04   -0.62160E-04   120   0.751E-02
   1720 T=   517. E= -.88945458E+02 F= -.10199254E+03 E0= -.10199669E+03  EK= 0.35417E+01 SP= 0.95E+01 SK= 0.25E-01
 bond charge predicted
 prediction of wavefunctions
       N       E                     dE             d eps       ncg     rms          rms(c)
DAV:   1    -0.102015476351E+03   -0.22992E-01   -0.63536E-03   192   0.237E-01    0.100E-02
RMM:   2    -0.102015614736E+03   -0.13838E-03   -0.14521E-03   120   0.112E-01    0.606E-03
RMM:   3    -0.102015630898E+03   -0.16162E-04   -0.16173E-04    70   0.383E-02
   1721 T=   512. E= -.88945159E+02 F= -.10201563E+03 E0= -.10201988E+03  EK= 0.35096E+01 SP= 0.95E+01 SK= 0.16E-01
 bond charge predicted
 prediction of wavefunctions
       N       E                     dE             d eps       ncg     rms          rms(c)
DAV:   1    -0.102049050712E+03   -0.33436E-01   -0.55123E-03   192   0.214E-01    0.614E-03
RMM:   2    -0.102049111276E+03   -0.60564E-04   -0.62710E-04   120   0.740E-02
   1722 T=   511. E= -.88944981E+02 F= -.10204911E+03 E0= -.10205344E+03  EK= 0.35006E+01 SP= 0.96E+01 SK= 0.89E-02
 bond charge predicted
 prediction of wavefunctions
       N       E                     dE             d eps       ncg     rms          rms(c)
DAV:   1    -0.102091657159E+03   -0.42606E-01   -0.56130E-03   192   0.241E-01    0.100E-02
RMM:   2    -0.102091812279E+03   -0.15512E-03   -0.16161E-03   120   0.114E-01    0.645E-03
RMM:   3    -0.102091831783E+03   -0.19504E-04   -0.19653E-04    73   0.410E-02
   1723 T=   513. E= -.88944711E+02 F= -.10209183E+03 E0= -.10209621E+03  EK= 0.35135E+01 SP= 0.96E+01 SK= 0.38E-02
 bond charge predicted
 prediction of wavefunctions
       N       E                     dE             d eps       ncg     rms          rms(c)
DAV:   1    -0.102142604863E+03   -0.50793E-01   -0.54331E-03   192   0.217E-01    0.642E-03
RMM:   2    -0.102142672915E+03   -0.68052E-04   -0.70321E-04   120   0.754E-02
   1724 T=   518. E= -.88944408E+02 F= -.10214267E+03 E0= -.10214709E+03  EK= 0.35469E+01 SP= 0.97E+01 SK= 0.91E-03
 bond charge predicted
 prediction of wavefunctions
       N       E                     dE             d eps       ncg     rms          rms(c)
DAV:   1    -0.102200297012E+03   -0.57692E-01   -0.49790E-03   156   0.245E-01    0.106E-02
RMM:   2    -0.102200449332E+03   -0.15232E-03   -0.16004E-03   120   0.116E-01    0.640E-03
RMM:   3    -0.102200467659E+03   -0.18327E-04   -0.18059E-04    67   0.404E-02
   1725 T=   525. E= -.88944242E+02 F= -.10220047E+03 E0= -.10220492E+03  EK= 0.35987E+01 SP= 0.97E+01 SK= 0.78E-06
 bond charge predicted
 prediction of wavefunctions
       N       E                     dE             d eps       ncg     rms          rms(c)
DAV:   1    -0.102262984389E+03   -0.62535E-01   -0.41677E-03   168   0.222E-01    0.678E-03
RMM:   2    -0.102263047438E+03   -0.63049E-04   -0.65404E-04   120   0.730E-02
   1726 T=   535. E= -.88944024E+02 F= -.10226305E+03 E0= -.10226756E+03  EK= 0.36664E+01 SP= 0.97E+01 SK= 0.63E-03
 bond charge predicted
 prediction of wavefunctions
       N       E                     dE             d eps       ncg     rms          rms(c)
DAV:   1    -0.102328040727E+03   -0.65056E-01   -0.44803E-03   228   0.251E-01    0.119E-02
RMM:   2    -0.102328184411E+03   -0.14368E-03   -0.15361E-03   120   0.117E-01    0.752E-03
RMM:   3    -0.102328197187E+03   -0.12775E-04   -0.14483E-04    64   0.367E-02
   1727 T=   547. E= -.88943904E+02 F= -.10232820E+03 E0= -.10233285E+03  EK= 0.37463E+01 SP= 0.96E+01 SK= 0.22E-02
 bond charge predicted
 prediction of wavefunctions
       N       E                     dE             d eps       ncg     rms          rms(c)
DAV:   1    -0.102393015082E+03   -0.64831E-01   -0.36761E-03   180   0.230E-01    0.828E-03
RMM:   2    -0.102393077304E+03   -0.62222E-04   -0.66956E-04   120   0.761E-02
   1728 T=   560. E= -.88943865E+02 F= -.10239308E+03 E0= -.10239796E+03  EK= 0.38342E+01 SP= 0.96E+01 SK= 0.41E-02
 bond charge predicted
 prediction of wavefunctions
       N       E                     dE             d eps       ncg     rms          rms(c)
DAV:   1    -0.102453457443E+03   -0.60442E-01   -0.38451E-03   168   0.259E-01    0.119E-02
RMM:   2    -0.102453615054E+03   -0.15761E-03   -0.16791E-03   120   0.119E-01    0.679E-03
RMM:   3    -0.102453635192E+03   -0.20138E-04   -0.20708E-04    75   0.428E-02
   1729 T=   573. E= -.88943791E+02 F= -.10245364E+03 E0= -.10245879E+03  EK= 0.39247E+01 SP= 0.96E+01 SK= 0.58E-02
 bond charge predicted
 prediction of wavefunctions
       N       E                     dE             d eps       ncg     rms          rms(c)
DAV:   1    -0.102505073827E+03   -0.51459E-01   -0.33551E-03   180   0.233E-01    0.941E-03
RMM:   2    -0.102505141855E+03   -0.68029E-04   -0.74433E-04   120   0.806E-02
   1730 T=   585. E= -.88943844E+02 F= -.10250514E+03 E0= -.10251054E+03  EK= 0.40110E+01 SP= 0.95E+01 SK= 0.70E-02
 bond charge predicted
 prediction of wavefunctions
       N       E                     dE             d eps       ncg     rms          rms(c)
DAV:   1    -0.102542500539E+03   -0.37427E-01   -0.44030E-03   204   0.260E-01    0.121E-02
RMM:   2    -0.102542662194E+03   -0.16166E-03   -0.17244E-03   120   0.120E-01    0.689E-03
RMM:   3    -0.102542681079E+03   -0.18885E-04   -0.19356E-04    74   0.410E-02
   1731 T=   596. E= -.88943925E+02 F= -.10254268E+03 E0= -.10254824E+03  EK= 0.40862E+01 SP= 0.95E+01 SK= 0.74E-02
 bond charge predicted
 prediction of wavefunctions
       N       E                     dE             d eps       ncg     rms          rms(c)
DAV:   1    -0.102562032069E+03   -0.19370E-01   -0.40843E-03   132   0.231E-01    0.897E-03
RMM:   2    -0.102562106605E+03   -0.74536E-04   -0.79835E-04   120   0.836E-02
   1732 T=   605. E= -.88944050E+02 F= -.10256211E+03 E0= -.10256775E+03  EK= 0.41444E+01 SP= 0.95E+01 SK= 0.73E-02
 bond charge predicted
 prediction of wavefunctions
       N       E                     dE             d eps       ncg     rms          rms(c)
DAV:   1    -0.102559658074E+03    0.23740E-02   -0.50875E-03   192   0.261E-01    0.128E-02
RMM:   2    -0.102559836518E+03   -0.17844E-03   -0.18853E-03   120   0.126E-01    0.816E-03
RMM:   3    -0.102559856492E+03   -0.19974E-04   -0.20870E-04    77   0.438E-02
   1733 T=   610. E= -.88943978E+02 F= -.10255986E+03 E0= -.10256554E+03  EK= 0.41804E+01 SP= 0.94E+01 SK= 0.67E-02
 bond charge predicted
 prediction of wavefunctions
       N       E                     dE             d eps       ncg     rms          rms(c)
DAV:   1    -0.102534237918E+03    0.25599E-01   -0.48996E-03   192   0.226E-01    0.876E-03
RMM:   2    -0.102534307884E+03   -0.69966E-04   -0.75789E-04   120   0.795E-02
   1734 T=   612. E= -.88943637E+02 F= -.10253431E+03 E0= -.10254001E+03  EK= 0.41917E+01 SP= 0.94E+01 SK= 0.59E-02
 bond charge predicted
 prediction of wavefunctions
       N       E                     dE             d eps       ncg     rms          rms(c)
DAV:   1    -0.102486115985E+03    0.48122E-01   -0.60470E-03   168   0.253E-01    0.124E-02
RMM:   2    -0.102486287222E+03   -0.17124E-03   -0.18200E-03   120   0.124E-01    0.747E-03
RMM:   3    -0.102486304914E+03   -0.17692E-04   -0.18497E-04    74   0.404E-02
   1735 T=   610. E= -.88943181E+02 F= -.10248630E+03 E0= -.10249201E+03  EK= 0.41785E+01 SP= 0.94E+01 SK= 0.52E-02
 bond charge predicted
 prediction of wavefunctions
       N       E                     dE             d eps       ncg     rms          rms(c)
DAV:   1    -0.102418838916E+03    0.67448E-01   -0.54293E-03   192   0.223E-01    0.894E-03
RMM:   2    -0.102418909715E+03   -0.70799E-04   -0.76698E-04   120   0.832E-02
   1736 T=   605. E= -.88942491E+02 F= -.10241891E+03 E0= -.10242461E+03  EK= 0.41439E+01 SP= 0.93E+01 SK= 0.47E-02
 bond charge predicted
 prediction of wavefunctions
       N       E                     dE             d eps       ncg     rms          rms(c)
DAV:   1    -0.102337799631E+03    0.81039E-01   -0.58765E-03   168   0.254E-01    0.123E-02
RMM:   2    -0.102337991811E+03   -0.19218E-03   -0.20268E-03   120   0.129E-01    0.796E-03
RMM:   3    -0.102338015402E+03   -0.23591E-04   -0.24114E-04    85   0.462E-02
   1737 T=   598. E= -.88941880E+02 F= -.10233802E+03 E0= -.10234373E+03  EK= 0.40945E+01 SP= 0.93E+01 SK= 0.46E-02
 bond charge predicted
 prediction of wavefunctions
       N       E                     dE             d eps       ncg     rms          rms(c)
DAV:   1    -0.102250216222E+03    0.87776E-01   -0.57573E-03   180   0.217E-01    0.941E-03
RMM:   2    -0.102250293217E+03   -0.76995E-04   -0.83864E-04   120   0.845E-02
   1738 T=   589. E= -.88940978E+02 F= -.10225029E+03 E0= -.10225604E+03  EK= 0.40382E+01 SP= 0.93E+01 SK= 0.48E-02
 bond charge predicted
 prediction of wavefunctions
       N       E                     dE             d eps       ncg     rms          rms(c)
DAV:   1    -0.102163497095E+03    0.86719E-01   -0.63893E-03   192   0.251E-01    0.120E-02
RMM:   2    -0.102163679901E+03   -0.18281E-03   -0.19172E-03   120   0.126E-01    0.717E-03
RMM:   3    -0.102163698983E+03   -0.19082E-04   -0.18448E-04    76   0.409E-02
   1739 T=   582. E= -.88940044E+02 F= -.10216370E+03 E0= -.10216952E+03  EK= 0.39843E+01 SP= 0.92E+01 SK= 0.56E-02
 bond charge predicted
 prediction of wavefunctions
       N       E                     dE             d eps       ncg     rms          rms(c)
DAV:   1    -0.102085587528E+03    0.78092E-01   -0.59984E-03   192   0.216E-01    0.843E-03
RMM:   2    -0.102085667764E+03   -0.80237E-04   -0.85628E-04   120   0.813E-02
   1740 T=   575. E= -.88939467E+02 F= -.10208567E+03 E0= -.10209161E+03  EK= 0.39409E+01 SP= 0.92E+01 SK= 0.68E-02
 bond charge predicted
 prediction of wavefunctions
       N       E                     dE             d eps       ncg     rms          rms(c)
DAV:   1    -0.102020920773E+03    0.64667E-01   -0.72964E-03   204   0.250E-01    0.110E-02
RMM:   2    -0.102021103026E+03   -0.18225E-03   -0.18948E-03   120   0.128E-01    0.750E-03
RMM:   3    -0.102021121378E+03   -0.18352E-04   -0.17418E-04    72   0.411E-02
   1741 T=   571. E= -.88938860E+02 F= -.10202112E+03 E0= -.10202723E+03  EK= 0.39146E+01 SP= 0.92E+01 SK= 0.85E-02
 bond charge predicted
 prediction of wavefunctions
       N       E                     dE             d eps       ncg     rms          rms(c)
DAV:   1    -0.101973656924E+03    0.47446E-01   -0.57318E-03   132   0.216E-01    0.811E-03
RMM:   2    -0.101973729174E+03   -0.72250E-04   -0.77334E-04   120   0.797E-02
   1742 T=   571. E= -.88938437E+02 F= -.10197373E+03 E0= -.10198007E+03  EK= 0.39094E+01 SP= 0.91E+01 SK= 0.11E-01
 bond charge predicted
 prediction of wavefunctions
       N       E                     dE             d eps       ncg     rms          rms(c)
DAV:   1    -0.101944593565E+03    0.29063E-01   -0.60454E-03   168   0.249E-01    0.119E-02
RMM:   2    -0.101944772188E+03   -0.17862E-03   -0.18619E-03   120   0.122E-01    0.757E-03
RMM:   3    -0.101944793942E+03   -0.21755E-04   -0.21788E-04    87   0.437E-02
   1743 T=   573. E= -.88938182E+02 F= -.10194479E+03 E0= -.10195141E+03  EK= 0.39271E+01 SP= 0.91E+01 SK= 0.13E-01
 bond charge predicted
 prediction of wavefunctions
       N       E                     dE             d eps       ncg     rms          rms(c)
DAV:   1    -0.101932936681E+03    0.11836E-01   -0.55178E-03   180   0.219E-01    0.846E-03
RMM:   2    -0.101933037588E+03   -0.10091E-03   -0.10674E-03   120   0.808E-02    0.513E-03
RMM:   3    -0.101933055675E+03   -0.18087E-04   -0.19474E-04    84   0.346E-02
   1744 T=   579. E= -.88938097E+02 F= -.10193306E+03 E0= -.10193999E+03  EK= 0.39662E+01 SP= 0.90E+01 SK= 0.15E-01
Information: wavefunction orthogonal band   60  0.7597
 bond charge predicted
 prediction of wavefunctions
       N       E                     dE             d eps       ncg     rms          rms(c)
DAV:   1    -0.101935441787E+03   -0.24042E-02   -0.58780E-03   192   0.225E-01    0.910E-03
RMM:   2    -0.101935525055E+03   -0.83268E-04   -0.87177E-04   120   0.849E-02
   1745 T=   587. E= -.88938135E+02 F= -.10193553E+03 E0= -.10194281E+03  EK= 0.40233E+01 SP= 0.90E+01 SK= 0.16E-01
 bond charge predicted
 prediction of wavefunctions
       N       E                     dE             d eps       ncg     rms          rms(c)
DAV:   1    -0.101947310094E+03   -0.11868E-01   -0.61900E-03   204   0.263E-01    0.783E-03
RMM:   2    -0.101947495685E+03   -0.18559E-03   -0.18770E-03   120   0.128E-01    0.632E-03
RMM:   3    -0.101947517573E+03   -0.21889E-04   -0.20760E-04    82   0.440E-02
   1746 T=   597. E= -.88938236E+02 F= -.10194752E+03 E0= -.10195515E+03  EK= 0.40927E+01 SP= 0.89E+01 SK= 0.17E-01
 bond charge predicted
 prediction of wavefunctions
       N       E                     dE             d eps       ncg     rms          rms(c)
DAV:   1    -0.101964153487E+03   -0.16658E-01   -0.52197E-03   204   0.226E-01    0.812E-03
RMM:   2    -0.101964217019E+03   -0.63532E-04   -0.66541E-04   120   0.706E-02
   1747 T=   608. E= -.88938213E+02 F= -.10196422E+03 E0= -.10197214E+03  EK= 0.41682E+01 SP= 0.88E+01 SK= 0.17E-01
 bond charge predicted
 prediction of wavefunctions
       N       E                     dE             d eps       ncg     rms          rms(c)
DAV:   1    -0.101981311614E+03   -0.17158E-01   -0.52804E-03   216   0.262E-01    0.889E-03
RMM:   2    -0.101981480930E+03   -0.16932E-03   -0.17229E-03   120   0.120E-01    0.615E-03
RMM:   3    -0.101981496451E+03   -0.15521E-04   -0.14496E-04    68   0.362E-02
   1748 T=   619. E= -.88938208E+02 F= -.10198150E+03 E0= -.10198960E+03  EK= 0.42436E+01 SP= 0.88E+01 SK= 0.15E-01
 bond charge predicted
 prediction of wavefunctions
       N       E                     dE             d eps       ncg     rms          rms(c)
DAV:   1    -0.101995456360E+03   -0.13975E-01   -0.47491E-03   192   0.232E-01    0.678E-03
RMM:   2    -0.101995510826E+03   -0.54466E-04   -0.56906E-04   120   0.647E-02
   1749 T=   630. E= -.88938020E+02 F= -.10199551E+03 E0= -.10200363E+03  EK= 0.43133E+01 SP= 0.87E+01 SK= 0.13E-01
 bond charge predicted
 prediction of wavefunctions
       N       E                     dE             d eps       ncg     rms          rms(c)
DAV:   1    -0.102003637371E+03   -0.81810E-02   -0.52093E-03   180   0.266E-01    0.956E-03
RMM:   2    -0.102003808601E+03   -0.17123E-03   -0.17458E-03   120   0.122E-01    0.706E-03
RMM:   3    -0.102003827566E+03   -0.18965E-04   -0.18881E-04    70   0.409E-02
   1750 T=   638. E= -.88937810E+02 F= -.10200383E+03 E0= -.10201176E+03  EK= 0.43726E+01 SP= 0.87E+01 SK= 0.10E-01
 bond charge predicted
 prediction of wavefunctions
       N       E                     dE             d eps       ncg     rms          rms(c)
DAV:   1    -0.102005236235E+03   -0.14276E-02   -0.50253E-03   180   0.242E-01    0.634E-03
RMM:   2    -0.102005306843E+03   -0.70607E-04   -0.72881E-04   120   0.776E-02
   1751 T=   645. E= -.88937576E+02 F= -.10200531E+03 E0= -.10201287E+03  EK= 0.44186E+01 SP= 0.86E+01 SK= 0.70E-02
 bond charge predicted
 prediction of wavefunctions
       N       E                     dE             d eps       ncg     rms          rms(c)
DAV:   1    -0.101999932733E+03    0.53035E-02   -0.61025E-03   168   0.274E-01    0.110E-02
RMM:   2    -0.102000113444E+03   -0.18071E-03   -0.18745E-03   120   0.127E-01    0.761E-03
RMM:   3    -0.102000136220E+03   -0.22776E-04   -0.23691E-04    81   0.454E-02
   1752 T=   650. E= -.88937208E+02 F= -.10200014E+03 E0= -.10200721E+03  EK= 0.44501E+01 SP= 0.86E+01 SK= 0.42E-02
 bond charge predicted
 prediction of wavefunctions
       N       E                     dE             d eps       ncg     rms          rms(c)
DAV:   1    -0.101988888621E+03    0.11225E-01   -0.70132E-03   204   0.244E-01    0.692E-03
RMM:   2    -0.101988962287E+03   -0.73666E-04   -0.76311E-04   120   0.765E-02
   1753 T=   652. E= -.88936610E+02 F= -.10198896E+03 E0= -.10199557E+03  EK= 0.44666E+01 SP= 0.86E+01 SK= 0.21E-02
 bond charge predicted
 prediction of wavefunctions
       N       E                     dE             d eps       ncg     rms          rms(c)
DAV:   1    -0.101973060374E+03    0.15828E-01   -0.81052E-03   216   0.273E-01    0.127E-02
RMM:   2    -0.101973234804E+03   -0.17443E-03   -0.18366E-03   120   0.127E-01    0.781E-03
RMM:   3    -0.101973250967E+03   -0.16163E-04   -0.17265E-04    74   0.398E-02
   1754 T=   652. E= -.88936047E+02 F= -.10197325E+03 E0= -.10197949E+03  EK= 0.44688E+01 SP= 0.86E+01 SK= 0.64E-03
 bond charge predicted
 prediction of wavefunctions
       N       E                     dE             d eps       ncg     rms          rms(c)
DAV:   1    -0.101954640102E+03    0.18595E-01   -0.71527E-03   168   0.247E-01    0.788E-03
RMM:   2    -0.101954721801E+03   -0.81699E-04   -0.85371E-04   120   0.775E-02
   1755 T=   651. E= -.88935526E+02 F= -.10195472E+03 E0= -.10196073E+03  EK= 0.44583E+01 SP= 0.86E+01 SK= 0.28E-04
 bond charge predicted
 prediction of wavefunctions
       N       E                     dE             d eps       ncg     rms          rms(c)
DAV:   1    -0.101934646946E+03    0.19993E-01   -0.83048E-03   216   0.278E-01    0.157E-02
RMM:   2    -0.101934825690E+03   -0.17874E-03   -0.19662E-03   120   0.132E-01    0.966E-03
RMM:   3    -0.101934839086E+03   -0.13395E-04   -0.17996E-04    73   0.414E-02
   1756 T=   648. E= -.88935132E+02 F= -.10193484E+03 E0= -.10194073E+03  EK= 0.44367E+01 SP= 0.86E+01 SK= 0.19E-03
 bond charge predicted
 prediction of wavefunctions
       N       E                     dE             d eps       ncg     rms          rms(c)
DAV:   1    -0.101914186341E+03    0.20639E-01   -0.75300E-03   180   0.247E-01    0.126E-02
RMM:   2    -0.101914262968E+03   -0.76627E-04   -0.86636E-04   120   0.805E-02
   1757 T=   643. E= -.88934825E+02 F= -.10191426E+03 E0= -.10192009E+03  EK= 0.44055E+01 SP= 0.86E+01 SK= 0.98E-03
 bond charge predicted
 prediction of wavefunctions
       N       E                     dE             d eps       ncg     rms          rms(c)
DAV:   1    -0.101892673016E+03    0.21513E-01   -0.80705E-03   168   0.276E-01    0.152E-02
RMM:   2    -0.101892867244E+03   -0.19423E-03   -0.21158E-03   120   0.132E-01    0.819E-03
RMM:   3    -0.101892891430E+03   -0.24185E-04   -0.26298E-04    88   0.486E-02
   1758 T=   637. E= -.88934329E+02 F= -.10189289E+03 E0= -.10189863E+03  EK= 0.43658E+01 SP= 0.86E+01 SK= 0.22E-02
 bond charge predicted
 prediction of wavefunctions
       N       E                     dE             d eps       ncg     rms          rms(c)
DAV:   1    -0.101870362474E+03    0.22505E-01   -0.79306E-03   180   0.243E-01    0.127E-02
RMM:   2    -0.101870440579E+03   -0.78105E-04   -0.88835E-04   120   0.840E-02
   1759 T=   630. E= -.88933837E+02 F= -.10187044E+03 E0= -.10187602E+03  EK= 0.43182E+01 SP= 0.86E+01 SK= 0.36E-02
 bond charge predicted
 prediction of wavefunctions
       N       E                     dE             d eps       ncg     rms          rms(c)
DAV:   1    -0.101845933204E+03    0.24429E-01   -0.92701E-03   204   0.272E-01    0.138E-02
RMM:   2    -0.101846115562E+03   -0.18236E-03   -0.19720E-03   120   0.130E-01    0.736E-03
RMM:   3    -0.101846134135E+03   -0.18574E-04   -0.19828E-04    78   0.425E-02
   1760 T=   622. E= -.88933294E+02 F= -.10184613E+03 E0= -.10185147E+03  EK= 0.42636E+01 SP= 0.86E+01 SK= 0.50E-02
 bond charge predicted
 prediction of wavefunctions
       N       E                     dE             d eps       ncg     rms          rms(c)
DAV:   1    -0.101819579539E+03    0.26536E-01   -0.79652E-03   204   0.238E-01    0.117E-02
RMM:   2    -0.101819651860E+03   -0.72320E-04   -0.81724E-04   120   0.814E-02
   1761 T=   614. E= -.88932855E+02 F= -.10181965E+03 E0= -.10182473E+03  EK= 0.42030E+01 SP= 0.87E+01 SK= 0.61E-02
 bond charge predicted
 prediction of wavefunctions
       N       E                     dE             d eps       ncg     rms          rms(c)
DAV:   1    -0.101790362163E+03    0.29217E-01   -0.84169E-03   168   0.267E-01    0.116E-02
RMM:   2    -0.101790544844E+03   -0.18268E-03   -0.19270E-03   120   0.127E-01    0.642E-03
RMM:   3    -0.101790566243E+03   -0.21400E-04   -0.21626E-04    79   0.445E-02
   1762 T=   604. E= -.88932264E+02 F= -.10179057E+03 E0= -.10179542E+03  EK= 0.41379E+01 SP= 0.87E+01 SK= 0.67E-02
 bond charge predicted
 prediction of wavefunctions
       N       E                     dE             d eps       ncg     rms          rms(c)
DAV:   1    -0.101759469242E+03    0.31076E-01   -0.75319E-03   132   0.229E-01    0.964E-03
RMM:   2    -0.101759541222E+03   -0.71980E-04   -0.78290E-04   120   0.812E-02
   1763 T=   594. E= -.88931795E+02 F= -.10175954E+03 E0= -.10176424E+03  EK= 0.40705E+01 SP= 0.88E+01 SK= 0.67E-02
 bond charge predicted
 prediction of wavefunctions
       N       E                     dE             d eps       ncg     rms          rms(c)
DAV:   1    -0.101727009959E+03    0.32459E-01   -0.87840E-03   180   0.256E-01    0.106E-02
RMM:   2    -0.101727180021E+03   -0.17006E-03   -0.17804E-03   120   0.123E-01    0.618E-03
RMM:   3    -0.101727198281E+03   -0.18260E-04   -0.18046E-04    74   0.403E-02
   1764 T=   584. E= -.88931205E+02 F= -.10172720E+03 E0= -.10173183E+03  EK= 0.40033E+01 SP= 0.88E+01 SK= 0.61E-02
 bond charge predicted
 prediction of wavefunctions
       N       E                     dE             d eps       ncg     rms          rms(c)
DAV:   1    -0.101694998926E+03    0.32181E-01   -0.76486E-03   156   0.221E-01    0.811E-03
RMM:   2    -0.101695069402E+03   -0.70475E-04   -0.75048E-04   120   0.810E-02
   1765 T=   575. E= -.88930762E+02 F= -.10169507E+03 E0= -.10169972E+03  EK= 0.39391E+01 SP= 0.88E+01 SK= 0.50E-02
 bond charge predicted
 prediction of wavefunctions
       N       E                     dE             d eps       ncg     rms          rms(c)
DAV:   1    -0.101664240884E+03    0.30758E-01   -0.83774E-03   192   0.250E-01    0.110E-02
RMM:   2    -0.101664408499E+03   -0.16761E-03   -0.17592E-03   120   0.122E-01    0.667E-03
RMM:   3    -0.101664428664E+03   -0.20165E-04   -0.20409E-04    72   0.436E-02
   1766 T=   566. E= -.88930138E+02 F= -.10166443E+03 E0= -.10166914E+03  EK= 0.38808E+01 SP= 0.88E+01 SK= 0.37E-02
 bond charge predicted
 prediction of wavefunctions
       N       E                     dE             d eps       ncg     rms          rms(c)
DAV:   1    -0.101637672323E+03    0.26736E-01   -0.76077E-03   180   0.210E-01    0.759E-03
RMM:   2    -0.101637734844E+03   -0.62520E-04   -0.66511E-04   120   0.769E-02
   1767 T=   559. E= -.88929619E+02 F= -.10163773E+03 E0= -.10164255E+03  EK= 0.38320E+01 SP= 0.89E+01 SK= 0.22E-02
 bond charge predicted
 prediction of wavefunctions
       N       E                     dE             d eps       ncg     rms          rms(c)
DAV:   1    -0.101617006658E+03    0.20666E-01   -0.81649E-03   192   0.234E-01    0.104E-02
RMM:   2    -0.101617145006E+03   -0.13835E-03   -0.14587E-03   120   0.111E-01    0.597E-03
RMM:   3    -0.101617161749E+03   -0.16743E-04   -0.16713E-04    68   0.388E-02
   1768 T=   554. E= -.88929194E+02 F= -.10161716E+03 E0= -.10162213E+03  EK= 0.37956E+01 SP= 0.89E+01 SK= 0.95E-03
 bond charge predicted
 prediction of wavefunctions
       N       E                     dE             d eps       ncg     rms          rms(c)
DAV:   1    -0.101604071886E+03    0.13073E-01   -0.76372E-03   168   0.205E-01    0.708E-03
RMM:   2    -0.101604139348E+03   -0.67462E-04   -0.70741E-04   120   0.786E-02
   1769 T=   551. E= -.88928711E+02 F= -.10160414E+03 E0= -.10160928E+03  EK= 0.37739E+01 SP= 0.89E+01 SK= 0.18E-03
 bond charge predicted
 prediction of wavefunctions
       N       E                     dE             d eps       ncg     rms          rms(c)
DAV:   1    -0.101600416697E+03    0.36552E-02   -0.82551E-03   192   0.232E-01    0.111E-02
RMM:   2    -0.101600573807E+03   -0.15711E-03   -0.16581E-03   120   0.116E-01    0.654E-03
RMM:   3    -0.101600594905E+03   -0.21098E-04   -0.20984E-04    73   0.435E-02
   1770 T=   550. E= -.88928367E+02 F= -.10160059E+03 E0= -.10160592E+03  EK= 0.37690E+01 SP= 0.89E+01 SK= 0.26E-04
 bond charge predicted
 prediction of wavefunctions
       N       E                     dE             d eps       ncg     rms          rms(c)
DAV:   1    -0.101607560717E+03   -0.69869E-02   -0.71900E-03   168   0.200E-01    0.728E-03
RMM:   2    -0.101607615761E+03   -0.55043E-04   -0.59056E-04   120   0.722E-02
   1771 T=   552. E= -.88927999E+02 F= -.10160762E+03 E0= -.10161314E+03  EK= 0.37822E+01 SP= 0.89E+01 SK= 0.54E-03
 bond charge predicted
 prediction of wavefunctions
       N       E                     dE             d eps       ncg     rms          rms(c)
DAV:   1    -0.101625851793E+03   -0.18291E-01   -0.71434E-03   168   0.226E-01    0.104E-02
RMM:   2    -0.101625986105E+03   -0.13431E-03   -0.14172E-03   120   0.109E-01    0.622E-03
RMM:   3    -0.101626002796E+03   -0.16690E-04   -0.16820E-04    65   0.386E-02
   1772 T=   557. E= -.88927635E+02 F= -.10162600E+03 E0= -.10163174E+03  EK= 0.38142E+01 SP= 0.89E+01 SK= 0.16E-02
 bond charge predicted
 prediction of wavefunctions
       N       E                     dE             d eps       ncg     rms          rms(c)
DAV:   1    -0.101655929660E+03   -0.29944E-01   -0.62349E-03   180   0.199E-01    0.691E-03
RMM:   2    -0.101655982977E+03   -0.53317E-04   -0.56781E-04   120   0.718E-02
   1773 T=   564. E= -.88927493E+02 F= -.10165598E+03 E0= -.10166193E+03  EK= 0.38642E+01 SP= 0.89E+01 SK= 0.30E-02
 bond charge predicted
 prediction of wavefunctions
       N       E                     dE             d eps       ncg     rms          rms(c)
DAV:   1    -0.101696013006E+03   -0.40083E-01   -0.64787E-03   168   0.229E-01    0.100E-02
RMM:   2    -0.101696155521E+03   -0.14251E-03   -0.14952E-03   120   0.111E-01    0.574E-03
RMM:   3    -0.101696176150E+03   -0.20629E-04   -0.20261E-04    82   0.425E-02
   1774 T=   574. E= -.88927298E+02 F= -.10169618E+03 E0= -.10170231E+03  EK= 0.39305E+01 SP= 0.88E+01 SK= 0.44E-02
 bond charge predicted
 prediction of wavefunctions
       N       E                     dE             d eps       ncg     rms          rms(c)
DAV:   1    -0.101744972005E+03   -0.48816E-01   -0.52901E-03   156   0.205E-01    0.717E-03
RMM:   2    -0.101745032603E+03   -0.60598E-04   -0.64348E-04   120   0.766E-02
   1775 T=   585. E= -.88927133E+02 F= -.10174503E+03 E0= -.10175133E+03  EK= 0.40099E+01 SP= 0.88E+01 SK= 0.54E-02
 bond charge predicted
 prediction of wavefunctions
       N       E                     dE             d eps       ncg     rms          rms(c)
DAV:   1    -0.101799752202E+03   -0.54780E-01   -0.55608E-03   168   0.235E-01    0.966E-03
RMM:   2    -0.101799891724E+03   -0.13952E-03   -0.14488E-03   120   0.110E-01    0.631E-03
RMM:   3    -0.101799908489E+03   -0.16765E-04   -0.16777E-04    66   0.383E-02
   1776 T=   598. E= -.88926975E+02 F= -.10179991E+03 E0= -.10180638E+03  EK= 0.40982E+01 SP= 0.88E+01 SK= 0.58E-02
 bond charge predicted
 prediction of wavefunctions
       N       E                     dE             d eps       ncg     rms          rms(c)
DAV:   1    -0.101857429572E+03   -0.57538E-01   -0.48875E-03   132   0.211E-01    0.643E-03
RMM:   2    -0.101857485817E+03   -0.56245E-04   -0.59323E-04   120   0.742E-02
   1777 T=   612. E= -.88926924E+02 F= -.10185749E+03 E0= -.10186412E+03  EK= 0.41900E+01 SP= 0.87E+01 SK= 0.55E-02
 bond charge predicted
 prediction of wavefunctions
       N       E                     dE             d eps       ncg     rms          rms(c)
DAV:   1    -0.101913841000E+03   -0.56411E-01   -0.54004E-03   180   0.244E-01    0.102E-02
RMM:   2    -0.101913992970E+03   -0.15197E-03   -0.15834E-03   120   0.116E-01    0.615E-03
RMM:   3    -0.101914013225E+03   -0.20255E-04   -0.20000E-04    77   0.422E-02
   1778 T=   625. E= -.88926883E+02 F= -.10191401E+03 E0= -.10192083E+03  EK= 0.42793E+01 SP= 0.87E+01 SK= 0.44E-02
 bond charge predicted
 prediction of wavefunctions
       N       E                     dE             d eps       ncg     rms          rms(c)
DAV:   1    -0.101965404485E+03   -0.51412E-01   -0.48413E-03   120   0.221E-01    0.681E-03
RMM:   2    -0.101965471469E+03   -0.66984E-04   -0.70306E-04   120   0.802E-02
   1779 T=   636. E= -.88926600E+02 F= -.10196547E+03 E0= -.10197248E+03  EK= 0.43598E+01 SP= 0.87E+01 SK= 0.30E-02
 bond charge predicted
 prediction of wavefunctions
       N       E                     dE             d eps       ncg     rms          rms(c)
DAV:   1    -0.102008795352E+03   -0.43391E-01   -0.61700E-03   204   0.254E-01    0.105E-02
RMM:   2    -0.102008948754E+03   -0.15340E-03   -0.15962E-03   120   0.118E-01    0.689E-03
RMM:   3    -0.102008964432E+03   -0.15678E-04   -0.15989E-04    69   0.381E-02
   1780 T=   646. E= -.88926517E+02 F= -.10200896E+03 E0= -.10201616E+03  EK= 0.44258E+01 SP= 0.87E+01 SK= 0.15E-02
 bond charge predicted
 prediction of wavefunctions
       N       E                     dE             d eps       ncg     rms          rms(c)
DAV:   1    -0.102041853845E+03   -0.32905E-01   -0.56547E-03   168   0.230E-01    0.704E-03
RMM:   2    -0.102041927104E+03   -0.73259E-04   -0.76778E-04   120   0.832E-02
   1781 T=   653. E= -.88926251E+02 F= -.10204193E+03 E0= -.10204926E+03  EK= 0.44731E+01 SP= 0.86E+01 SK= 0.37E-03
 bond charge predicted
 prediction of wavefunctions
       N       E                     dE             d eps       ncg     rms          rms(c)
DAV:   1    -0.102063714370E+03   -0.21861E-01   -0.68769E-03   192   0.265E-01    0.120E-02
RMM:   2    -0.102063892837E+03   -0.17847E-03   -0.18634E-03   120   0.126E-01    0.747E-03
RMM:   3    -0.102063913995E+03   -0.21158E-04   -0.21321E-04    79   0.438E-02
   1782 T=   657. E= -.88925965E+02 F= -.10206391E+03 E0= -.10207128E+03  EK= 0.44996E+01 SP= 0.86E+01 SK= 0.45E-05
 bond charge predicted
 prediction of wavefunctions
       N       E                     dE             d eps       ncg     rms          rms(c)
DAV:   1    -0.102075194397E+03   -0.11302E-01   -0.71766E-03   204   0.236E-01    0.815E-03
RMM:   2    -0.102075272498E+03   -0.78101E-04   -0.83073E-04   120   0.849E-02
   1783 T=   658. E= -.88925132E+02 F= -.10207527E+03 E0= -.10208256E+03  EK= 0.45052E+01 SP= 0.86E+01 SK= 0.59E-03
 bond charge predicted
 prediction of wavefunctions
       N       E                     dE             d eps       ncg     rms          rms(c)
DAV:   1    -0.102079425589E+03   -0.42312E-02   -0.86754E-03   204   0.268E-01    0.118E-02
RMM:   2    -0.102079605301E+03   -0.17971E-03   -0.18780E-03   120   0.126E-01    0.780E-03
RMM:   3    -0.102079624611E+03   -0.19310E-04   -0.19823E-04    79   0.429E-02
   1784 T=   656. E= -.88924376E+02 F= -.10207962E+03 E0= -.10208673E+03  EK= 0.44929E+01 SP= 0.87E+01 SK= 0.21E-02
 bond charge predicted
 prediction of wavefunctions
       N       E                     dE             d eps       ncg     rms          rms(c)
DAV:   1    -0.102081099640E+03   -0.14943E-02   -0.83823E-03   144   0.240E-01    0.837E-03
RMM:   2    -0.102081188134E+03   -0.88494E-04   -0.93174E-04   120   0.899E-02
   1785 T=   652. E= -.88923473E+02 F= -.10208119E+03 E0= -.10208806E+03  EK= 0.44675E+01 SP= 0.87E+01 SK= 0.45E-02
 bond charge predicted
 prediction of wavefunctions
       N       E                     dE             d eps       ncg     rms          rms(c)
DAV:   1    -0.102084483023E+03   -0.33834E-02   -0.97135E-03   192   0.273E-01    0.132E-02
RMM:   2    -0.102084685186E+03   -0.20216E-03   -0.21153E-03   120   0.132E-01    0.853E-03
RMM:   3    -0.102084708369E+03   -0.23183E-04   -0.23301E-04    86   0.454E-02
   1786 T=   647. E= -.88922452E+02 F= -.10208471E+03 E0= -.10209134E+03  EK= 0.44345E+01 SP= 0.87E+01 SK= 0.74E-02
 bond charge predicted
 prediction of wavefunctions
       N       E                     dE             d eps       ncg     rms          rms(c)
DAV:   1    -0.102095068373E+03   -0.10383E-01   -0.89904E-03   168   0.235E-01    0.917E-03
RMM:   2    -0.102095150655E+03   -0.82281E-04   -0.88045E-04   120   0.856E-02
   1787 T=   642. E= -.88921566E+02 F= -.10209515E+03 E0= -.10210160E+03  EK= 0.43998E+01 SP= 0.88E+01 SK= 0.11E-01
 bond charge predicted
 prediction of wavefunctions
       N       E                     dE             d eps       ncg     rms          rms(c)
DAV:   1    -0.102116841129E+03   -0.21773E-01   -0.94888E-03   192   0.265E-01    0.132E-02
RMM:   2    -0.102117017078E+03   -0.17595E-03   -0.18509E-03   120   0.126E-01    0.842E-03
RMM:   3    -0.102117035820E+03   -0.18742E-04   -0.20139E-04    80   0.426E-02
   1788 T=   638. E= -.88920977E+02 F= -.10211704E+03 E0= -.10212339E+03  EK= 0.43688E+01 SP= 0.88E+01 SK= 0.14E-01
 bond charge predicted
 prediction of wavefunctions
       N       E                     dE             d eps       ncg     rms          rms(c)
DAV:   1    -0.102153136909E+03   -0.36120E-01   -0.91484E-03   204   0.236E-01    0.979E-03
RMM:   2    -0.102153220810E+03   -0.83900E-04   -0.90258E-04   120   0.861E-02
   1789 T=   634. E= -.88920326E+02 F= -.10215322E+03 E0= -.10215958E+03  EK= 0.43454E+01 SP= 0.89E+01 SK= 0.18E-01
 bond charge predicted
 prediction of wavefunctions
       N       E                     dE             d eps       ncg     rms          rms(c)
DAV:   1    -0.102205005203E+03   -0.51868E-01   -0.88519E-03   192   0.269E-01    0.129E-02
RMM:   2    -0.102205207746E+03   -0.20254E-03   -0.21148E-03   120   0.133E-01    0.826E-03
RMM:   3    -0.102205228351E+03   -0.20605E-04   -0.20271E-04    82   0.435E-02
   1790 T=   632. E= -.88919879E+02 F= -.10220523E+03 E0= -.10221171E+03  EK= 0.43315E+01 SP= 0.89E+01 SK= 0.21E-01
 bond charge predicted
 prediction of wavefunctions
       N       E                     dE             d eps       ncg     rms          rms(c)
DAV:   1    -0.102272293560E+03   -0.67086E-01   -0.74060E-03   168   0.232E-01    0.973E-03
RMM:   2    -0.102272372044E+03   -0.78484E-04   -0.84418E-04   120   0.852E-02
   1791 T=   632. E= -.88919589E+02 F= -.10227237E+03 E0= -.10227907E+03  EK= 0.43268E+01 SP= 0.90E+01 SK= 0.25E-01
 bond charge predicted
 prediction of wavefunctions
       N       E                     dE             d eps       ncg     rms          rms(c)
DAV:   1    -0.102351858269E+03   -0.79565E-01   -0.75305E-03   156   0.267E-01    0.122E-02
RMM:   2    -0.102352057421E+03   -0.19915E-03   -0.20540E-03   120   0.130E-01    0.791E-03
RMM:   3    -0.102352077004E+03   -0.19583E-04   -0.19552E-04    78   0.414E-02
   1792 T=   632. E= -.88919372E+02 F= -.10235208E+03 E0= -.10235905E+03  EK= 0.43288E+01 SP= 0.91E+01 SK= 0.29E-01
 bond charge predicted
 prediction of wavefunctions
       N       E                     dE             d eps       ncg     rms          rms(c)
DAV:   1    -0.102440027521E+03   -0.87970E-01   -0.60083E-03   168   0.228E-01    0.830E-03
RMM:   2    -0.102440105723E+03   -0.78202E-04   -0.82771E-04   120   0.833E-02
   1793 T=   632. E= -.88919336E+02 F= -.10244011E+03 E0= -.10244739E+03  EK= 0.43329E+01 SP= 0.92E+01 SK= 0.33E-01
 bond charge predicted
 prediction of wavefunctions
       N       E                     dE             d eps       ncg     rms          rms(c)
DAV:   1    -0.102530045986E+03   -0.90018E-01   -0.62521E-03   156   0.263E-01    0.133E-02
RMM:   2    -0.102530231401E+03   -0.18541E-03   -0.19363E-03   120   0.128E-01    0.868E-03
RMM:   3    -0.102530250308E+03   -0.18907E-04   -0.19236E-04    78   0.417E-02
   1794 T=   632. E= -.88919298E+02 F= -.10253025E+03 E0= -.10253786E+03  EK= 0.43330E+01 SP= 0.92E+01 SK= 0.38E-01
 bond charge predicted
 prediction of wavefunctions
       N       E                     dE             d eps       ncg     rms          rms(c)
DAV:   1    -0.102615552109E+03   -0.85321E-01   -0.49573E-03   168   0.227E-01    0.843E-03
RMM:   2    -0.102615629431E+03   -0.77321E-04   -0.81643E-04   120   0.844E-02
   1795 T=   631. E= -.88919077E+02 F= -.10261563E+03 E0= -.10262354E+03  EK= 0.43227E+01 SP= 0.93E+01 SK= 0.43E-01
 bond charge predicted
 prediction of wavefunctions
       N       E                     dE             d eps       ncg     rms          rms(c)
DAV:   1    -0.102689877461E+03   -0.74325E-01   -0.54135E-03   168   0.259E-01    0.139E-02
RMM:   2    -0.102690056619E+03   -0.17916E-03   -0.18813E-03   120   0.125E-01    0.862E-03
RMM:   3    -0.102690077865E+03   -0.21246E-04   -0.21750E-04    79   0.444E-02
   1796 T=   627. E= -.88918838E+02 F= -.10269008E+03 E0= -.10269823E+03  EK= 0.42961E+01 SP= 0.94E+01 SK= 0.48E-01
 bond charge predicted
 prediction of wavefunctions
       N       E                     dE             d eps       ncg     rms          rms(c)
DAV:   1    -0.102747941719E+03   -0.57885E-01   -0.48568E-03   144   0.221E-01    0.932E-03
RMM:   2    -0.102748010443E+03   -0.68724E-04   -0.73750E-04   120   0.816E-02
   1797 T=   620. E= -.88918386E+02 F= -.10274801E+03 E0= -.10275634E+03  EK= 0.42492E+01 SP= 0.95E+01 SK= 0.53E-01
 bond charge predicted
 prediction of wavefunctions
       N       E                     dE             d eps       ncg     rms          rms(c)
DAV:   1    -0.102785173274E+03   -0.37232E-01   -0.55563E-03   168   0.255E-01    0.134E-02
RMM:   2    -0.102785349164E+03   -0.17589E-03   -0.18477E-03   120   0.125E-01    0.841E-03
RMM:   3    -0.102785368421E+03   -0.19257E-04   -0.19558E-04    79   0.420E-02
   1798 T=   610. E= -.88917872E+02 F= -.10278537E+03 E0= -.10279383E+03  EK= 0.41794E+01 SP= 0.96E+01 SK= 0.55E-01
 bond charge predicted
 prediction of wavefunctions
       N       E                     dE             d eps       ncg     rms          rms(c)
DAV:   1    -0.102800449772E+03   -0.15101E-01   -0.48740E-03   156   0.214E-01    0.916E-03
RMM:   2    -0.102800512128E+03   -0.62356E-04   -0.67237E-04   120   0.779E-02
   1799 T=   597. E= -.88917239E+02 F= -.10280051E+03 E0= -.10280907E+03  EK= 0.40878E+01 SP= 0.97E+01 SK= 0.56E-01
 bond charge predicted
 prediction of wavefunctions
       N       E                     dE             d eps       ncg     rms          rms(c)
DAV:   1    -0.102794222296E+03    0.62275E-02   -0.59044E-03   144   0.248E-01    0.132E-02
RMM:   2    -0.102794382716E+03   -0.16042E-03   -0.16877E-03   120   0.118E-01    0.838E-03
RMM:   3    -0.102794400623E+03   -0.17908E-04   -0.18700E-04    76   0.410E-02
   1800 T=   581. E= -.88916522E+02 F= -.10279440E+03 E0= -.10280302E+03  EK= 0.39780E+01 SP= 0.98E+01 SK= 0.55E-01
 bond charge predicted
 prediction of wavefunctions
       N       E                     dE             d eps       ncg     rms          rms(c)
DAV:   1    -0.102769905797E+03    0.24477E-01   -0.54299E-03   180   0.207E-01    0.972E-03
RMM:   2    -0.102770034964E+03   -0.12917E-03   -0.13540E-03   120   0.802E-02    0.656E-03
RMM:   3    -0.102770055671E+03   -0.20707E-04   -0.22612E-04    83   0.352E-02
   1801 T=   563. E= -.88915966E+02 F= -.10277006E+03 E0= -.10277873E+03  EK= 0.38559E+01 SP= 0.99E+01 SK= 0.50E-01
Information: wavefunction orthogonal band   60  0.6798
 bond charge predicted
 prediction of wavefunctions
       N       E                     dE             d eps       ncg     rms          rms(c)
DAV:   1    -0.102731994763E+03    0.38040E-01   -0.73804E-03   180   0.212E-01    0.959E-03
RMM:   2    -0.102732142837E+03   -0.14807E-03   -0.15216E-03   120   0.937E-02    0.582E-03
RMM:   3    -0.102732169044E+03   -0.26207E-04   -0.26403E-04    77   0.394E-02
   1802 T=   544. E= -.88915316E+02 F= -.10273217E+03 E0= -.10274091E+03  EK= 0.37291E+01 SP= 0.10E+02 SK= 0.43E-01
 bond charge predicted
 prediction of wavefunctions
       N       E                     dE             d eps       ncg     rms          rms(c)
DAV:   1    -0.102687006784E+03    0.45136E-01   -0.70036E-03   192   0.209E-01    0.782E-03
RMM:   2    -0.102687115065E+03   -0.10828E-03   -0.11143E-03   120   0.907E-02    0.531E-03
RMM:   3    -0.102687127788E+03   -0.12723E-04   -0.12656E-04    76   0.320E-02
   1803 T=   526. E= -.88914717E+02 F= -.10268713E+03 E0= -.10269595E+03  EK= 0.36063E+01 SP= 0.10E+02 SK= 0.33E-01
 bond charge predicted
 prediction of wavefunctions
       N       E                     dE             d eps       ncg     rms          rms(c)
DAV:   1    -0.102641679980E+03    0.45435E-01   -0.90941E-03   168   0.205E-01    0.749E-03
RMM:   2    -0.102641769991E+03   -0.90011E-04   -0.92700E-04   120   0.864E-02
   1804 T=   510. E= -.88914159E+02 F= -.10264177E+03 E0= -.10265067E+03  EK= 0.34963E+01 SP= 0.10E+02 SK= 0.23E-01
 bond charge predicted
 prediction of wavefunctions
       N       E                     dE             d eps       ncg     rms          rms(c)
DAV:   1    -0.102602476114E+03    0.39204E-01   -0.59045E-03   192   0.222E-01    0.728E-03
RMM:   2    -0.102602614460E+03   -0.13835E-03   -0.13940E-03   120   0.109E-01    0.567E-03
RMM:   3    -0.102602634585E+03   -0.20126E-04   -0.18657E-04    76   0.408E-02
   1805 T=   497. E= -.88913623E+02 F= -.10260263E+03 E0= -.10261165E+03  EK= 0.34069E+01 SP= 0.10E+02 SK= 0.14E-01
 bond charge predicted
 prediction of wavefunctions
       N       E                     dE             d eps       ncg     rms          rms(c)
DAV:   1    -0.102575332265E+03    0.27282E-01   -0.55465E-03   192   0.189E-01    0.620E-03
RMM:   2    -0.102575374882E+03   -0.42617E-04   -0.44273E-04   117   0.617E-02
   1806 T=   488. E= -.88913134E+02 F= -.10257537E+03 E0= -.10258451E+03  EK= 0.33446E+01 SP= 0.10E+02 SK= 0.58E-02
 bond charge predicted
 prediction of wavefunctions
       N       E                     dE             d eps       ncg     rms          rms(c)
DAV:   1    -0.102563290391E+03    0.12042E-01   -0.58938E-03   156   0.216E-01    0.690E-03
RMM:   2    -0.102563411895E+03   -0.12150E-03   -0.12239E-03   120   0.102E-01    0.482E-03
RMM:   3    -0.102563425264E+03   -0.13369E-04   -0.12255E-04    67   0.326E-02
   1807 T=   484. E= -.88912739E+02 F= -.10256343E+03 E0= -.10257267E+03  EK= 0.33131E+01 SP= 0.10E+02 SK= 0.11E-02
 bond charge predicted
 prediction of wavefunctions
       N       E                     dE             d eps       ncg     rms          rms(c)
DAV:   1    -0.102568439523E+03   -0.50276E-02   -0.55225E-03   156   0.180E-01    0.589E-03
RMM:   2    -0.102568468699E+03   -0.29176E-04   -0.30886E-04   117   0.504E-02
   1808 T=   484. E= -.88912688E+02 F= -.10256847E+03 E0= -.10257779E+03  EK= 0.33141E+01 SP= 0.10E+02 SK= 0.11E-03
 bond charge predicted
 prediction of wavefunctions
       N       E                     dE             d eps       ncg     rms          rms(c)
DAV:   1    -0.102589136849E+03   -0.20697E-01   -0.64889E-03   168   0.212E-01    0.615E-03
RMM:   2    -0.102589246091E+03   -0.10924E-03   -0.11000E-03   120   0.969E-02    0.452E-03
RMM:   3    -0.102589260525E+03   -0.14434E-04   -0.13877E-04    67   0.341E-02
   1809 T=   488. E= -.88912749E+02 F= -.10258926E+03 E0= -.10259863E+03  EK= 0.33464E+01 SP= 0.10E+02 SK= 0.28E-02
 bond charge predicted
 prediction of wavefunctions
       N       E                     dE             d eps       ncg     rms          rms(c)
DAV:   1    -0.102622229357E+03   -0.32983E-01   -0.65120E-03   132   0.189E-01    0.542E-03
RMM:   2    -0.102622270617E+03   -0.41261E-04   -0.42233E-04   119   0.613E-02
   1810 T=   497. E= -.88912672E+02 F= -.10262227E+03 E0= -.10263169E+03  EK= 0.34066E+01 SP= 0.10E+02 SK= 0.87E-02
 bond charge predicted
 prediction of wavefunctions
       N       E                     dE             d eps       ncg     rms          rms(c)
DAV:   1    -0.102662974010E+03   -0.40745E-01   -0.75778E-03   168   0.221E-01    0.674E-03
RMM:   2    -0.102663091935E+03   -0.11793E-03   -0.11913E-03   120   0.101E-01    0.528E-03
RMM:   3    -0.102663108295E+03   -0.16360E-04   -0.15805E-04    67   0.366E-02
   1811 T=   509. E= -.88912649E+02 F= -.10266311E+03 E0= -.10267258E+03  EK= 0.34896E+01 SP= 0.10E+02 SK= 0.17E-01
 bond charge predicted
 prediction of wavefunctions
       N       E                     dE             d eps       ncg     rms          rms(c)
DAV:   1    -0.102706409427E+03   -0.43317E-01   -0.68475E-03   180   0.197E-01    0.702E-03
RMM:   2    -0.102706454184E+03   -0.44757E-04   -0.46609E-04   119   0.628E-02
   1812 T=   524. E= -.88912608E+02 F= -.10270645E+03 E0= -.10271597E+03  EK= 0.35893E+01 SP= 0.10E+02 SK= 0.26E-01
 bond charge predicted
 prediction of wavefunctions
       N       E                     dE             d eps       ncg     rms          rms(c)
DAV:   1    -0.102747265451E+03   -0.40856E-01   -0.71560E-03   168   0.231E-01    0.871E-03
RMM:   2    -0.102747393298E+03   -0.12785E-03   -0.13196E-03   120   0.106E-01    0.599E-03
RMM:   3    -0.102747409400E+03   -0.16103E-04   -0.16265E-04    67   0.370E-02
   1813 T=   540. E= -.88912618E+02 F= -.10274741E+03 E0= -.10275686E+03  EK= 0.36994E+01 SP= 0.10E+02 SK= 0.35E-01
 bond charge predicted
 prediction of wavefunctions
       N       E                     dE             d eps       ncg     rms          rms(c)
DAV:   1    -0.102781844386E+03   -0.34451E-01   -0.62516E-03   132   0.206E-01    0.651E-03
RMM:   2    -0.102781892136E+03   -0.47751E-04   -0.50337E-04   119   0.644E-02
   1814 T=   557. E= -.88912461E+02 F= -.10278189E+03 E0= -.10279100E+03  EK= 0.38146E+01 SP= 0.10E+02 SK= 0.42E-01
 bond charge predicted
 prediction of wavefunctions
       N       E                     dE             d eps       ncg     rms          rms(c)
DAV:   1    -0.102807043061E+03   -0.25199E-01   -0.66873E-03   192   0.240E-01    0.970E-03
RMM:   2    -0.102807178289E+03   -0.13523E-03   -0.14101E-03   120   0.110E-01    0.683E-03
RMM:   3    -0.102807194141E+03   -0.15851E-04   -0.17083E-04    68   0.381E-02
   1815 T=   574. E= -.88912364E+02 F= -.10280719E+03 E0= -.10281551E+03  EK= 0.39297E+01 SP= 0.99E+01 SK= 0.47E-01
 bond charge predicted
 prediction of wavefunctions
       N       E                     dE             d eps       ncg     rms          rms(c)
DAV:   1    -0.102821419418E+03   -0.14241E-01   -0.58504E-03   132   0.218E-01    0.636E-03
RMM:   2    -0.102821476277E+03   -0.56859E-04   -0.59108E-04   120   0.700E-02
   1816 T=   590. E= -.88912031E+02 F= -.10282148E+03 E0= -.10282862E+03  EK= 0.40409E+01 SP= 0.98E+01 SK= 0.50E-01
 bond charge predicted
 prediction of wavefunctions
       N       E                     dE             d eps       ncg     rms          rms(c)
DAV:   1    -0.102825198858E+03   -0.37794E-02   -0.63818E-03   168   0.253E-01    0.140E-02
RMM:   2    -0.102825351536E+03   -0.15268E-03   -0.16277E-03   120   0.117E-01    0.897E-03
RMM:   3    -0.102825368815E+03   -0.17279E-04   -0.19538E-04    75   0.410E-02
   1817 T=   605. E= -.88911622E+02 F= -.10282537E+03 E0= -.10283137E+03  EK= 0.41459E+01 SP= 0.97E+01 SK= 0.50E-01
 bond charge predicted
 prediction of wavefunctions
       N       E                     dE             d eps       ncg     rms          rms(c)
DAV:   1    -0.102820677214E+03    0.46743E-02   -0.58337E-03   180   0.223E-01    0.785E-03
RMM:   2    -0.102820761621E+03   -0.84408E-04   -0.88712E-04   120   0.757E-02
   1818 T=   619. E= -.88911161E+02 F= -.10282076E+03 E0= -.10282592E+03  EK= 0.42439E+01 SP= 0.96E+01 SK= 0.48E-01
 bond charge predicted
 prediction of wavefunctions
       N       E                     dE             d eps       ncg     rms          rms(c)
DAV:   1    -0.102809663578E+03    0.11014E-01   -0.82162E-03   180   0.258E-01    0.139E-02
RMM:   2    -0.102809827512E+03   -0.16393E-03   -0.17757E-03   120   0.124E-01    0.838E-03
RMM:   3    -0.102809842768E+03   -0.15256E-04   -0.17808E-04    69   0.408E-02
   1819 T=   633. E= -.88910697E+02 F= -.10280984E+03 E0= -.10281445E+03  EK= 0.43342E+01 SP= 0.95E+01 SK= 0.44E-01
Information: wavefunction orthogonal band   60  0.8543
 bond charge predicted
 prediction of wavefunctions
       N       E                     dE             d eps       ncg     rms          rms(c)
DAV:   1    -0.102794666211E+03    0.15161E-01   -0.60321E-03   204   0.234E-01    0.972E-03
RMM:   2    -0.102794746909E+03   -0.80698E-04   -0.86869E-04   119   0.814E-02
   1820 T=   645. E= -.88910327E+02 F= -.10279475E+03 E0= -.10279905E+03  EK= 0.44163E+01 SP= 0.94E+01 SK= 0.38E-01
 bond charge predicted
 prediction of wavefunctions
       N       E                     dE             d eps       ncg     rms          rms(c)
DAV:   1    -0.102777216437E+03    0.17450E-01   -0.58667E-03   192   0.265E-01    0.157E-02
RMM:   2    -0.102777390150E+03   -0.17371E-03   -0.19277E-03   120   0.128E-01    0.888E-03
RMM:   3    -0.102777408536E+03   -0.18386E-04   -0.22234E-04    82   0.454E-02
   1821 T=   655. E= -.88910035E+02 F= -.10277741E+03 E0= -.10278157E+03  EK= 0.44893E+01 SP= 0.93E+01 SK= 0.30E-01
 bond charge predicted
 prediction of wavefunctions
       N       E                     dE             d eps       ncg     rms          rms(c)
DAV:   1    -0.102759134471E+03    0.18256E-01   -0.46201E-03   216   0.232E-01    0.132E-02
RMM:   2    -0.102759202208E+03   -0.67736E-04   -0.80324E-04   120   0.830E-02
   1822 T=   664. E= -.88909749E+02 F= -.10275920E+03 E0= -.10276335E+03  EK= 0.45523E+01 SP= 0.93E+01 SK= 0.23E-01
 bond charge predicted
 prediction of wavefunctions
       N       E                     dE             d eps       ncg     rms          rms(c)
DAV:   1    -0.102739897446E+03    0.19237E-01   -0.46258E-03   192   0.270E-01    0.124E-02
RMM:   2    -0.102740090439E+03   -0.19299E-03   -0.20487E-03   120   0.134E-01    0.669E-03
RMM:   3    -0.102740113999E+03   -0.23560E-04   -0.23666E-04    81   0.475E-02
   1823 T=   672. E= -.88909315E+02 F= -.10274011E+03 E0= -.10274436E+03  EK= 0.46033E+01 SP= 0.92E+01 SK= 0.16E-01
 bond charge predicted
 prediction of wavefunctions
       N       E                     dE             d eps       ncg     rms          rms(c)
DAV:   1    -0.102719414430E+03    0.20676E-01   -0.40255E-03   156   0.232E-01    0.107E-02
RMM:   2    -0.102719485486E+03   -0.71057E-04   -0.78322E-04   120   0.832E-02
   1824 T=   677. E= -.88909029E+02 F= -.10271949E+03 E0= -.10272388E+03  EK= 0.46394E+01 SP= 0.92E+01 SK= 0.94E-02
 bond charge predicted
 prediction of wavefunctions
       N       E                     dE             d eps       ncg     rms          rms(c)
DAV:   1    -0.102695116051E+03    0.24298E-01   -0.50675E-03   144   0.269E-01    0.114E-02
RMM:   2    -0.102695308889E+03   -0.19284E-03   -0.20163E-03   120   0.132E-01    0.614E-03
RMM:   3    -0.102695330494E+03   -0.21605E-04   -0.20841E-04    79   0.436E-02
   1825 T=   680. E= -.88908716E+02 F= -.10269533E+03 E0= -.10269993E+03  EK= 0.46572E+01 SP= 0.91E+01 SK= 0.44E-02
 bond charge predicted
 prediction of wavefunctions
       N       E                     dE             d eps       ncg     rms          rms(c)
DAV:   1    -0.102665665476E+03    0.29643E-01   -0.48533E-03   132   0.229E-01    0.889E-03
RMM:   2    -0.102665735815E+03   -0.70339E-04   -0.75257E-04   120   0.816E-02
   1826 T=   679. E= -.88908338E+02 F= -.10266574E+03 E0= -.10267052E+03  EK= 0.46543E+01 SP= 0.91E+01 SK= 0.13E-02
 bond charge predicted
 prediction of wavefunctions
       N       E                     dE             d eps       ncg     rms          rms(c)
DAV:   1    -0.102627927822E+03    0.37738E-01   -0.58791E-03   132   0.269E-01    0.115E-02
RMM:   2    -0.102628112081E+03   -0.18426E-03   -0.19291E-03   120   0.131E-01    0.677E-03
RMM:   3    -0.102628132969E+03   -0.20888E-04   -0.21080E-04    90   0.442E-02
   1827 T=   676. E= -.88908049E+02 F= -.10262813E+03 E0= -.10263307E+03  EK= 0.46278E+01 SP= 0.91E+01 SK= 0.40E-04
 bond charge predicted
 prediction of wavefunctions
       N       E                     dE             d eps       ncg     rms          rms(c)
DAV:   1    -0.102579463256E+03    0.48649E-01   -0.52331E-03   132   0.229E-01    0.768E-03
RMM:   2    -0.102579537031E+03   -0.73774E-04   -0.76976E-04   120   0.845E-02
   1828 T=   668. E= -.88907709E+02 F= -.10257954E+03 E0= -.10258454E+03  EK= 0.45758E+01 SP= 0.91E+01 SK= 0.45E-03
 bond charge predicted
 prediction of wavefunctions
       N       E                     dE             d eps       ncg     rms          rms(c)
DAV:   1    -0.102517225817E+03    0.62237E-01   -0.59839E-03   168   0.267E-01    0.124E-02
RMM:   2    -0.102517406948E+03   -0.18113E-03   -0.19285E-03   120   0.130E-01    0.693E-03
RMM:   3    -0.102517428213E+03   -0.21265E-04   -0.21852E-04    76   0.449E-02
   1829 T=   657. E= -.88907138E+02 F= -.10251743E+03 E0= -.10252241E+03  EK= 0.44976E+01 SP= 0.91E+01 SK= 0.21E-02
 bond charge predicted
 prediction of wavefunctions
       N       E                     dE             d eps       ncg     rms          rms(c)
DAV:   1    -0.102440265174E+03    0.77142E-01   -0.49617E-03   156   0.225E-01    0.824E-03
RMM:   2    -0.102440331482E+03   -0.66309E-04   -0.70741E-04   120   0.810E-02
   1830 T=   641. E= -.88906713E+02 F= -.10244033E+03 E0= -.10244520E+03  EK= 0.43941E+01 SP= 0.91E+01 SK= 0.42E-02
 bond charge predicted
 prediction of wavefunctions
       N       E                     dE             d eps       ncg     rms          rms(c)
DAV:   1    -0.102346919568E+03    0.93346E-01   -0.52171E-03   144   0.258E-01    0.125E-02
RMM:   2    -0.102347081236E+03   -0.16167E-03   -0.17373E-03   120   0.125E-01    0.726E-03
RMM:   3    -0.102347099091E+03   -0.17855E-04   -0.19678E-04    77   0.429E-02
   1831 T=   623. E= -.88906101E+02 F= -.10234710E+03 E0= -.10235177E+03  EK= 0.42678E+01 SP= 0.92E+01 SK= 0.60E-02
 bond charge predicted
 prediction of wavefunctions
       N       E                     dE             d eps       ncg     rms          rms(c)
DAV:   1    -0.102238176646E+03    0.10890E+00   -0.42405E-03   156   0.217E-01    0.922E-03
RMM:   2    -0.102238236194E+03   -0.59548E-04   -0.65107E-04   120   0.777E-02
   1832 T=   602. E= -.88905483E+02 F= -.10223824E+03 E0= -.10224266E+03  EK= 0.41227E+01 SP= 0.92E+01 SK= 0.68E-02
 bond charge predicted
 prediction of wavefunctions
       N       E                     dE             d eps       ncg     rms          rms(c)
DAV:   1    -0.102115460556E+03    0.12272E+00   -0.46904E-03   192   0.247E-01    0.128E-02
RMM:   2    -0.102115610888E+03   -0.15033E-03   -0.16360E-03   120   0.120E-01    0.692E-03
RMM:   3    -0.102115629278E+03   -0.18390E-04   -0.19571E-04    70   0.433E-02
   1833 T=   579. E= -.88904764E+02 F= -.10211563E+03 E0= -.10211977E+03  EK= 0.39649E+01 SP= 0.92E+01 SK= 0.63E-02
 bond charge predicted
 prediction of wavefunctions
       N       E                     dE             d eps       ncg     rms          rms(c)
DAV:   1    -0.101982648065E+03    0.13296E+00   -0.39004E-03   156   0.207E-01    0.101E-02
RMM:   2    -0.101982706095E+03   -0.58030E-04   -0.65970E-04   120   0.777E-02
   1834 T=   555. E= -.88904023E+02 F= -.10198271E+03 E0= -.10198655E+03  EK= 0.38015E+01 SP= 0.93E+01 SK= 0.45E-02
 bond charge predicted
 prediction of wavefunctions
       N       E                     dE             d eps       ncg     rms          rms(c)
DAV:   1    -0.101844332754E+03    0.13832E+00   -0.43802E-03   168   0.237E-01    0.995E-03
RMM:   2    -0.101844484294E+03   -0.15154E-03   -0.15906E-03   120   0.115E-01    0.555E-03
RMM:   3    -0.101844503255E+03   -0.18961E-04   -0.18651E-04    68   0.416E-02
   1835 T=   531. E= -.88903200E+02 F= -.10184450E+03 E0= -.10184810E+03  EK= 0.36410E+01 SP= 0.93E+01 SK= 0.21E-02
 bond charge predicted
 prediction of wavefunctions
       N       E                     dE             d eps       ncg     rms          rms(c)
DAV:   1    -0.101708063354E+03    0.13642E+00   -0.35570E-03   144   0.196E-01    0.804E-03
RMM:   2    -0.101708123512E+03   -0.60158E-04   -0.64478E-04   120   0.764E-02
   1836 T=   510. E= -.88902428E+02 F= -.10170812E+03 E0= -.10171150E+03  EK= 0.34931E+01 SP= 0.93E+01 SK= 0.28E-03
 bond charge predicted
 prediction of wavefunctions
       N       E                     dE             d eps       ncg     rms          rms(c)
DAV:   1    -0.101581384769E+03    0.12668E+00   -0.42297E-03   144   0.225E-01    0.985E-03
RMM:   2    -0.101581526548E+03   -0.14178E-03   -0.14842E-03   120   0.111E-01    0.610E-03
RMM:   3    -0.101581544568E+03   -0.18020E-04   -0.17710E-04    66   0.403E-02
   1837 T=   492. E= -.88901721E+02 F= -.10158154E+03 E0= -.10158476E+03  EK= 0.33679E+01 SP= 0.93E+01 SK= 0.42E-03
 bond charge predicted
 prediction of wavefunctions
       N       E                     dE             d eps       ncg     rms          rms(c)
DAV:   1    -0.101472982592E+03    0.10854E+00   -0.35127E-03   144   0.187E-01    0.683E-03
RMM:   2    -0.101473040025E+03   -0.57433E-04   -0.60518E-04   120   0.726E-02
   1838 T=   478. E= -.88900892E+02 F= -.10147304E+03 E0= -.10147614E+03  EK= 0.32755E+01 SP= 0.93E+01 SK= 0.41E-02
 bond charge predicted
 prediction of wavefunctions
       N       E                     dE             d eps       ncg     rms          rms(c)
DAV:   1    -0.101391197453E+03    0.81785E-01   -0.40858E-03   168   0.216E-01    0.991E-03
RMM:   2    -0.101391339112E+03   -0.14166E-03   -0.14827E-03   120   0.109E-01    0.571E-03
RMM:   3    -0.101391358954E+03   -0.19842E-04   -0.19222E-04    72   0.415E-02
   1839 T=   471. E= -.88900216E+02 F= -.10139136E+03 E0= -.10139439E+03  EK= 0.32256E+01 SP= 0.93E+01 SK= 0.12E-01
 bond charge predicted
 prediction of wavefunctions
       N       E                     dE             d eps       ncg     rms          rms(c)
DAV:   1    -0.101343536649E+03    0.47802E-01   -0.34277E-03   156   0.184E-01    0.661E-03
RMM:   2    -0.101343592725E+03   -0.56076E-04   -0.58842E-04   120   0.727E-02
   1840 T=   471. E= -.88899578E+02 F= -.10134359E+03 E0= -.10134660E+03  EK= 0.32263E+01 SP= 0.92E+01 SK= 0.25E-01
 bond charge predicted
 prediction of wavefunctions
       N       E                     dE             d eps       ncg     rms          rms(c)
DAV:   1    -0.101334914660E+03    0.86220E-02   -0.40337E-03   144   0.214E-01    0.997E-03
RMM:   2    -0.101335046021E+03   -0.13136E-03   -0.13893E-03   120   0.107E-01    0.624E-03
RMM:   3    -0.101335062636E+03   -0.16615E-04   -0.16898E-04    70   0.389E-02
   1841 T=   479. E= -.88899083E+02 F= -.10133506E+03 E0= -.10133810E+03  EK= 0.32835E+01 SP= 0.91E+01 SK= 0.43E-01
 bond charge predicted
 prediction of wavefunctions
       N       E                     dE             d eps       ncg     rms          rms(c)
DAV:   1    -0.101368276950E+03   -0.33231E-01   -0.37048E-03   156   0.188E-01    0.622E-03
RMM:   2    -0.101368330623E+03   -0.53674E-04   -0.55970E-04   120   0.714E-02
   1842 T=   496. E= -.88898597E+02 F= -.10136833E+03 E0= -.10137145E+03  EK= 0.34005E+01 SP= 0.90E+01 SK= 0.62E-01
 bond charge predicted
 prediction of wavefunctions
       N       E                     dE             d eps       ncg     rms          rms(c)
DAV:   1    -0.101442662799E+03   -0.74386E-01   -0.45285E-03   168   0.223E-01    0.112E-02
RMM:   2    -0.101442798688E+03   -0.13589E-03   -0.14478E-03   120   0.109E-01    0.615E-03
RMM:   3    -0.101442817031E+03   -0.18343E-04   -0.18568E-04    66   0.406E-02
   1843 T=   522. E= -.88898301E+02 F= -.10144282E+03 E0= -.10144608E+03  EK= 0.35770E+01 SP= 0.89E+01 SK= 0.80E-01
 bond charge predicted
 prediction of wavefunctions
       N       E                     dE             d eps       ncg     rms          rms(c)
DAV:   1    -0.101553985173E+03   -0.11119E+00   -0.43665E-03   132   0.202E-01    0.721E-03
RMM:   2    -0.101554050519E+03   -0.65346E-04   -0.68720E-04   120   0.772E-02
   1844 T=   556. E= -.88898242E+02 F= -.10155405E+03 E0= -.10155752E+03  EK= 0.38075E+01 SP= 0.88E+01 SK= 0.94E-01
 bond charge predicted
 prediction of wavefunctions
       N       E                     dE             d eps       ncg     rms          rms(c)
DAV:   1    -0.101694166632E+03   -0.14018E+00   -0.61819E-03   192   0.244E-01    0.124E-02
RMM:   2    -0.101694335775E+03   -0.16914E-03   -0.18146E-03   120   0.121E-01    0.726E-03
RMM:   3    -0.101694355750E+03   -0.19975E-04   -0.21457E-04    78   0.431E-02
   1845 T=   596. E= -.88898716E+02 F= -.10169436E+03 E0= -.10169809E+03  EK= 0.40817E+01 SP= 0.86E+01 SK= 0.99E-01
Information: wavefunction orthogonal band   60  0.8238
 bond charge predicted
 prediction of wavefunctions
       N       E                     dE             d eps       ncg     rms          rms(c)
DAV:   1    -0.101851958597E+03   -0.15762E+00   -0.59884E-03   192   0.226E-01    0.913E-03
RMM:   2    -0.101852041606E+03   -0.83009E-04   -0.89120E-04   120   0.866E-02
   1846 T=   640. E= -.88899249E+02 F= -.10185204E+03 E0= -.10185607E+03  EK= 0.43836E+01 SP= 0.85E+01 SK= 0.95E-01
 bond charge predicted
 prediction of wavefunctions
       N       E                     dE             d eps       ncg     rms          rms(c)
DAV:   1    -0.102013773776E+03   -0.16182E+00   -0.72947E-03   180   0.272E-01    0.134E-02
RMM:   2    -0.102013967279E+03   -0.19350E-03   -0.20586E-03   120   0.133E-01    0.766E-03
RMM:   3    -0.102013989086E+03   -0.21807E-04   -0.22547E-04    82   0.460E-02
   1847 T=   685. E= -.88900147E+02 F= -.10201399E+03 E0= -.10201826E+03  EK= 0.46924E+01 SP= 0.83E+01 SK= 0.81E-01
 bond charge predicted
 prediction of wavefunctions
       N       E                     dE             d eps       ncg     rms          rms(c)
DAV:   1    -0.102165590412E+03   -0.15162E+00   -0.71904E-03   192   0.247E-01    0.985E-03
RMM:   2    -0.102165675082E+03   -0.84670E-04   -0.91838E-04   120   0.904E-02
   1848 T=   727. E= -.88900935E+02 F= -.10216568E+03 E0= -.10217008E+03  EK= 0.49837E+01 SP= 0.82E+01 SK= 0.59E-01
 bond charge predicted
 prediction of wavefunctions
       N       E                     dE             d eps       ncg     rms          rms(c)
DAV:   1    -0.102293277306E+03   -0.12769E+00   -0.83308E-03   204   0.295E-01    0.134E-02
RMM:   2    -0.102293503482E+03   -0.22618E-03   -0.23890E-03   120   0.146E-01    0.732E-03
RMM:   3    -0.102293528083E+03   -0.24601E-04   -0.23712E-04    83   0.477E-02
   1849 T=   764. E= -.88901830E+02 F= -.10229353E+03 E0= -.10229796E+03  EK= 0.52319E+01 SP= 0.81E+01 SK= 0.35E-01
 bond charge predicted
 prediction of wavefunctions
       N       E                     dE             d eps       ncg     rms          rms(c)
DAV:   1    -0.102384873937E+03   -0.91370E-01   -0.80430E-03   156   0.260E-01    0.104E-02
RMM:   2    -0.102384960410E+03   -0.86473E-04   -0.94061E-04   120   0.923E-02
   1850 T=   790. E= -.88902314E+02 F= -.10238496E+03 E0= -.10238940E+03  EK= 0.54130E+01 SP= 0.81E+01 SK= 0.14E-01
 bond charge predicted
 prediction of wavefunctions
       N       E                     dE             d eps       ncg     rms          rms(c)
DAV:   1    -0.102431442023E+03   -0.46568E-01   -0.93689E-03   168   0.305E-01    0.131E-02
RMM:   2    -0.102431678092E+03   -0.23607E-03   -0.24571E-03   120   0.146E-01    0.813E-03
RMM:   3    -0.102431701506E+03   -0.23415E-04   -0.23424E-04    88   0.467E-02
   1851 T=   804. E= -.88902383E+02 F= -.10243170E+03 E0= -.10243618E+03  EK= 0.55092E+01 SP= 0.80E+01 SK= 0.20E-02
 bond charge predicted
 prediction of wavefunctions
       N       E                     dE             d eps       ncg     rms          rms(c)
DAV:   1    -0.102428925185E+03    0.27529E-02   -0.75395E-03   132   0.264E-01    0.982E-03
RMM:   2    -0.102429016295E+03   -0.91111E-04   -0.98001E-04   120   0.952E-02
   1852 T=   804. E= -.88901565E+02 F= -.10242902E+03 E0= -.10243359E+03  EK= 0.55105E+01 SP= 0.80E+01 SK= 0.11E-02
 bond charge predicted
 prediction of wavefunctions
       N       E                     dE             d eps       ncg     rms          rms(c)
DAV:   1    -0.102376768177E+03    0.52157E-01   -0.87505E-03   204   0.308E-01    0.138E-02
RMM:   2    -0.102377011912E+03   -0.24374E-03   -0.25551E-03   120   0.150E-01    0.809E-03
RMM:   3    -0.102377036499E+03   -0.24587E-04   -0.24083E-04    83   0.468E-02
   1853 T=   791. E= -.88900289E+02 F= -.10237704E+03 E0= -.10238168E+03  EK= 0.54166E+01 SP= 0.80E+01 SK= 0.12E-01
 bond charge predicted
 prediction of wavefunctions
       N       E                     dE             d eps       ncg     rms          rms(c)
DAV:   1    -0.102279883586E+03    0.97128E-01   -0.75038E-03   192   0.263E-01    0.904E-03
RMM:   2    -0.102279981194E+03   -0.97607E-04   -0.10307E-03   120   0.979E-02    0.586E-03
RMM:   3    -0.102279996765E+03   -0.15571E-04   -0.17513E-04    80   0.404E-02
   1854 T=   764. E= -.88898971E+02 F= -.10228000E+03 E0= -.10228457E+03  EK= 0.52367E+01 SP= 0.81E+01 SK= 0.32E-01
 bond charge predicted
 prediction of wavefunctions
       N       E                     dE             d eps       ncg     rms          rms(c)
DAV:   1    -0.102144858964E+03    0.13512E+00   -0.72341E-03   180   0.263E-01    0.930E-03
RMM:   2    -0.102144975617E+03   -0.11665E-03   -0.11970E-03   120   0.107E-01    0.593E-03
RMM:   3    -0.102144991327E+03   -0.15710E-04   -0.16203E-04    70   0.385E-02
   1855 T=   728. E= -.88897294E+02 F= -.10214499E+03 E0= -.10214929E+03  EK= 0.49876E+01 SP= 0.82E+01 SK= 0.55E-01
 bond charge predicted
 prediction of wavefunctions
       N       E                     dE             d eps       ncg     rms          rms(c)
DAV:   1    -0.101982837071E+03    0.16214E+00   -0.67577E-03   156   0.255E-01    0.771E-03
RMM:   2    -0.101982957249E+03   -0.12018E-03   -0.12287E-03   120   0.108E-01    0.525E-03
RMM:   3    -0.101982969658E+03   -0.12409E-04   -0.12718E-04    72   0.335E-02
   1856 T=   685. E= -.88895737E+02 F= -.10198297E+03 E0= -.10198688E+03  EK= 0.46919E+01 SP= 0.83E+01 SK= 0.75E-01
 bond charge predicted
 prediction of wavefunctions
       N       E                     dE             d eps       ncg     rms          rms(c)
DAV:   1    -0.101806544005E+03    0.17641E+00   -0.65876E-03   204   0.244E-01    0.869E-03
RMM:   2    -0.101806650167E+03   -0.10616E-03   -0.10973E-03   120   0.998E-02    0.557E-03
RMM:   3    -0.101806663836E+03   -0.13668E-04   -0.14044E-04    66   0.352E-02
   1857 T=   639. E= -.88894339E+02 F= -.10180666E+03 E0= -.10181022E+03  EK= 0.43743E+01 SP= 0.84E+01 SK= 0.89E-01
 bond charge predicted
 prediction of wavefunctions
       N       E                     dE             d eps       ncg     rms          rms(c)
DAV:   1    -0.101629047429E+03    0.17760E+00   -0.58016E-03   192   0.235E-01    0.562E-03
RMM:   2    -0.101629149689E+03   -0.10226E-03   -0.10251E-03   120   0.983E-02    0.438E-03
RMM:   3    -0.101629163363E+03   -0.13674E-04   -0.13350E-04    67   0.348E-02
   1858 T=   592. E= -.88893106E+02 F= -.10162916E+03 E0= -.10163247E+03  EK= 0.40585E+01 SP= 0.86E+01 SK= 0.93E-01
 bond charge predicted
 prediction of wavefunctions
       N       E                     dE             d eps       ncg     rms          rms(c)
DAV:   1    -0.101463209955E+03    0.16594E+00   -0.50415E-03   144   0.224E-01    0.767E-03
RMM:   2    -0.101463308230E+03   -0.98275E-04   -0.99302E-04   120   0.936E-02
   1859 T=   550. E= -.88892091E+02 F= -.10146331E+03 E0= -.10146646E+03  EK= 0.37653E+01 SP= 0.87E+01 SK= 0.86E-01
 bond charge predicted
 prediction of wavefunctions
       N       E                     dE             d eps       ncg     rms          rms(c)
DAV:   1    -0.101320558731E+03    0.14265E+00   -0.53912E-03   216   0.240E-01    0.887E-03
RMM:   2    -0.101320718217E+03   -0.15949E-03   -0.16059E-03   120   0.119E-01    0.701E-03
RMM:   3    -0.101320739155E+03   -0.20938E-04   -0.19338E-04    74   0.412E-02
   1860 T=   513. E= -.88891451E+02 F= -.10132074E+03 E0= -.10132381E+03  EK= 0.35114E+01 SP= 0.88E+01 SK= 0.72E-01
 bond charge predicted
 prediction of wavefunctions
       N       E                     dE             d eps       ncg     rms          rms(c)
DAV:   1    -0.101210540991E+03    0.11018E+00   -0.43063E-03   132   0.199E-01    0.592E-03
RMM:   2    -0.101210608279E+03   -0.67288E-04   -0.67895E-04   120   0.760E-02
   1861 T=   483. E= -.88890844E+02 F= -.10121061E+03 E0= -.10121366E+03  EK= 0.33090E+01 SP= 0.90E+01 SK= 0.53E-01
 bond charge predicted
 prediction of wavefunctions
       N       E                     dE             d eps       ncg     rms          rms(c)
DAV:   1    -0.101139789916E+03    0.70751E-01   -0.51044E-03   192   0.234E-01    0.910E-03
RMM:   2    -0.101139944015E+03   -0.15410E-03   -0.15517E-03   120   0.115E-01    0.628E-03
RMM:   3    -0.101139956654E+03   -0.12639E-04   -0.10769E-04    67   0.318E-02
   1862 T=   462. E= -.88890428E+02 F= -.10113996E+03 E0= -.10114304E+03  EK= 0.31660E+01 SP= 0.91E+01 SK= 0.33E-01
 bond charge predicted
 prediction of wavefunctions
       N       E                     dE             d eps       ncg     rms          rms(c)
DAV:   1    -0.101112793589E+03    0.27150E-01   -0.40355E-03   156   0.180E-01    0.599E-03
RMM:   2    -0.101112834607E+03   -0.41018E-04   -0.43010E-04   118   0.556E-02
   1863 T=   451. E= -.88890241E+02 F= -.10111283E+03 E0= -.10111599E+03  EK= 0.30863E+01 SP= 0.91E+01 SK= 0.16E-01
 bond charge predicted
 prediction of wavefunctions
       N       E                     dE             d eps       ncg     rms          rms(c)
DAV:   1    -0.101130531329E+03   -0.17738E-01   -0.49464E-03   216   0.215E-01    0.726E-03
RMM:   2    -0.101130654137E+03   -0.12281E-03   -0.12432E-03   120   0.104E-01    0.539E-03
RMM:   3    -0.101130666162E+03   -0.12025E-04   -0.11138E-04    66   0.323E-02
   1864 T=   448. E= -.88890258E+02 F= -.10113067E+03 E0= -.10113393E+03  EK= 0.30709E+01 SP= 0.92E+01 SK= 0.50E-02
 bond charge predicted
 prediction of wavefunctions
       N       E                     dE             d eps       ncg     rms          rms(c)
DAV:   1    -0.101191837586E+03   -0.61183E-01   -0.41598E-03   192   0.187E-01    0.561E-03
RMM:   2    -0.101191893334E+03   -0.55748E-04   -0.57112E-04   120   0.688E-02
   1865 T=   455. E= -.88890198E+02 F= -.10119189E+03 E0= -.10119530E+03  EK= 0.31178E+01 SP= 0.92E+01 SK= 0.21E-03
 bond charge predicted
 prediction of wavefunctions
       N       E                     dE             d eps       ncg     rms          rms(c)
DAV:   1    -0.101292604977E+03   -0.10077E+00   -0.44378E-03   144   0.223E-01    0.864E-03
RMM:   2    -0.101292746716E+03   -0.14174E-03   -0.14402E-03   120   0.109E-01    0.626E-03
RMM:   3    -0.101292764085E+03   -0.17369E-04   -0.16723E-04    71   0.386E-02
   1866 T=   470. E= -.88890252E+02 F= -.10129276E+03 E0= -.10129634E+03  EK= 0.32226E+01 SP= 0.92E+01 SK= 0.14E-02
 bond charge predicted
 prediction of wavefunctions
       N       E                     dE             d eps       ncg     rms          rms(c)
DAV:   1    -0.101426059664E+03   -0.13331E+00   -0.37787E-03   168   0.194E-01    0.512E-03
RMM:   2    -0.101426123463E+03   -0.63799E-04   -0.65183E-04   120   0.707E-02
   1867 T=   493. E= -.88890185E+02 F= -.10142612E+03 E0= -.10142990E+03  EK= 0.33775E+01 SP= 0.92E+01 SK= 0.67E-02
 bond charge predicted
 prediction of wavefunctions
       N       E                     dE             d eps       ncg     rms          rms(c)
DAV:   1    -0.101583560857E+03   -0.15750E+00   -0.52066E-03   204   0.233E-01    0.815E-03
RMM:   2    -0.101583716006E+03   -0.15515E-03   -0.15745E-03   120   0.116E-01    0.601E-03
RMM:   3    -0.101583731997E+03   -0.15991E-04   -0.14719E-04    66   0.368E-02
   1868 T=   521. E= -.88890378E+02 F= -.10158373E+03 E0= -.10158772E+03  EK= 0.35726E+01 SP= 0.91E+01 SK= 0.14E-01
 bond charge predicted
 prediction of wavefunctions
       N       E                     dE             d eps       ncg     rms          rms(c)
DAV:   1    -0.101755704467E+03   -0.17199E+00   -0.39918E-03   168   0.211E-01    0.584E-03
RMM:   2    -0.101755777914E+03   -0.73447E-04   -0.75019E-04   120   0.728E-02
   1869 T=   554. E= -.88890783E+02 F= -.10175578E+03 E0= -.10175999E+03  EK= 0.37960E+01 SP= 0.90E+01 SK= 0.19E-01
 bond charge predicted
 prediction of wavefunctions
       N       E                     dE             d eps       ncg     rms          rms(c)
DAV:   1    -0.101931082854E+03   -0.17538E+00   -0.57163E-03   204   0.257E-01    0.969E-03
RMM:   2    -0.101931269587E+03   -0.18673E-03   -0.19206E-03   120   0.126E-01    0.648E-03
RMM:   3    -0.101931288231E+03   -0.18644E-04   -0.17766E-04    74   0.401E-02
   1870 T=   589. E= -.88891348E+02 F= -.10193129E+03 E0= -.10193572E+03  EK= 0.40331E+01 SP= 0.90E+01 SK= 0.22E-01
 bond charge predicted
 prediction of wavefunctions
       N       E                     dE             d eps       ncg     rms          rms(c)
DAV:   1    -0.102098545761E+03   -0.16728E+00   -0.47506E-03   168   0.232E-01    0.653E-03
RMM:   2    -0.102098685829E+03   -0.14007E-03   -0.14214E-03   120   0.831E-02    0.437E-03
RMM:   3    -0.102098720137E+03   -0.34307E-04   -0.34237E-04    95   0.379E-02
   1871 T=   623. E= -.88892041E+02 F= -.10209872E+03 E0= -.10210336E+03  EK= 0.42676E+01 SP= 0.89E+01 SK= 0.22E-01
 bond charge predicted
 prediction of wavefunctions
       N       E                     dE             d eps       ncg     rms          rms(c)
DAV:   1    -0.102247122501E+03   -0.14844E+00   -0.66946E-03   168   0.244E-01    0.133E-02
RMM:   2    -0.102247226033E+03   -0.10353E-03   -0.11683E-03   120   0.986E-02    0.787E-03
RMM:   3    -0.102247240572E+03   -0.14539E-04   -0.17912E-04    85   0.379E-02
   1872 T=   654. E= -.88892641E+02 F= -.10224724E+03 E0= -.10225212E+03  EK= 0.44827E+01 SP= 0.89E+01 SK= 0.17E-01
Information: wavefunction orthogonal band   60  0.8665
 bond charge predicted
 prediction of wavefunctions
       N       E                     dE             d eps       ncg     rms          rms(c)
DAV:   1    -0.102367536182E+03   -0.12031E+00   -0.60639E-03   192   0.256E-01    0.101E-02
RMM:   2    -0.102367653208E+03   -0.11703E-03   -0.12714E-03   120   0.103E-01    0.593E-03
RMM:   3    -0.102367664603E+03   -0.11395E-04   -0.13182E-04    74   0.345E-02
   1873 T=   681. E= -.88893111E+02 F= -.10236766E+03 E0= -.10237282E+03  EK= 0.46624E+01 SP= 0.88E+01 SK= 0.11E-01
 bond charge predicted
 prediction of wavefunctions
       N       E                     dE             d eps       ncg     rms          rms(c)
DAV:   1    -0.102453059870E+03   -0.85407E-01   -0.60053E-03   192   0.255E-01    0.692E-03
RMM:   2    -0.102453194048E+03   -0.13418E-03   -0.13676E-03   120   0.959E-02    0.470E-03
RMM:   3    -0.102453213687E+03   -0.19639E-04   -0.19543E-04    81   0.355E-02
   1874 T=   700. E= -.88893340E+02 F= -.10245321E+03 E0= -.10245873E+03  EK= 0.47936E+01 SP= 0.88E+01 SK= 0.50E-02
 bond charge predicted
 prediction of wavefunctions
       N       E                     dE             d eps       ncg     rms          rms(c)
DAV:   1    -0.102500280239E+03   -0.47086E-01   -0.78724E-03   180   0.258E-01    0.963E-03
RMM:   2    -0.102500392991E+03   -0.11275E-03   -0.11770E-03   120   0.102E-01    0.632E-03
RMM:   3    -0.102500409280E+03   -0.16290E-04   -0.16602E-04    80   0.378E-02
   1875 T=   710. E= -.88893573E+02 F= -.10250041E+03 E0= -.10250637E+03  EK= 0.48675E+01 SP= 0.87E+01 SK= 0.92E-03
 bond charge predicted
 prediction of wavefunctions
       N       E                     dE             d eps       ncg     rms          rms(c)
DAV:   1    -0.102507530053E+03   -0.71371E-02   -0.50426E-03   204   0.260E-01    0.612E-03
RMM:   2    -0.102507627735E+03   -0.97683E-04   -0.99821E-04   120   0.997E-02
   1876 T=   712. E= -.88892961E+02 F= -.10250763E+03 E0= -.10251410E+03  EK= 0.48800E+01 SP= 0.87E+01 SK= 0.16E-03
 bond charge predicted
 prediction of wavefunctions
       N       E                     dE             d eps       ncg     rms          rms(c)
DAV:   1    -0.102477707808E+03    0.29822E-01   -0.51584E-03   156   0.287E-01    0.947E-03
RMM:   2    -0.102477916491E+03   -0.20868E-03   -0.21070E-03   120   0.136E-01    0.690E-03
RMM:   3    -0.102477943749E+03   -0.27258E-04   -0.26239E-04    98   0.473E-02
   1877 T=   706. E= -.88891902E+02 F= -.10247794E+03 E0= -.10248490E+03  EK= 0.48334E+01 SP= 0.87E+01 SK= 0.30E-02
 bond charge predicted
 prediction of wavefunctions
       N       E                     dE             d eps       ncg     rms          rms(c)
DAV:   1    -0.102417307418E+03    0.60609E-01   -0.42624E-03   132   0.249E-01    0.688E-03
RMM:   2    -0.102417397303E+03   -0.89884E-04   -0.92110E-04   120   0.920E-02
   1878 T=   691. E= -.88890619E+02 F= -.10241740E+03 E0= -.10242475E+03  EK= 0.47354E+01 SP= 0.88E+01 SK= 0.86E-02
 bond charge predicted
 prediction of wavefunctions
       N       E                     dE             d eps       ncg     rms          rms(c)
DAV:   1    -0.102333528075E+03    0.83779E-01   -0.56547E-03   216   0.290E-01    0.100E-02
RMM:   2    -0.102333751189E+03   -0.22311E-03   -0.22559E-03   120   0.141E-01    0.725E-03
RMM:   3    -0.102333767626E+03   -0.16438E-04   -0.14455E-04    68   0.364E-02
   1879 T=   671. E= -.88889277E+02 F= -.10233377E+03 E0= -.10234137E+03  EK= 0.45976E+01 SP= 0.88E+01 SK= 0.15E-01
 bond charge predicted
 prediction of wavefunctions
       N       E                     dE             d eps       ncg     rms          rms(c)
DAV:   1    -0.102236635631E+03    0.97116E-01   -0.45884E-03   156   0.230E-01    0.635E-03
RMM:   2    -0.102236692361E+03   -0.56730E-04   -0.58487E-04   120   0.667E-02
   1880 T=   647. E= -.88888222E+02 F= -.10223669E+03 E0= -.10224437E+03  EK= 0.44345E+01 SP= 0.89E+01 SK= 0.22E-01
 bond charge predicted
 prediction of wavefunctions
       N       E                     dE             d eps       ncg     rms          rms(c)
DAV:   1    -0.102136122519E+03    0.10051E+00   -0.59902E-03   216   0.269E-01    0.102E-02
RMM:   2    -0.102136308935E+03   -0.18642E-03   -0.19054E-03   120   0.129E-01    0.687E-03
RMM:   3    -0.102136324937E+03   -0.16002E-04   -0.15225E-04    67   0.376E-02
   1881 T=   622. E= -.88887232E+02 F= -.10213632E+03 E0= -.10214390E+03  EK= 0.42619E+01 SP= 0.90E+01 SK= 0.26E-01
 bond charge predicted
 prediction of wavefunctions
       N       E                     dE             d eps       ncg     rms          rms(c)
DAV:   1    -0.102042617791E+03    0.93691E-01   -0.49518E-03   156   0.222E-01    0.556E-03
RMM:   2    -0.102042701641E+03   -0.83850E-04   -0.85113E-04   120   0.824E-02
   1882 T=   598. E= -.88886277E+02 F= -.10204270E+03 E0= -.10205003E+03  EK= 0.40949E+01 SP= 0.90E+01 SK= 0.27E-01
 bond charge predicted
 prediction of wavefunctions
       N       E                     dE             d eps       ncg     rms          rms(c)
DAV:   1    -0.101963926713E+03    0.78691E-01   -0.66705E-03   216   0.258E-01    0.106E-02
RMM:   2    -0.101964120846E+03   -0.19413E-03   -0.20006E-03   120   0.129E-01    0.727E-03
RMM:   3    -0.101964139994E+03   -0.19148E-04   -0.18419E-04    74   0.408E-02
   1883 T=   576. E= -.88885400E+02 F= -.10196414E+03 E0= -.10197118E+03  EK= 0.39458E+01 SP= 0.91E+01 SK= 0.25E-01
 bond charge predicted
 prediction of wavefunctions
       N       E                     dE             d eps       ncg     rms          rms(c)
DAV:   1    -0.101907072335E+03    0.57049E-01   -0.61954E-03   192   0.215E-01    0.640E-03
RMM:   2    -0.101907220029E+03   -0.14769E-03   -0.15069E-03   120   0.897E-02    0.379E-03
RMM:   3    -0.101907251605E+03   -0.31576E-04   -0.31519E-04    91   0.430E-02
   1884 T=   558. E= -.88885024E+02 F= -.10190725E+03 E0= -.10191401E+03  EK= 0.38241E+01 SP= 0.92E+01 SK= 0.22E-01
Information: wavefunction orthogonal band   59  0.8891
Information: wavefunction orthogonal band   60  0.6255
 bond charge predicted
 prediction of wavefunctions
       N       E                     dE             d eps       ncg     rms          rms(c)
DAV:   1    -0.101875795373E+03    0.31425E-01   -0.87638E-03   144   0.220E-01    0.863E-03
RMM:   2    -0.101875916122E+03   -0.12075E-03   -0.12489E-03   120   0.975E-02    0.537E-03
RMM:   3    -0.101875935823E+03   -0.19701E-04   -0.19572E-04    80   0.394E-02
   1885 T=   545. E= -.88884971E+02 F= -.10187594E+03 E0= -.10188246E+03  EK= 0.37356E+01 SP= 0.92E+01 SK= 0.17E-01
 bond charge predicted
 prediction of wavefunctions
       N       E                     dE             d eps       ncg     rms          rms(c)
DAV:   1    -0.101870435519E+03    0.54806E-02   -0.77075E-03   180   0.214E-01    0.580E-03
RMM:   2    -0.101870543794E+03   -0.10827E-03   -0.11014E-03   120   0.905E-02    0.406E-03
RMM:   3    -0.101870559446E+03   -0.15652E-04   -0.15077E-04    75   0.352E-02
   1886 T=   537. E= -.88884903E+02 F= -.10187056E+03 E0= -.10187692E+03  EK= 0.36823E+01 SP= 0.93E+01 SK= 0.11E-01
 bond charge predicted
 prediction of wavefunctions
       N       E                     dE             d eps       ncg     rms          rms(c)
DAV:   1    -0.101889200931E+03   -0.18657E-01   -0.67379E-03   192   0.206E-01    0.606E-03
RMM:   2    -0.101889268996E+03   -0.68066E-04   -0.69479E-04   120   0.782E-02
   1887 T=   535. E= -.88884707E+02 F= -.10188927E+03 E0= -.10189553E+03  EK= 0.36629E+01 SP= 0.93E+01 SK= 0.69E-02
 bond charge predicted
 prediction of wavefunctions
       N       E                     dE             d eps       ncg     rms          rms(c)
DAV:   1    -0.101928055544E+03   -0.38855E-01   -0.69235E-03   192   0.231E-01    0.671E-03
RMM:   2    -0.101928189258E+03   -0.13371E-03   -0.13507E-03   120   0.109E-01    0.525E-03
RMM:   3    -0.101928209204E+03   -0.19946E-04   -0.18960E-04    75   0.410E-02
   1888 T=   536. E= -.88884747E+02 F= -.10192821E+03 E0= -.10193443E+03  EK= 0.36733E+01 SP= 0.94E+01 SK= 0.35E-02
 bond charge predicted
 prediction of wavefunctions
       N       E                     dE             d eps       ncg     rms          rms(c)
DAV:   1    -0.101980926759E+03   -0.52738E-01   -0.62536E-03   156   0.204E-01    0.526E-03
RMM:   2    -0.101980978781E+03   -0.52021E-04   -0.53104E-04   119   0.633E-02
   1889 T=   541. E= -.88884790E+02 F= -.10198098E+03 E0= -.10198722E+03  EK= 0.37067E+01 SP= 0.94E+01 SK= 0.13E-02
 bond charge predicted
 prediction of wavefunctions
       N       E                     dE             d eps       ncg     rms          rms(c)
DAV:   1    -0.102040286658E+03   -0.59360E-01   -0.69212E-03   216   0.236E-01    0.771E-03
RMM:   2    -0.102040418166E+03   -0.13151E-03   -0.13270E-03   120   0.107E-01    0.607E-03
RMM:   3    -0.102040430587E+03   -0.12422E-04   -0.11787E-04    66   0.327E-02
   1890 T=   548. E= -.88884970E+02 F= -.10204043E+03 E0= -.10204674E+03  EK= 0.37554E+01 SP= 0.94E+01 SK= 0.24E-03
 bond charge predicted
 prediction of wavefunctions
       N       E                     dE             d eps       ncg     rms          rms(c)
DAV:   1    -0.102099489511E+03   -0.59071E-01   -0.56049E-03   156   0.211E-01    0.485E-03
RMM:   2    -0.102099536625E+03   -0.47114E-04   -0.48130E-04   119   0.586E-02
   1891 T=   556. E= -.88885156E+02 F= -.10209954E+03 E0= -.10210599E+03  EK= 0.38115E+01 SP= 0.94E+01 SK= 0.39E-05
 bond charge predicted
 prediction of wavefunctions
       N       E                     dE             d eps       ncg     rms          rms(c)
DAV:   1    -0.102151865897E+03   -0.52376E-01   -0.56218E-03   180   0.244E-01    0.757E-03
RMM:   2    -0.102152012890E+03   -0.14699E-03   -0.14883E-03   120   0.111E-01    0.577E-03
RMM:   3    -0.102152030988E+03   -0.18098E-04   -0.17489E-04    75   0.385E-02
   1892 T=   565. E= -.88885421E+02 F= -.10215203E+03 E0= -.10215868E+03  EK= 0.38676E+01 SP= 0.94E+01 SK= 0.27E-03
 bond charge predicted
 prediction of wavefunctions
       N       E                     dE             d eps       ncg     rms          rms(c)
DAV:   1    -0.102191938745E+03   -0.39926E-01   -0.47546E-03   168   0.221E-01    0.582E-03
RMM:   2    -0.102191998811E+03   -0.60066E-04   -0.61674E-04   120   0.714E-02
   1893 T=   572. E= -.88885400E+02 F= -.10219200E+03 E0= -.10219891E+03  EK= 0.39171E+01 SP= 0.94E+01 SK= 0.78E-03
 bond charge predicted
 prediction of wavefunctions
       N       E                     dE             d eps       ncg     rms          rms(c)
DAV:   1    -0.102215369848E+03   -0.23431E-01   -0.53130E-03   192   0.253E-01    0.771E-03
RMM:   2    -0.102215517410E+03   -0.14756E-03   -0.14984E-03   120   0.115E-01    0.615E-03
RMM:   3    -0.102215534681E+03   -0.17272E-04   -0.17160E-04    72   0.389E-02
   1894 T=   577. E= -.88885254E+02 F= -.10221553E+03 E0= -.10222276E+03  EK= 0.39548E+01 SP= 0.94E+01 SK= 0.14E-02
 bond charge predicted
 prediction of wavefunctions
       N       E                     dE             d eps       ncg     rms          rms(c)
DAV:   1    -0.102220094076E+03   -0.45767E-02   -0.47322E-03   204   0.227E-01    0.520E-03
RMM:   2    -0.102220154399E+03   -0.60323E-04   -0.61541E-04   120   0.715E-02
   1895 T=   581. E= -.88884954E+02 F= -.10222015E+03 E0= -.10222773E+03  EK= 0.39774E+01 SP= 0.94E+01 SK= 0.20E-02
 bond charge predicted
 prediction of wavefunctions
       N       E                     dE             d eps       ncg     rms          rms(c)
DAV:   1    -0.102205355069E+03    0.14739E-01   -0.47930E-03   192   0.255E-01    0.852E-03
RMM:   2    -0.102205507959E+03   -0.15289E-03   -0.15655E-03   120   0.116E-01    0.581E-03
RMM:   3    -0.102205526325E+03   -0.18367E-04   -0.18081E-04    71   0.400E-02
   1896 T=   582. E= -.88884677E+02 F= -.10220553E+03 E0= -.10221347E+03  EK= 0.39838E+01 SP= 0.93E+01 SK= 0.26E-02
 bond charge predicted
 prediction of wavefunctions
       N       E                     dE             d eps       ncg     rms          rms(c)
DAV:   1    -0.102173024139E+03    0.32484E-01   -0.41691E-03   180   0.226E-01    0.570E-03
RMM:   2    -0.102173088310E+03   -0.64171E-04   -0.65686E-04   120   0.724E-02
   1897 T=   580. E= -.88884147E+02 F= -.10217309E+03 E0= -.10218138E+03  EK= 0.39756E+01 SP= 0.93E+01 SK= 0.33E-02
 bond charge predicted
 prediction of wavefunctions
       N       E                     dE             d eps       ncg     rms          rms(c)
DAV:   1    -0.102125805202E+03    0.47219E-01   -0.48752E-03   168   0.254E-01    0.992E-03
RMM:   2    -0.102125969295E+03   -0.16409E-03   -0.17048E-03   120   0.119E-01    0.687E-03
RMM:   3    -0.102125988137E+03   -0.18841E-04   -0.19427E-04    79   0.411E-02
   1898 T=   577. E= -.88883638E+02 F= -.10212599E+03 E0= -.10213458E+03  EK= 0.39557E+01 SP= 0.93E+01 SK= 0.42E-02
 bond charge predicted
 prediction of wavefunctions
       N       E                     dE             d eps       ncg     rms          rms(c)
DAV:   1    -0.102067596515E+03    0.58373E-01   -0.42358E-03   168   0.224E-01    0.629E-03
RMM:   2    -0.102067662855E+03   -0.66340E-04   -0.68453E-04   120   0.765E-02
   1899 T=   573. E= -.88883012E+02 F= -.10206766E+03 E0= -.10207646E+03  EK= 0.39280E+01 SP= 0.93E+01 SK= 0.54E-02
 bond charge predicted
 prediction of wavefunctions
       N       E                     dE             d eps       ncg     rms          rms(c)
DAV:   1    -0.102002328936E+03    0.65268E-01   -0.47878E-03   192   0.252E-01    0.123E-02
RMM:   2    -0.102002492652E+03   -0.16372E-03   -0.17461E-03   120   0.120E-01    0.742E-03
RMM:   3    -0.102002512591E+03   -0.19939E-04   -0.20883E-04    76   0.430E-02
   1900 T=   569. E= -.88882455E+02 F= -.10200251E+03 E0= -.10201144E+03  EK= 0.38974E+01 SP= 0.92E+01 SK= 0.71E-02
 bond charge predicted
 prediction of wavefunctions
       N       E                     dE             d eps       ncg     rms          rms(c)
DAV:   1    -0.101934916535E+03    0.67576E-01   -0.41902E-03   180   0.218E-01    0.804E-03
RMM:   2    -0.101934978906E+03   -0.62371E-04   -0.66824E-04   120   0.749E-02
   1901 T=   565. E= -.88881709E+02 F= -.10193498E+03 E0= -.10194394E+03  EK= 0.38691E+01 SP= 0.92E+01 SK= 0.93E-02
 bond charge predicted
 prediction of wavefunctions
       N       E                     dE             d eps       ncg     rms          rms(c)
DAV:   1    -0.101869875413E+03    0.65041E-01   -0.47017E-03   156   0.243E-01    0.136E-02
RMM:   2    -0.101870024477E+03   -0.14906E-03   -0.16439E-03   120   0.118E-01    0.785E-03
RMM:   3    -0.101870040773E+03   -0.16296E-04   -0.19013E-04    74   0.408E-02
   1902 T=   562. E= -.88881213E+02 F= -.10187004E+03 E0= -.10187895E+03  EK= 0.38483E+01 SP= 0.91E+01 SK= 0.12E-01
 bond charge predicted
 prediction of wavefunctions
       N       E                     dE             d eps       ncg     rms          rms(c)
DAV:   1    -0.101810645018E+03    0.59379E-01   -0.43117E-03   204   0.213E-01    0.105E-02
RMM:   2    -0.101810703746E+03   -0.58728E-04   -0.67078E-04   120   0.777E-02
   1903 T=   560. E= -.88880700E+02 F= -.10181070E+03 E0= -.10181946E+03  EK= 0.38389E+01 SP= 0.91E+01 SK= 0.15E-01
 bond charge predicted
 prediction of wavefunctions
       N       E                     dE             d eps       ncg     rms          rms(c)
DAV:   1    -0.101759193149E+03    0.51452E-01   -0.50876E-03   156   0.247E-01    0.120E-02
RMM:   2    -0.101759348868E+03   -0.15572E-03   -0.16671E-03   120   0.120E-01    0.668E-03
RMM:   3    -0.101759366926E+03   -0.18058E-04   -0.18298E-04    75   0.415E-02
   1904 T=   561. E= -.88880242E+02 F= -.10175937E+03 E0= -.10176792E+03  EK= 0.38435E+01 SP= 0.90E+01 SK= 0.19E-01
 bond charge predicted
 prediction of wavefunctions
       N       E                     dE             d eps       ncg     rms          rms(c)
DAV:   1    -0.101717616755E+03    0.41732E-01   -0.46372E-03   180   0.210E-01    0.945E-03
RMM:   2    -0.101717691763E+03   -0.75008E-04   -0.81080E-04   120   0.818E-02
   1905 T=   564. E= -.88879989E+02 F= -.10171769E+03 E0= -.10172599E+03  EK= 0.38637E+01 SP= 0.90E+01 SK= 0.23E-01
 bond charge predicted
 prediction of wavefunctions
       N       E                     dE             d eps       ncg     rms          rms(c)
DAV:   1    -0.101685529098E+03    0.32088E-01   -0.61741E-03   180   0.252E-01    0.119E-02
RMM:   2    -0.101685712277E+03   -0.18318E-03   -0.19297E-03   120   0.127E-01    0.686E-03
RMM:   3    -0.101685734164E+03   -0.21887E-04   -0.21395E-04    77   0.442E-02
   1906 T=   569. E= -.88879660E+02 F= -.10168573E+03 E0= -.10169378E+03  EK= 0.38997E+01 SP= 0.89E+01 SK= 0.27E-01
 bond charge predicted
 prediction of wavefunctions
       N       E                     dE             d eps       ncg     rms          rms(c)
DAV:   1    -0.101663139748E+03    0.22573E-01   -0.49938E-03   192   0.213E-01    0.887E-03
RMM:   2    -0.101663221151E+03   -0.81403E-04   -0.86675E-04   120   0.848E-02
   1907 T=   577. E= -.88879431E+02 F= -.10166322E+03 E0= -.10167105E+03  EK= 0.39506E+01 SP= 0.88E+01 SK= 0.31E-01
 bond charge predicted
 prediction of wavefunctions
       N       E                     dE             d eps       ncg     rms          rms(c)
DAV:   1    -0.101648665571E+03    0.14474E-01   -0.60964E-03   204   0.257E-01    0.126E-02
RMM:   2    -0.101648859110E+03   -0.19354E-03   -0.20406E-03   120   0.129E-01    0.785E-03
RMM:   3    -0.101648879126E+03   -0.20016E-04   -0.19690E-04    74   0.426E-02
   1908 T=   586. E= -.88879378E+02 F= -.10164888E+03 E0= -.10165660E+03  EK= 0.40143E+01 SP= 0.87E+01 SK= 0.33E-01
 bond charge predicted
 prediction of wavefunctions
       N       E                     dE             d eps       ncg     rms          rms(c)
DAV:   1    -0.101640181115E+03    0.86780E-02   -0.54979E-03   168   0.211E-01    0.875E-03
RMM:   2    -0.101640260533E+03   -0.79418E-04   -0.84748E-04   120   0.838E-02
   1909 T=   597. E= -.88879341E+02 F= -.10164026E+03 E0= -.10164799E+03  EK= 0.40871E+01 SP= 0.86E+01 SK= 0.34E-01
 bond charge predicted
 prediction of wavefunctions
       N       E                     dE             d eps       ncg     rms          rms(c)
DAV:   1    -0.101634537651E+03    0.56435E-02   -0.69350E-03   204   0.256E-01    0.136E-02
RMM:   2    -0.101634727102E+03   -0.18945E-03   -0.20212E-03   120   0.132E-01    0.772E-03
RMM:   3    -0.101634747749E+03   -0.20646E-04   -0.20450E-04    79   0.445E-02
   1910 T=   608. E= -.88879317E+02 F= -.10163475E+03 E0= -.10164257E+03  EK= 0.41650E+01 SP= 0.86E+01 SK= 0.34E-01
 bond charge predicted
 prediction of wavefunctions
       N       E                     dE             d eps       ncg     rms          rms(c)
DAV:   1    -0.101629223279E+03    0.55038E-02   -0.51226E-03   192   0.215E-01    0.939E-03
RMM:   2    -0.101629310909E+03   -0.87630E-04   -0.93403E-04   120   0.900E-02
   1911 T=   619. E= -.88879012E+02 F= -.10162931E+03 E0= -.10163731E+03  EK= 0.42433E+01 SP= 0.85E+01 SK= 0.32E-01
 bond charge predicted
 prediction of wavefunctions
       N       E                     dE             d eps       ncg     rms          rms(c)
DAV:   1    -0.101621669691E+03    0.75536E-02   -0.61715E-03   180   0.263E-01    0.138E-02
RMM:   2    -0.101621872773E+03   -0.20308E-03   -0.21659E-03   120   0.134E-01    0.833E-03
RMM:   3    -0.101621892907E+03   -0.20134E-04   -0.20192E-04    79   0.436E-02
   1912 T=   630. E= -.88878808E+02 F= -.10162189E+03 E0= -.10163013E+03  EK= 0.43174E+01 SP= 0.84E+01 SK= 0.28E-01
 bond charge predicted
 prediction of wavefunctions
       N       E                     dE             d eps       ncg     rms          rms(c)
DAV:   1    -0.101609734322E+03    0.12138E-01   -0.51191E-03   156   0.215E-01    0.960E-03
RMM:   2    -0.101609812683E+03   -0.78361E-04   -0.84195E-04   120   0.863E-02
   1913 T=   640. E= -.88878574E+02 F= -.10160981E+03 E0= -.10161832E+03  EK= 0.43825E+01 SP= 0.83E+01 SK= 0.24E-01
 bond charge predicted
 prediction of wavefunctions
       N       E                     dE             d eps       ncg     rms          rms(c)
DAV:   1    -0.101590940810E+03    0.18794E-01   -0.63410E-03   192   0.267E-01    0.143E-02
RMM:   2    -0.101591139745E+03   -0.19893E-03   -0.21288E-03   120   0.135E-01    0.842E-03
RMM:   3    -0.101591158002E+03   -0.18258E-04   -0.18651E-04    77   0.425E-02
   1914 T=   647. E= -.88878437E+02 F= -.10159116E+03 E0= -.10159986E+03  EK= 0.44347E+01 SP= 0.83E+01 SK= 0.19E-01
 bond charge predicted
 prediction of wavefunctions
       N       E                     dE             d eps       ncg     rms          rms(c)
DAV:   1    -0.101565061179E+03    0.26079E-01   -0.56750E-03   192   0.223E-01    0.961E-03
RMM:   2    -0.101565143950E+03   -0.82771E-04   -0.88457E-04   120   0.878E-02
   1915 T=   653. E= -.88878179E+02 F= -.10156514E+03 E0= -.10157396E+03  EK= 0.44714E+01 SP= 0.82E+01 SK= 0.14E-01
 bond charge predicted
 prediction of wavefunctions
       N       E                     dE             d eps       ncg     rms          rms(c)
DAV:   1    -0.101531840272E+03    0.33221E-01   -0.69982E-03   180   0.274E-01    0.131E-02
RMM:   2    -0.101532058345E+03   -0.21807E-03   -0.22948E-03   120   0.137E-01    0.769E-03
RMM:   3    -0.101532082090E+03   -0.23744E-04   -0.22979E-04    81   0.465E-02
   1916 T=   656. E= -.88877891E+02 F= -.10153208E+03 E0= -.10154094E+03  EK= 0.44916E+01 SP= 0.82E+01 SK= 0.94E-02
 bond charge predicted
 prediction of wavefunctions
       N       E                     dE             d eps       ncg     rms          rms(c)
DAV:   1    -0.101492620815E+03    0.39438E-01   -0.63273E-03   168   0.228E-01    0.970E-03
RMM:   2    -0.101492707421E+03   -0.86606E-04   -0.92905E-04   120   0.904E-02
   1917 T=   656. E= -.88877414E+02 F= -.10149271E+03 E0= -.10150155E+03  EK= 0.44953E+01 SP= 0.81E+01 SK= 0.57E-02
 bond charge predicted
 prediction of wavefunctions
       N       E                     dE             d eps       ncg     rms          rms(c)
DAV:   1    -0.101449013150E+03    0.43608E-01   -0.80311E-03   180   0.279E-01    0.131E-02
RMM:   2    -0.101449238770E+03   -0.22562E-03   -0.23705E-03   120   0.139E-01    0.791E-03
RMM:   3    -0.101449262185E+03   -0.23415E-04   -0.22839E-04    84   0.464E-02
   1918 T=   655. E= -.88876903E+02 F= -.10144926E+03 E0= -.10145806E+03  EK= 0.44843E+01 SP= 0.81E+01 SK= 0.29E-02
 bond charge predicted
 prediction of wavefunctions
       N       E                     dE             d eps       ncg     rms          rms(c)
DAV:   1    -0.101405000786E+03    0.44238E-01   -0.71840E-03   144   0.235E-01    0.884E-03
RMM:   2    -0.101405091105E+03   -0.90319E-04   -0.95491E-04   120   0.917E-02
   1919 T=   651. E= -.88876197E+02 F= -.10140509E+03 E0= -.10141384E+03  EK= 0.44624E+01 SP= 0.81E+01 SK= 0.11E-02
 bond charge predicted
 prediction of wavefunctions
       N       E                     dE             d eps       ncg     rms          rms(c)
DAV:   1    -0.101363979971E+03    0.41021E-01   -0.84116E-03   192   0.282E-01    0.132E-02
RMM:   2    -0.101364207562E+03   -0.22759E-03   -0.23872E-03   120   0.140E-01    0.786E-03
RMM:   3    -0.101364231275E+03   -0.23713E-04   -0.23121E-04    83   0.464E-02
   1920 T=   647. E= -.88875466E+02 F= -.10136423E+03 E0= -.10137292E+03  EK= 0.44340E+01 SP= 0.81E+01 SK= 0.21E-03
 bond charge predicted
 prediction of wavefunctions
       N       E                     dE             d eps       ncg     rms          rms(c)
DAV:   1    -0.101330533777E+03    0.33674E-01   -0.71669E-03   144   0.238E-01    0.849E-03
RMM:   2    -0.101330621691E+03   -0.87913E-04   -0.92894E-04   120   0.903E-02
   1921 T=   643. E= -.88874827E+02 F= -.10133062E+03 E0= -.10133922E+03  EK= 0.44039E+01 SP= 0.81E+01 SK= 0.75E-05
 bond charge predicted
 prediction of wavefunctions
       N       E                     dE             d eps       ncg     rms          rms(c)
DAV:   1    -0.101308143375E+03    0.22390E-01   -0.84678E-03   204   0.281E-01    0.136E-02
RMM:   2    -0.101308364734E+03   -0.22136E-03   -0.23444E-03   120   0.141E-01    0.799E-03
RMM:   3    -0.101308387848E+03   -0.23114E-04   -0.23096E-04    83   0.464E-02
   1922 T=   639. E= -.88874081E+02 F= -.10130839E+03 E0= -.10131681E+03  EK= 0.43773E+01 SP= 0.81E+01 SK= 0.34E-03
 bond charge predicted
 prediction of wavefunctions
       N       E                     dE             d eps       ncg     rms          rms(c)
DAV:   1    -0.101301049233E+03    0.73155E-02   -0.71768E-03   192   0.238E-01    0.901E-03
RMM:   2    -0.101301134170E+03   -0.84937E-04   -0.91320E-04   120   0.919E-02
   1923 T=   636. E= -.88873595E+02 F= -.10130113E+03 E0= -.10130932E+03  EK= 0.43582E+01 SP= 0.81E+01 SK= 0.11E-02
 bond charge predicted
 prediction of wavefunctions
       N       E                     dE             d eps       ncg     rms          rms(c)
DAV:   1    -0.101309928897E+03   -0.88797E-02   -0.77875E-03   168   0.276E-01    0.134E-02
RMM:   2    -0.101310127317E+03   -0.19842E-03   -0.21092E-03   120   0.136E-01    0.789E-03
RMM:   3    -0.101310146724E+03   -0.19407E-04   -0.20262E-04    79   0.437E-02
   1924 T=   635. E= -.88873115E+02 F= -.10131015E+03 E0= -.10131808E+03  EK= 0.43487E+01 SP= 0.81E+01 SK= 0.22E-02
 bond charge predicted
 prediction of wavefunctions
       N       E                     dE             d eps       ncg     rms          rms(c)
DAV:   1    -0.101336179534E+03   -0.26052E-01   -0.68424E-03   168   0.233E-01    0.863E-03
RMM:   2    -0.101336260461E+03   -0.80928E-04   -0.86068E-04   120   0.885E-02
   1925 T=   635. E= -.88872913E+02 F= -.10133626E+03 E0= -.10134398E+03  EK= 0.43496E+01 SP= 0.81E+01 SK= 0.36E-02
 bond charge predicted
 prediction of wavefunctions
       N       E                     dE             d eps       ncg     rms          rms(c)
DAV:   1    -0.101377980218E+03   -0.41801E-01   -0.74019E-03   168   0.271E-01    0.135E-02
RMM:   2    -0.101378188326E+03   -0.20811E-03   -0.22162E-03   120   0.136E-01    0.763E-03
RMM:   3    -0.101378215032E+03   -0.26706E-04   -0.26709E-04    88   0.499E-02
   1926 T=   636. E= -.88872517E+02 F= -.10137822E+03 E0= -.10138578E+03  EK= 0.43600E+01 SP= 0.81E+01 SK= 0.54E-02
 bond charge predicted
 prediction of wavefunctions
       N       E                     dE             d eps       ncg     rms          rms(c)
DAV:   1    -0.101433607452E+03   -0.55419E-01   -0.64191E-03   156   0.229E-01    0.905E-03
RMM:   2    -0.101433690238E+03   -0.82787E-04   -0.88660E-04   120   0.910E-02
   1927 T=   639. E= -.88872180E+02 F= -.10143369E+03 E0= -.10144117E+03  EK= 0.43770E+01 SP= 0.82E+01 SK= 0.78E-02
 bond charge predicted
 prediction of wavefunctions
       N       E                     dE             d eps       ncg     rms          rms(c)
DAV:   1    -0.101498494931E+03   -0.64887E-01   -0.71403E-03   144   0.263E-01    0.131E-02
RMM:   2    -0.101498685316E+03   -0.19039E-03   -0.20207E-03   120   0.130E-01    0.807E-03
RMM:   3    -0.101498705688E+03   -0.20372E-04   -0.21915E-04    85   0.442E-02
   1928 T=   642. E= -.88872008E+02 F= -.10149871E+03 E0= -.10150619E+03  EK= 0.43959E+01 SP= 0.82E+01 SK= 0.11E-01
 bond charge predicted
 prediction of wavefunctions
       N       E                     dE             d eps       ncg     rms          rms(c)
DAV:   1    -0.101568546472E+03   -0.69861E-01   -0.60172E-03   180   0.223E-01    0.821E-03
RMM:   2    -0.101568621894E+03   -0.75422E-04   -0.79976E-04   120   0.861E-02
   1929 T=   644. E= -.88871869E+02 F= -.10156862E+03 E0= -.10157619E+03  EK= 0.44117E+01 SP= 0.83E+01 SK= 0.15E-01
 bond charge predicted
 prediction of wavefunctions
       N       E                     dE             d eps       ncg     rms          rms(c)
DAV:   1    -0.101638833276E+03   -0.70287E-01   -0.65115E-03   156   0.257E-01    0.140E-02
RMM:   2    -0.101639008223E+03   -0.17495E-03   -0.18950E-03   120   0.127E-01    0.797E-03
RMM:   3    -0.101639029285E+03   -0.21062E-04   -0.22278E-04    78   0.454E-02
   1930 T=   645. E= -.88871600E+02 F= -.10163903E+03 E0= -.10164673E+03  EK= 0.44198E+01 SP= 0.83E+01 SK= 0.19E-01
 bond charge predicted
 prediction of wavefunctions
       N       E                     dE             d eps       ncg     rms          rms(c)
DAV:   1    -0.101705958390E+03   -0.66950E-01   -0.55993E-03   120   0.219E-01    0.930E-03
RMM:   2    -0.101706031398E+03   -0.73008E-04   -0.79022E-04   120   0.853E-02
   1931 T=   645. E= -.88871333E+02 F= -.10170603E+03 E0= -.10171391E+03  EK= 0.44160E+01 SP= 0.84E+01 SK= 0.24E-01
 bond charge predicted
 prediction of wavefunctions
       N       E                     dE             d eps       ncg     rms          rms(c)
DAV:   1    -0.101765733536E+03   -0.59775E-01   -0.61967E-03   168   0.251E-01    0.133E-02
RMM:   2    -0.101765899882E+03   -0.16635E-03   -0.17914E-03   120   0.123E-01    0.791E-03
RMM:   3    -0.101765918753E+03   -0.18871E-04   -0.20711E-04    76   0.434E-02
   1932 T=   642. E= -.88871016E+02 F= -.10176592E+03 E0= -.10177399E+03  EK= 0.43971E+01 SP= 0.85E+01 SK= 0.30E-01
 bond charge predicted
 prediction of wavefunctions
       N       E                     dE             d eps       ncg     rms          rms(c)
DAV:   1    -0.101815804661E+03   -0.49905E-01   -0.53881E-03   156   0.216E-01    0.910E-03
RMM:   2    -0.101815873541E+03   -0.68880E-04   -0.74626E-04   120   0.831E-02
   1933 T=   637. E= -.88870488E+02 F= -.10181587E+03 E0= -.10182412E+03  EK= 0.43612E+01 SP= 0.85E+01 SK= 0.35E-01
 bond charge predicted
 prediction of wavefunctions
       N       E                     dE             d eps       ncg     rms          rms(c)
DAV:   1    -0.101854453133E+03   -0.38648E-01   -0.55646E-03   192   0.245E-01    0.130E-02
RMM:   2    -0.101854611672E+03   -0.15854E-03   -0.17068E-03   120   0.121E-01    0.739E-03
RMM:   3    -0.101854632148E+03   -0.20475E-04   -0.21388E-04    77   0.446E-02
   1934 T=   629. E= -.88869997E+02 F= -.10185463E+03 E0= -.10186300E+03  EK= 0.43082E+01 SP= 0.86E+01 SK= 0.40E-01
 bond charge predicted
 prediction of wavefunctions
       N       E                     dE             d eps       ncg     rms          rms(c)
DAV:   1    -0.101881656595E+03   -0.27045E-01   -0.45718E-03   192   0.212E-01    0.947E-03
RMM:   2    -0.101881717637E+03   -0.61043E-04   -0.67445E-04   120   0.786E-02
   1935 T=   619. E= -.88869315E+02 F= -.10188172E+03 E0= -.10189012E+03  EK= 0.42398E+01 SP= 0.87E+01 SK= 0.44E-01
 bond charge predicted
 prediction of wavefunctions
       N       E                     dE             d eps       ncg     rms          rms(c)
DAV:   1    -0.101897583330E+03   -0.15927E-01   -0.49950E-03   144   0.242E-01    0.111E-02
RMM:   2    -0.101897739333E+03   -0.15600E-03   -0.16398E-03   120   0.119E-01    0.690E-03
RMM:   3    -0.101897757279E+03   -0.17946E-04   -0.18308E-04    71   0.409E-02
   1936 T=   607. E= -.88868529E+02 F= -.10189776E+03 E0= -.10190604E+03  EK= 0.41587E+01 SP= 0.88E+01 SK= 0.46E-01
 bond charge predicted
 prediction of wavefunctions
       N       E                     dE             d eps       ncg     rms          rms(c)
DAV:   1    -0.101904634737E+03   -0.68954E-02   -0.48371E-03   156   0.210E-01    0.834E-03
RMM:   2    -0.101904694668E+03   -0.59931E-04   -0.64665E-04   120   0.775E-02
   1937 T=   594. E= -.88867846E+02 F= -.10190469E+03 E0= -.10191268E+03  EK= 0.40690E+01 SP= 0.89E+01 SK= 0.47E-01
 bond charge predicted
 prediction of wavefunctions
       N       E                     dE             d eps       ncg     rms          rms(c)
DAV:   1    -0.101905293749E+03   -0.65901E-03   -0.54407E-03   192   0.239E-01    0.120E-02
RMM:   2    -0.101905445579E+03   -0.15183E-03   -0.16123E-03   120   0.116E-01    0.721E-03
RMM:   3    -0.101905464550E+03   -0.18971E-04   -0.19891E-04    73   0.423E-02
   1938 T=   580. E= -.88867287E+02 F= -.10190546E+03 E0= -.10191293E+03  EK= 0.39761E+01 SP= 0.90E+01 SK= 0.45E-01
 bond charge predicted
 prediction of wavefunctions
       N       E                     dE             d eps       ncg     rms          rms(c)
DAV:   1    -0.101903033012E+03    0.24126E-02   -0.45636E-03   180   0.209E-01    0.768E-03
RMM:   2    -0.101903100490E+03   -0.67478E-04   -0.71673E-04   120   0.785E-02
   1939 T=   567. E= -.88866585E+02 F= -.10190310E+03 E0= -.10190984E+03  EK= 0.38854E+01 SP= 0.91E+01 SK= 0.41E-01
 bond charge predicted
 prediction of wavefunctions
       N       E                     dE             d eps       ncg     rms          rms(c)
DAV:   1    -0.101901239494E+03    0.17935E-02   -0.50225E-03   204   0.237E-01    0.111E-02
RMM:   2    -0.101901390872E+03   -0.15138E-03   -0.15813E-03   120   0.116E-01    0.781E-03
RMM:   3    -0.101901405932E+03   -0.15060E-04   -0.15862E-04    67   0.379E-02
   1940 T=   555. E= -.88866042E+02 F= -.10190141E+03 E0= -.10190728E+03  EK= 0.38022E+01 SP= 0.92E+01 SK= 0.35E-01
 bond charge predicted
 prediction of wavefunctions
       N       E                     dE             d eps       ncg     rms          rms(c)
DAV:   1    -0.101903838667E+03   -0.24478E-02   -0.39991E-03   156   0.209E-01    0.771E-03
RMM:   2    -0.101903904166E+03   -0.65499E-04   -0.70045E-04   120   0.780E-02
   1941 T=   545. E= -.88865495E+02 F= -.10190390E+03 E0= -.10190891E+03  EK= 0.37317E+01 SP= 0.93E+01 SK= 0.28E-01
 bond charge predicted
 prediction of wavefunctions
       N       E                     dE             d eps       ncg     rms          rms(c)
DAV:   1    -0.101913980342E+03   -0.10142E-01   -0.47958E-03   216   0.239E-01    0.120E-02
RMM:   2    -0.101914133012E+03   -0.15267E-03   -0.16255E-03   120   0.117E-01    0.749E-03
RMM:   3    -0.101914147927E+03   -0.14916E-04   -0.15588E-04    66   0.382E-02
   1942 T=   537. E= -.88865053E+02 F= -.10191415E+03 E0= -.10191843E+03  EK= 0.36783E+01 SP= 0.93E+01 SK= 0.22E-01
 bond charge predicted
 prediction of wavefunctions
       N       E                     dE             d eps       ncg     rms          rms(c)
DAV:   1    -0.101934962699E+03   -0.20830E-01   -0.53349E-03   180   0.210E-01    0.741E-03
RMM:   2    -0.101935032256E+03   -0.69557E-04   -0.73383E-04   120   0.786E-02
   1943 T=   532. E= -.88864619E+02 F= -.10193503E+03 E0= -.10193876E+03  EK= 0.36456E+01 SP= 0.94E+01 SK= 0.15E-01
 bond charge predicted
 prediction of wavefunctions
       N       E                     dE             d eps       ncg     rms          rms(c)
DAV:   1    -0.101968718266E+03   -0.33756E-01   -0.65969E-03   204   0.237E-01    0.121E-02
RMM:   2    -0.101968864825E+03   -0.14656E-03   -0.15544E-03   120   0.115E-01    0.808E-03
RMM:   3    -0.101968880484E+03   -0.15659E-04   -0.16761E-04    73   0.391E-02
   1944 T=   531. E= -.88864333E+02 F= -.10196888E+03 E0= -.10197218E+03  EK= 0.36361E+01 SP= 0.95E+01 SK= 0.93E-02
 bond charge predicted
 prediction of wavefunctions
       N       E                     dE             d eps       ncg     rms          rms(c)
DAV:   1    -0.102016195195E+03   -0.47330E-01   -0.63627E-03   216   0.213E-01    0.802E-03
RMM:   2    -0.102016260424E+03   -0.65229E-04   -0.69762E-04   120   0.774E-02
   1945 T=   533. E= -.88864072E+02 F= -.10201626E+03 E0= -.10201926E+03  EK= 0.36503E+01 SP= 0.95E+01 SK= 0.51E-02
 bond charge predicted
 prediction of wavefunctions
       N       E                     dE             d eps       ncg     rms          rms(c)
DAV:   1    -0.102076767187E+03   -0.60572E-01   -0.66144E-03   192   0.237E-01    0.128E-02
RMM:   2    -0.102076907662E+03   -0.14047E-03   -0.15080E-03   120   0.113E-01    0.761E-03
RMM:   3    -0.102076926951E+03   -0.19289E-04   -0.20465E-04    77   0.429E-02
   1946 T=   538. E= -.88863810E+02 F= -.10207693E+03 E0= -.10207972E+03  EK= 0.36875E+01 SP= 0.95E+01 SK= 0.22E-02
 bond charge predicted
 prediction of wavefunctions
       N       E                     dE             d eps       ncg     rms          rms(c)
DAV:   1    -0.102149241834E+03   -0.72334E-01   -0.64298E-03   204   0.213E-01    0.959E-03
RMM:   2    -0.102149293641E+03   -0.51807E-04   -0.58397E-04   120   0.727E-02
   1947 T=   547. E= -.88863698E+02 F= -.10214929E+03 E0= -.10215195E+03  EK= 0.37452E+01 SP= 0.95E+01 SK= 0.65E-03
 bond charge predicted
 prediction of wavefunctions
       N       E                     dE             d eps       ncg     rms          rms(c)
DAV:   1    -0.102229429838E+03   -0.80188E-01   -0.65837E-03   180   0.240E-01    0.109E-02
RMM:   2    -0.102229563590E+03   -0.13375E-03   -0.14015E-03   120   0.111E-01    0.694E-03
RMM:   3    -0.102229579399E+03   -0.15809E-04   -0.16303E-04    65   0.383E-02
   1948 T=   557. E= -.88863600E+02 F= -.10222958E+03 E0= -.10223215E+03  EK= 0.38186E+01 SP= 0.95E+01 SK= 0.60E-04
 bond charge predicted
 prediction of wavefunctions
       N       E                     dE             d eps       ncg     rms          rms(c)
DAV:   1    -0.102312705468E+03   -0.83142E-01   -0.60238E-03   168   0.219E-01    0.853E-03
RMM:   2    -0.102312757676E+03   -0.52208E-04   -0.57100E-04   120   0.721E-02
   1949 T=   569. E= -.88863628E+02 F= -.10231276E+03 E0= -.10231528E+03  EK= 0.39013E+01 SP= 0.95E+01 SK= 0.32E-04
 bond charge predicted
 prediction of wavefunctions
       N       E                     dE             d eps       ncg     rms          rms(c)
DAV:   1    -0.102392484239E+03   -0.79779E-01   -0.58977E-03   144   0.248E-01    0.105E-02
RMM:   2    -0.102392624683E+03   -0.14044E-03   -0.14560E-03   120   0.112E-01    0.662E-03
RMM:   3    -0.102392644043E+03   -0.19359E-04   -0.19782E-04    75   0.421E-02
   1950 T=   582. E= -.88863732E+02 F= -.10239264E+03 E0= -.10239516E+03  EK= 0.39855E+01 SP= 0.95E+01 SK= 0.21E-03
 bond charge predicted
 prediction of wavefunctions
       N       E                     dE             d eps       ncg     rms          rms(c)
DAV:   1    -0.102462320144E+03   -0.69695E-01   -0.48715E-03   168   0.225E-01    0.782E-03
RMM:   2    -0.102462378126E+03   -0.57982E-04   -0.62247E-04   120   0.753E-02
   1951 T=   593. E= -.88863808E+02 F= -.10246238E+03 E0= -.10246491E+03  EK= 0.40624E+01 SP= 0.95E+01 SK= 0.35E-03
 bond charge predicted
 prediction of wavefunctions
       N       E                     dE             d eps       ncg     rms          rms(c)
DAV:   1    -0.102514743390E+03   -0.52423E-01   -0.64591E-03   180   0.255E-01    0.107E-02
RMM:   2    -0.102514883270E+03   -0.13988E-03   -0.14447E-03   120   0.113E-01    0.712E-03
RMM:   3    -0.102514899322E+03   -0.16052E-04   -0.16583E-04    67   0.379E-02
   1952 T=   602. E= -.88863822E+02 F= -.10251490E+03 E0= -.10251750E+03  EK= 0.41234E+01 SP= 0.95E+01 SK= 0.36E-03
 bond charge predicted
 prediction of wavefunctions
       N       E                     dE             d eps       ncg     rms          rms(c)
DAV:   1    -0.102544500764E+03   -0.29617E-01   -0.63612E-03   132   0.231E-01    0.736E-03
RMM:   2    -0.102544557095E+03   -0.56332E-04   -0.59683E-04   120   0.755E-02
   1953 T=   607. E= -.88863678E+02 F= -.10254456E+03 E0= -.10254726E+03  EK= 0.41613E+01 SP= 0.95E+01 SK= 0.28E-03
 bond charge predicted
 prediction of wavefunctions
       N       E                     dE             d eps       ncg     rms          rms(c)
DAV:   1    -0.102547058863E+03   -0.25581E-02   -0.71136E-03   180   0.259E-01    0.115E-02
RMM:   2    -0.102547201747E+03   -0.14288E-03   -0.14800E-03   120   0.117E-01    0.774E-03
RMM:   3    -0.102547219612E+03   -0.17865E-04   -0.18893E-04    72   0.419E-02
   1954 T=   609. E= -.88863384E+02 F= -.10254722E+03 E0= -.10255007E+03  EK= 0.41711E+01 SP= 0.95E+01 SK= 0.17E-03
 bond charge predicted
 prediction of wavefunctions
       N       E                     dE             d eps       ncg     rms          rms(c)
DAV:   1    -0.102520460771E+03    0.26741E-01   -0.68227E-03   132   0.232E-01    0.783E-03
RMM:   2    -0.102520519833E+03   -0.59061E-04   -0.62410E-04   120   0.752E-02
   1955 T=   606. E= -.88862997E+02 F= -.10252052E+03 E0= -.10252356E+03  EK= 0.41498E+01 SP= 0.95E+01 SK= 0.88E-04
 bond charge predicted
 prediction of wavefunctions
       N       E                     dE             d eps       ncg     rms          rms(c)
DAV:   1    -0.102463954696E+03    0.56506E-01   -0.72014E-03   192   0.259E-01    0.130E-02
RMM:   2    -0.102464097280E+03   -0.14258E-03   -0.15022E-03   120   0.118E-01    0.834E-03
RMM:   3    -0.102464113370E+03   -0.16090E-04   -0.18010E-04    69   0.402E-02
   1956 T=   598. E= -.88862513E+02 F= -.10246411E+03 E0= -.10246742E+03  EK= 0.40978E+01 SP= 0.95E+01 SK= 0.63E-04
 bond charge predicted
 prediction of wavefunctions
       N       E                     dE             d eps       ncg     rms          rms(c)
DAV:   1    -0.102379702277E+03    0.84395E-01   -0.69176E-03   180   0.234E-01    0.967E-03
RMM:   2    -0.102379763496E+03   -0.61218E-04   -0.66463E-04   120   0.777E-02
   1957 T=   587. E= -.88861811E+02 F= -.10237976E+03 E0= -.10238340E+03  EK= 0.40182E+01 SP= 0.95E+01 SK= 0.10E-03
 bond charge predicted
 prediction of wavefunctions
       N       E                     dE             d eps       ncg     rms          rms(c)
DAV:   1    -0.102271679583E+03    0.10802E+00   -0.72020E-03   132   0.258E-01    0.137E-02
RMM:   2    -0.102271831631E+03   -0.15205E-03   -0.16018E-03   120   0.119E-01    0.906E-03
RMM:   3    -0.102271848680E+03   -0.17048E-04   -0.19328E-04    78   0.421E-02
   1958 T=   572. E= -.88861078E+02 F= -.10227185E+03 E0= -.10227590E+03  EK= 0.39170E+01 SP= 0.95E+01 SK= 0.30E-03
 bond charge predicted
 prediction of wavefunctions
       N       E                     dE             d eps       ncg     rms          rms(c)
DAV:   1    -0.102146555797E+03    0.12528E+00   -0.68516E-03   156   0.227E-01    0.109E-02
RMM:   2    -0.102146616957E+03   -0.61160E-04   -0.66570E-04   120   0.765E-02
   1959 T=   555. E= -.88860197E+02 F= -.10214662E+03 E0= -.10215117E+03  EK= 0.38028E+01 SP= 0.95E+01 SK= 0.94E-03
 bond charge predicted
 prediction of wavefunctions
       N       E                     dE             d eps       ncg     rms          rms(c)
DAV:   1    -0.102011632608E+03    0.13492E+00   -0.68423E-03   156   0.252E-01    0.138E-02
RMM:   2    -0.102011780636E+03   -0.14803E-03   -0.15764E-03   120   0.117E-01    0.835E-03
RMM:   3    -0.102011797316E+03   -0.16680E-04   -0.18614E-04    74   0.405E-02
   1960 T=   538. E= -.88859196E+02 F= -.10201180E+03 E0= -.10201691E+03  EK= 0.36857E+01 SP= 0.95E+01 SK= 0.25E-02
 bond charge predicted
 prediction of wavefunctions
       N       E                     dE             d eps       ncg     rms          rms(c)
DAV:   1    -0.101876259066E+03    0.13552E+00   -0.57934E-03   132   0.222E-01    0.117E-02
RMM:   2    -0.101876319162E+03   -0.60096E-04   -0.67073E-04   120   0.772E-02
   1961 T=   522. E= -.88858647E+02 F= -.10187632E+03 E0= -.10188196E+03  EK= 0.35760E+01 SP= 0.94E+01 SK= 0.58E-02
 bond charge predicted
 prediction of wavefunctions
       N       E                     dE             d eps       ncg     rms          rms(c)
DAV:   1    -0.101747959310E+03    0.12830E+00   -0.56650E-03   168   0.247E-01    0.143E-02
RMM:   2    -0.101748105132E+03   -0.14582E-03   -0.15676E-03   120   0.117E-01    0.907E-03
RMM:   3    -0.101748121298E+03   -0.16166E-04   -0.19184E-04    74   0.415E-02
   1962 T=   509. E= -.88857871E+02 F= -.10174812E+03 E0= -.10175411E+03  EK= 0.34842E+01 SP= 0.94E+01 SK= 0.12E-01
 bond charge predicted
 prediction of wavefunctions
       N       E                     dE             d eps       ncg     rms          rms(c)
DAV:   1    -0.101635308453E+03    0.11280E+00   -0.47956E-03   156   0.215E-01    0.110E-02
RMM:   2    -0.101635369796E+03   -0.61344E-04   -0.67053E-04   120   0.760E-02
   1963 T=   499. E= -.88857174E+02 F= -.10163537E+03 E0= -.10164150E+03  EK= 0.34198E+01 SP= 0.93E+01 SK= 0.21E-01
 bond charge predicted
 prediction of wavefunctions
       N       E                     dE             d eps       ncg     rms          rms(c)
DAV:   1    -0.101544736213E+03    0.90572E-01   -0.52364E-03   180   0.242E-01    0.137E-02
RMM:   2    -0.101544878614E+03   -0.14240E-03   -0.15343E-03   120   0.114E-01    0.794E-03
RMM:   3    -0.101544895932E+03   -0.17319E-04   -0.19058E-04    74   0.412E-02
   1964 T=   495. E= -.88856663E+02 F= -.10154490E+03 E0= -.10155101E+03  EK= 0.33908E+01 SP= 0.93E+01 SK= 0.33E-01
 bond charge predicted
 prediction of wavefunctions
       N       E                     dE             d eps       ncg     rms          rms(c)
DAV:   1    -0.101481218332E+03    0.63660E-01   -0.46168E-03   132   0.214E-01    0.104E-02
RMM:   2    -0.101481280569E+03   -0.62238E-04   -0.68000E-04   120   0.772E-02
   1965 T=   497. E= -.88856119E+02 F= -.10148128E+03 E0= -.10148728E+03  EK= 0.34029E+01 SP= 0.92E+01 SK= 0.49E-01
 bond charge predicted
 prediction of wavefunctions
       N       E                     dE             d eps       ncg     rms          rms(c)
DAV:   1    -0.101446368361E+03    0.34850E-01   -0.50014E-03   168   0.242E-01    0.127E-02
RMM:   2    -0.101446510595E+03   -0.14223E-03   -0.15162E-03   120   0.114E-01    0.811E-03
RMM:   3    -0.101446526740E+03   -0.16144E-04   -0.18379E-04    70   0.404E-02
   1966 T=   505. E= -.88855727E+02 F= -.10144653E+03 E0= -.10145239E+03  EK= 0.34589E+01 SP= 0.91E+01 SK= 0.67E-01
 bond charge predicted
 prediction of wavefunctions
       N       E                     dE             d eps       ncg     rms          rms(c)
DAV:   1    -0.101439755134E+03    0.67555E-02   -0.43599E-03   120   0.216E-01    0.970E-03
RMM:   2    -0.101439818807E+03   -0.63673E-04   -0.68431E-04   120   0.774E-02
   1967 T=   519. E= -.88855600E+02 F= -.10143982E+03 E0= -.10144557E+03  EK= 0.35583E+01 SP= 0.89E+01 SK= 0.85E-01
 bond charge predicted
 prediction of wavefunctions
       N       E                     dE             d eps       ncg     rms          rms(c)
DAV:   1    -0.101457553211E+03   -0.17798E-01   -0.48011E-03   168   0.249E-01    0.143E-02
RMM:   2    -0.101457703980E+03   -0.15077E-03   -0.16361E-03   120   0.117E-01    0.853E-03
RMM:   3    -0.101457721349E+03   -0.17369E-04   -0.19720E-04    81   0.418E-02
   1968 T=   540. E= -.88855453E+02 F= -.10145772E+03 E0= -.10146340E+03  EK= 0.36977E+01 SP= 0.88E+01 SK= 0.10E+00
 bond charge predicted
 prediction of wavefunctions
       N       E                     dE             d eps       ncg     rms          rms(c)
DAV:   1    -0.101495126343E+03   -0.37422E-01   -0.41837E-03   156   0.225E-01    0.103E-02
RMM:   2    -0.101495196762E+03   -0.70420E-04   -0.76876E-04   120   0.819E-02
   1969 T=   565. E= -.88855574E+02 F= -.10149520E+03 E0= -.10150084E+03  EK= 0.38708E+01 SP= 0.87E+01 SK= 0.11E+00
 bond charge predicted
 prediction of wavefunctions
       N       E                     dE             d eps       ncg     rms          rms(c)
DAV:   1    -0.101545204377E+03   -0.50078E-01   -0.47562E-03   168   0.262E-01    0.135E-02
RMM:   2    -0.101545375661E+03   -0.17128E-03   -0.18271E-03   120   0.124E-01    0.836E-03
RMM:   3    -0.101545395004E+03   -0.19343E-04   -0.20867E-04    81   0.436E-02
   1970 T=   594. E= -.88855724E+02 F= -.10154540E+03 E0= -.10155106E+03  EK= 0.40689E+01 SP= 0.85E+01 SK= 0.12E+00
 bond charge predicted
 prediction of wavefunctions
       N       E                     dE             d eps       ncg     rms          rms(c)
DAV:   1    -0.101600937928E+03   -0.55562E-01   -0.40702E-03   156   0.236E-01    0.101E-02
RMM:   2    -0.101601017285E+03   -0.79358E-04   -0.85408E-04   120   0.861E-02
   1971 T=   625. E= -.88855996E+02 F= -.10160102E+03 E0= -.10160675E+03  EK= 0.42808E+01 SP= 0.83E+01 SK= 0.12E+00
 bond charge predicted
 prediction of wavefunctions
       N       E                     dE             d eps       ncg     rms          rms(c)
DAV:   1    -0.101654210533E+03   -0.53273E-01   -0.49857E-03   168   0.276E-01    0.147E-02
RMM:   2    -0.101654406738E+03   -0.19621E-03   -0.20972E-03   120   0.130E-01    0.906E-03
RMM:   3    -0.101654427870E+03   -0.21132E-04   -0.22653E-04    85   0.448E-02
   1972 T=   656. E= -.88856279E+02 F= -.10165443E+03 E0= -.10166028E+03  EK= 0.44938E+01 SP= 0.82E+01 SK= 0.10E+00
 bond charge predicted
 prediction of wavefunctions
       N       E                     dE             d eps       ncg     rms          rms(c)
DAV:   1    -0.101699052839E+03   -0.44646E-01   -0.43228E-03   132   0.245E-01    0.105E-02
RMM:   2    -0.101699138191E+03   -0.85352E-04   -0.92407E-04   120   0.904E-02
   1973 T=   685. E= -.88856563E+02 F= -.10169914E+03 E0= -.10170514E+03  EK= 0.46948E+01 SP= 0.81E+01 SK= 0.88E-01
 bond charge predicted
 prediction of wavefunctions
       N       E                     dE             d eps       ncg     rms          rms(c)
DAV:   1    -0.101729420670E+03   -0.30368E-01   -0.56017E-03   180   0.289E-01    0.151E-02
RMM:   2    -0.101729635534E+03   -0.21486E-03   -0.22923E-03   120   0.138E-01    0.877E-03
RMM:   3    -0.101729659787E+03   -0.24253E-04   -0.25004E-04    81   0.473E-02
   1974 T=   711. E= -.88856968E+02 F= -.10172966E+03 E0= -.10173582E+03  EK= 0.48710E+01 SP= 0.79E+01 SK= 0.67E-01
 bond charge predicted
 prediction of wavefunctions
       N       E                     dE             d eps       ncg     rms          rms(c)
DAV:   1    -0.101741845313E+03   -0.12210E-01   -0.52227E-03   132   0.253E-01    0.107E-02
RMM:   2    -0.101741941523E+03   -0.96210E-04   -0.10386E-03   120   0.964E-02    0.749E-03
RMM:   3    -0.101741956383E+03   -0.14860E-04   -0.18743E-04    92   0.409E-02
   1975 T=   731. E= -.88857344E+02 F= -.10174196E+03 E0= -.10174825E+03  EK= 0.50110E+01 SP= 0.78E+01 SK= 0.45E-01
 bond charge predicted
 prediction of wavefunctions
       N       E                     dE             d eps       ncg     rms          rms(c)
DAV:   1    -0.101733936596E+03    0.80049E-02   -0.62006E-03   204   0.260E-01    0.902E-03
RMM:   2    -0.101734048826E+03   -0.11223E-03   -0.11603E-03   120   0.103E-01    0.568E-03
RMM:   3    -0.101734064644E+03   -0.15818E-04   -0.16190E-04    66   0.387E-02
   1976 T=   745. E= -.88857460E+02 F= -.10173406E+03 E0= -.10174045E+03  EK= 0.51064E+01 SP= 0.77E+01 SK= 0.25E-01
 bond charge predicted
 prediction of wavefunctions
       N       E                     dE             d eps       ncg     rms          rms(c)
DAV:   1    -0.101705736241E+03    0.28313E-01   -0.68252E-03   192   0.258E-01    0.814E-03
RMM:   2    -0.101705852982E+03   -0.11674E-03   -0.11950E-03   120   0.106E-01    0.551E-03
RMM:   3    -0.101705864571E+03   -0.11589E-04   -0.11743E-04    68   0.325E-02
   1977 T=   752. E= -.88857086E+02 F= -.10170586E+03 E0= -.10171228E+03  EK= 0.51524E+01 SP= 0.77E+01 SK= 0.10E-01
 bond charge predicted
 prediction of wavefunctions
       N       E                     dE             d eps       ncg     rms          rms(c)
DAV:   1    -0.101660366168E+03    0.45487E-01   -0.75753E-03   132   0.255E-01    0.712E-03
RMM:   2    -0.101660476325E+03   -0.11016E-03   -0.11136E-03   120   0.103E-01    0.491E-03
RMM:   3    -0.101660490508E+03   -0.14183E-04   -0.13832E-04    73   0.357E-02
   1978 T=   752. E= -.88856579E+02 F= -.10166049E+03 E0= -.10166687E+03  EK= 0.51490E+01 SP= 0.77E+01 SK= 0.20E-02
 bond charge predicted
 prediction of wavefunctions
       N       E                     dE             d eps       ncg     rms          rms(c)
DAV:   1    -0.101602103308E+03    0.58373E-01   -0.82727E-03   180   0.253E-01    0.721E-03
RMM:   2    -0.101602213465E+03   -0.11016E-03   -0.11116E-03   120   0.104E-01    0.530E-03
RMM:   3    -0.101602227680E+03   -0.14215E-04   -0.14131E-04    70   0.363E-02
   1979 T=   744. E= -.88855894E+02 F= -.10160223E+03 E0= -.10160854E+03  EK= 0.51004E+01 SP= 0.76E+01 SK= 0.15E-03
 bond charge predicted
 prediction of wavefunctions
       N       E                     dE             d eps       ncg     rms          rms(c)
DAV:   1    -0.101536644922E+03    0.65569E-01   -0.85483E-03   144   0.251E-01    0.705E-03
RMM:   2    -0.101536758522E+03   -0.11360E-03   -0.11418E-03   120   0.105E-01    0.528E-03
RMM:   3    -0.101536771120E+03   -0.12599E-04   -0.12320E-04    74   0.339E-02
   1980 T=   732. E= -.88854907E+02 F= -.10153677E+03 E0= -.10154296E+03  EK= 0.50143E+01 SP= 0.77E+01 SK= 0.43E-02
 bond charge predicted
 prediction of wavefunctions
       N       E                     dE             d eps       ncg     rms          rms(c)
DAV:   1    -0.101471299402E+03    0.65459E-01   -0.84580E-03   192   0.247E-01    0.666E-03
RMM:   2    -0.101471409578E+03   -0.11018E-03   -0.11089E-03   120   0.103E-01    0.516E-03
RMM:   3    -0.101471422034E+03   -0.12456E-04   -0.12286E-04    69   0.335E-02
   1981 T=   715. E= -.88854002E+02 F= -.10147142E+03 E0= -.10147745E+03  EK= 0.49014E+01 SP= 0.77E+01 SK= 0.13E-01
 bond charge predicted
 prediction of wavefunctions
       N       E                     dE             d eps       ncg     rms          rms(c)
DAV:   1    -0.101412736785E+03    0.58673E-01   -0.79737E-03   156   0.244E-01    0.639E-03
RMM:   2    -0.101412849028E+03   -0.11224E-03   -0.11302E-03   120   0.104E-01    0.508E-03
RMM:   3    -0.101412862231E+03   -0.13203E-04   -0.12980E-04    70   0.342E-02
   1982 T=   697. E= -.88853037E+02 F= -.10141286E+03 E0= -.10141868E+03  EK= 0.47733E+01 SP= 0.78E+01 SK= 0.23E-01
 bond charge predicted
 prediction of wavefunctions
       N       E                     dE             d eps       ncg     rms          rms(c)
DAV:   1    -0.101367415891E+03    0.45433E-01   -0.74577E-03   180   0.241E-01    0.656E-03
RMM:   2    -0.101367521364E+03   -0.10547E-03   -0.10619E-03   120   0.103E-01    0.512E-03
RMM:   3    -0.101367534833E+03   -0.13469E-04   -0.13332E-04    64   0.351E-02
   1983 T=   677. E= -.88852310E+02 F= -.10136753E+03 E0= -.10137313E+03  EK= 0.46409E+01 SP= 0.78E+01 SK= 0.35E-01
 bond charge predicted
 prediction of wavefunctions
       N       E                     dE             d eps       ncg     rms          rms(c)
DAV:   1    -0.101339925631E+03    0.27596E-01   -0.68836E-03   156   0.238E-01    0.569E-03
RMM:   2    -0.101340038602E+03   -0.11297E-03   -0.11328E-03   120   0.101E-01    0.443E-03
RMM:   3    -0.101340052367E+03   -0.13765E-04   -0.13369E-04    72   0.335E-02
   1984 T=   659. E= -.88851536E+02 F= -.10134005E+03 E0= -.10134546E+03  EK= 0.45141E+01 SP= 0.79E+01 SK= 0.45E-01
 bond charge predicted
 prediction of wavefunctions
       N       E                     dE             d eps       ncg     rms          rms(c)
DAV:   1    -0.101333654082E+03    0.63845E-02   -0.69231E-03   180   0.234E-01    0.655E-03
RMM:   2    -0.101333769793E+03   -0.11571E-03   -0.11608E-03   120   0.990E-02    0.511E-03
RMM:   3    -0.101333784930E+03   -0.15137E-04   -0.14488E-04    71   0.348E-02
   1985 T=   642. E= -.88851151E+02 F= -.10133378E+03 E0= -.10133904E+03  EK= 0.43995E+01 SP= 0.80E+01 SK= 0.54E-01
 bond charge predicted
 prediction of wavefunctions
       N       E                     dE             d eps       ncg     rms          rms(c)
DAV:   1    -0.101349203792E+03   -0.15434E-01   -0.68729E-03   192   0.234E-01    0.538E-03
RMM:   2    -0.101349323193E+03   -0.11940E-03   -0.11942E-03   120   0.102E-01    0.453E-03
RMM:   3    -0.101349337721E+03   -0.14528E-04   -0.13128E-04    77   0.344E-02
   1986 T=   628. E= -.88850861E+02 F= -.10134934E+03 E0= -.10135451E+03  EK= 0.43015E+01 SP= 0.81E+01 SK= 0.60E-01
 bond charge predicted
 prediction of wavefunctions
       N       E                     dE             d eps       ncg     rms          rms(c)
DAV:   1    -0.101386211141E+03   -0.36888E-01   -0.68348E-03   216   0.231E-01    0.647E-03
RMM:   2    -0.101386324114E+03   -0.11297E-03   -0.11376E-03   120   0.951E-02    0.522E-03
RMM:   3    -0.101386338124E+03   -0.14010E-04   -0.13598E-04    72   0.338E-02
   1987 T=   616. E= -.88850860E+02 F= -.10138634E+03 E0= -.10139146E+03  EK= 0.42218E+01 SP= 0.82E+01 SK= 0.64E-01
 bond charge predicted
 prediction of wavefunctions
       N       E                     dE             d eps       ncg     rms          rms(c)
DAV:   1    -0.101442133870E+03   -0.55810E-01   -0.69547E-03   180   0.228E-01    0.546E-03
RMM:   2    -0.101442242514E+03   -0.10864E-03   -0.10874E-03   120   0.960E-02    0.434E-03
RMM:   3    -0.101442258214E+03   -0.15699E-04   -0.14634E-04    72   0.356E-02
   1988 T=   607. E= -.88850649E+02 F= -.10144226E+03 E0= -.10144737E+03  EK= 0.41601E+01 SP= 0.84E+01 SK= 0.67E-01
 bond charge predicted
 prediction of wavefunctions
       N       E                     dE             d eps       ncg     rms          rms(c)
DAV:   1    -0.101514226201E+03   -0.71984E-01   -0.63813E-03   180   0.226E-01    0.567E-03
RMM:   2    -0.101514321775E+03   -0.95575E-04   -0.95840E-04   120   0.916E-02
   1989 T=   601. E= -.88850511E+02 F= -.10151432E+03 E0= -.10151941E+03  EK= 0.41145E+01 SP= 0.85E+01 SK= 0.68E-01
 bond charge predicted
 prediction of wavefunctions
       N       E                     dE             d eps       ncg     rms          rms(c)
DAV:   1    -0.101598330156E+03   -0.84104E-01   -0.72066E-03   204   0.254E-01    0.830E-03
RMM:   2    -0.101598511178E+03   -0.18102E-03   -0.18220E-03   120   0.124E-01    0.643E-03
RMM:   3    -0.101598531660E+03   -0.20482E-04   -0.18904E-04    82   0.406E-02
   1990 T=   596. E= -.88850178E+02 F= -.10159853E+03 E0= -.10160360E+03  EK= 0.40819E+01 SP= 0.86E+01 SK= 0.68E-01
 bond charge predicted
 prediction of wavefunctions
       N       E                     dE             d eps       ncg     rms          rms(c)
DAV:   1    -0.101691736126E+03   -0.93225E-01   -0.77749E-03   180   0.223E-01    0.558E-03
RMM:   2    -0.101691833663E+03   -0.97538E-04   -0.98455E-04   120   0.836E-02
   1991 T=   593. E= -.88849823E+02 F= -.10169183E+03 E0= -.10169687E+03  EK= 0.40598E+01 SP= 0.87E+01 SK= 0.67E-01
 bond charge predicted
 prediction of wavefunctions
       N       E                     dE             d eps       ncg     rms          rms(c)
DAV:   1    -0.101791422220E+03   -0.99686E-01   -0.83382E-03   204   0.269E-01    0.818E-03
RMM:   2    -0.101791645025E+03   -0.22280E-03   -0.22441E-03   120   0.134E-01    0.614E-03
RMM:   3    -0.101791666098E+03   -0.21073E-04   -0.17829E-04    80   0.405E-02
   1992 T=   591. E= -.88849647E+02 F= -.10179167E+03 E0= -.10179670E+03  EK= 0.40455E+01 SP= 0.88E+01 SK= 0.65E-01
 bond charge predicted
 prediction of wavefunctions
       N       E                     dE             d eps       ncg     rms          rms(c)
DAV:   1    -0.101894562067E+03   -0.10292E+00   -0.71922E-03   192   0.227E-01    0.617E-03
RMM:   2    -0.101894653756E+03   -0.91690E-04   -0.92947E-04   119   0.714E-02
   1993 T=   589. E= -.88849340E+02 F= -.10189465E+03 E0= -.10189971E+03  EK= 0.40361E+01 SP= 0.89E+01 SK= 0.64E-01
 bond charge predicted
 prediction of wavefunctions
       N       E                     dE             d eps       ncg     rms          rms(c)
DAV:   1    -0.101998083772E+03   -0.10352E+00   -0.87312E-03   216   0.264E-01    0.932E-03
RMM:   2    -0.101998280430E+03   -0.19666E-03   -0.19952E-03   120   0.127E-01    0.604E-03
RMM:   3    -0.101998301432E+03   -0.21001E-04   -0.18808E-04    76   0.412E-02
   1994 T=   588. E= -.88849012E+02 F= -.10199830E+03 E0= -.10200342E+03  EK= 0.40293E+01 SP= 0.91E+01 SK= 0.62E-01
 bond charge predicted
 prediction of wavefunctions
       N       E                     dE             d eps       ncg     rms          rms(c)
DAV:   1    -0.102100145401E+03   -0.10186E+00   -0.63577E-03   216   0.236E-01    0.624E-03
RMM:   2    -0.102100276825E+03   -0.13142E-03   -0.13372E-03   120   0.851E-02    0.342E-03
RMM:   3    -0.102100305058E+03   -0.28234E-04   -0.27113E-04    85   0.404E-02
   1995 T=   587. E= -.88848782E+02 F= -.10210031E+03 E0= -.10210550E+03  EK= 0.40227E+01 SP= 0.92E+01 SK= 0.60E-01
Information: wavefunction orthogonal band   60  0.7134
 bond charge predicted
 prediction of wavefunctions
       N       E                     dE             d eps       ncg     rms          rms(c)
DAV:   1    -0.102197895996E+03   -0.97619E-01   -0.61993E-03   168   0.240E-01    0.754E-03
RMM:   2    -0.102197988468E+03   -0.92472E-04   -0.94579E-04   120   0.900E-02
   1996 T=   586. E= -.88848395E+02 F= -.10219799E+03 E0= -.10220327E+03  EK= 0.40140E+01 SP= 0.93E+01 SK= 0.57E-01
 bond charge predicted
 prediction of wavefunctions
       N       E                     dE             d eps       ncg     rms          rms(c)
DAV:   1    -0.102288426561E+03   -0.90531E-01   -0.67743E-03   192   0.269E-01    0.757E-03
RMM:   2    -0.102288631772E+03   -0.20521E-03   -0.20686E-03   120   0.132E-01    0.602E-03
RMM:   3    -0.102288658318E+03   -0.26546E-04   -0.24887E-04    91   0.458E-02
   1997 T=   584. E= -.88848094E+02 F= -.10228866E+03 E0= -.10229400E+03  EK= 0.40007E+01 SP= 0.94E+01 SK= 0.55E-01
 bond charge predicted
 prediction of wavefunctions
       N       E                     dE             d eps       ncg     rms          rms(c)
DAV:   1    -0.102369181842E+03   -0.80550E-01   -0.52649E-03   180   0.232E-01    0.714E-03
RMM:   2    -0.102369259882E+03   -0.78040E-04   -0.79998E-04   120   0.773E-02
   1998 T=   581. E= -.88847750E+02 F= -.10236926E+03 E0= -.10237462E+03  EK= 0.39803E+01 SP= 0.95E+01 SK= 0.52E-01
Information: wavefunction orthogonal band   60  0.8624
 bond charge predicted
 prediction of wavefunctions
       N       E                     dE             d eps       ncg     rms          rms(c)
DAV:   1    -0.102437065151E+03   -0.67883E-01   -0.51166E-03   216   0.267E-01    0.752E-03
RMM:   2    -0.102437249377E+03   -0.18423E-03   -0.18568E-03   120   0.124E-01    0.553E-03
RMM:   3    -0.102437266151E+03   -0.16774E-04   -0.14974E-04    73   0.370E-02
   1999 T=   577. E= -.88847465E+02 F= -.10243727E+03 E0= -.10244261E+03  EK= 0.39507E+01 SP= 0.96E+01 SK= 0.49E-01
 bond charge predicted
 prediction of wavefunctions
       N       E                     dE             d eps       ncg     rms          rms(c)
DAV:   1    -0.102490584601E+03   -0.53335E-01   -0.47027E-03   204   0.232E-01    0.663E-03
RMM:   2    -0.102490647138E+03   -0.62537E-04   -0.64383E-04   120   0.679E-02
   2000 T=   571. E= -.88846977E+02 F= -.10249065E+03 E0= -.10249595E+03  EK= 0.39112E+01 SP= 0.97E+01 SK= 0.45E-01
 bond charge predicted
 prediction of wavefunctions
 wavefunctions rotated
