Li                                      
   1.00000000000000     
    10.4543493956986637   -0.0251203698953278   -0.0756915214567958
    -0.0000000000004960   10.6599472893340437   -0.2687516810303857
    -0.0000000000018654    0.0000000000006562   10.3745434072765885
   Li
    54
Direct
    -0.1226425944353308    0.0212897243727707    0.0021234901271982
     0.0888043939058561    0.1391417419422825    0.1088552322110362
    -0.1670550029540414   -0.0402791330407488    0.3237207412777964
     0.0241638784413539    0.1409945814275877    0.4125048413010479
    -0.0856467527308981   -0.0040532064909163    0.5915568648747294
     0.0125167060077441    0.1320135946714084    0.7988991309386656
    -0.0837525042533314    0.3097722017492667   -0.0161081830381583
     0.1023893241253721    0.5182875634891665    0.1335053760013650
    -0.0505655871789228    0.3454934762097895    0.2536384696345221
     0.0769085831574532    0.4775513647645368    0.4631558322403161
    -0.1012469126387986    0.3392727109409274    0.6527880624544892
     0.0490575182586859    0.5172726496491679    0.8356853778024160
    -0.0815847044622381    0.6980324277073205   -0.0715970330205632
     0.0711144187022605    0.8961959724375251    0.1563358596514258
    -0.0604615314080116    0.6881359754247321    0.2780658823210874
     0.0489755360037335    0.8426012726750333    0.4364451853151644
    -0.0931199941309934    0.6872344785179276    0.6094112512105577
     0.0352993104053097    0.8789005924056491    0.7808982912422096
     0.2344413937816477   -0.0209195254839490   -0.0136444253419901
     0.3994060851472457    0.1773378957796164    0.1300901569483698
     0.2692549242009467   -0.0012233478028036    0.3450492810310882
     0.4161225154544834    0.1905192760534641    0.5248659953300036
     0.2585275660481834   -0.0368263464977842    0.6324468872291782
     0.3957494967319107    0.1890320511021144    0.8050799761791021
     0.2271547657656150    0.3313471891503708   -0.0087417177767993
     0.3932523946968869    0.5116237106683333    0.1072501805338808
     0.2365216728929533    0.2975337384669270    0.3275993350322822
     0.3969139586816229    0.4965617387949436    0.4929539590559180
     0.1928589873728537    0.3297075399734153    0.6408419860973718
     0.4018052244416637    0.5639710370181261    0.8437349733620588
     0.2397880061431242    0.7125251428019023   -0.0335332287503529
     0.4186722037414167    0.8619961839512766    0.1439749954317546
     0.2194988884095375    0.6658613411355681    0.3043523596151598
     0.4003375338689503    0.8213881373227003    0.4644702601837162
     0.1784262368038510    0.6705314083227026    0.6365249570287210
     0.4143664408397985    0.8359207575642836    0.8037039322816986
     0.5839339568101559    0.0436198224891572   -0.0394660601747153
     0.7117546436877603    0.2064037302424510    0.1922892281881358
     0.5531322875684007    0.0586407986082299    0.3296988867471258
     0.7526179488636784    0.1683057027777823    0.5204342128313990
     0.5237413236524207    0.0155252286858328    0.6160140523390267
     0.7137917286859455    0.2077456767037204    0.7973392746168326
     0.5693245855784870    0.3865954067676850   -0.0184887179756594
     0.7454655642454825    0.4982369013595739    0.1257994544241064
     0.5371553443631779    0.3951494304560157    0.3149470489868019
     0.7992417451269175    0.4580585131849119    0.4205294359065817
     0.5752005049239788    0.3650224241771521    0.6621649763448019
     0.7434976065515503    0.4743110993601737    0.8190206308172333
     0.6180377050083612    0.6669963146869211   -0.0553232487922579
     0.6969886825226029    0.8701132245801773    0.1212605047168024
     0.6014846712693774    0.6772988358268847    0.2699478625413064
     0.7056994842056602    0.8347149153291143    0.4865688583593560
     0.5834394203996562    0.6309917115432389    0.5684561982261757
     0.7328199040207992    0.8535064924581068    0.7860177200612999
Lattice velocities and vectors
           1
  0.27840705E-03 -0.41555124E-03  0.13029492E-02
 -0.17869524E-02 -0.18841274E-02  0.24802133E-02
  0.29297401E-03 -0.23589428E-02  0.14270353E-02
  0.10454901E+02 -0.29475709E-01 -0.72482150E-01
 -0.49529280E-12  0.10656055E+02 -0.26863870E+00
 -0.18651121E-11  0.65671712E-12  0.10377396E+02
 
 -0.65667851E-02  0.36338598E-02  0.87619356E-02
  0.34961288E-03 -0.11669825E-02 -0.67240415E-02
  0.15151427E-01  0.12847929E-01 -0.25954093E-02
 -0.75545057E-02 -0.86757680E-02  0.33602786E-02
 -0.28244318E-02 -0.46275725E-02  0.14203187E-01
 -0.86454944E-02 -0.23372764E-01  0.20930930E-02
  0.96863096E-02  0.24085545E-02 -0.12984368E-01
 -0.11301263E-01 -0.49946597E-02  0.78315859E-02
 -0.66028009E-02 -0.46965407E-02  0.13404065E-03
  0.20668845E-01  0.67794612E-02 -0.10276038E-01
  0.35656363E-02 -0.11326340E-01  0.17017248E-02
 -0.12089159E-01 -0.30442660E-02  0.10924632E-02
  0.21256763E-02 -0.66273675E-02  0.68125463E-02
 -0.14699075E-01 -0.59836162E-02  0.61639858E-02
 -0.88172749E-02 -0.15172140E-01 -0.12862981E-01
  0.52508120E-02 -0.26780729E-02 -0.10302922E-01
 -0.14176429E-02  0.88833981E-02  0.45124137E-02
 -0.65201474E-02 -0.22436863E-02 -0.41972894E-02
  0.67619199E-02 -0.20951605E-02 -0.10072273E-01
 -0.82352370E-03  0.17902662E-02  0.56611833E-02
  0.36333324E-02  0.12033784E-02  0.78469690E-03
  0.13253888E-02 -0.13136642E-02  0.77873081E-03
 -0.12040460E-01 -0.19394042E-02 -0.37603765E-02
 -0.63178493E-02 -0.59948110E-02 -0.12800539E-01
  0.14825438E-01  0.10309459E-01 -0.68076906E-02
  0.23157696E-03  0.10987398E-01 -0.44749228E-02
  0.12991424E-01 -0.20235900E-01  0.96800982E-03
  0.85137325E-02 -0.49522949E-02  0.33291228E-02
  0.14479368E-01 -0.32949515E-02  0.15068479E-01
  0.87641486E-02 -0.43230965E-02  0.77785237E-02
  0.99670598E-02  0.27514098E-02  0.65901108E-02
 -0.67196058E-02  0.34988043E-02 -0.13390570E-01
 -0.15010575E-02  0.24942248E-01  0.18080539E-03
  0.15054379E-01 -0.26173001E-02  0.82064156E-03
 -0.28829629E-02 -0.74315783E-02 -0.95766265E-02
 -0.41470729E-02 -0.80854654E-02 -0.34941916E-02
  0.88191102E-03  0.55342660E-02 -0.31664761E-03
 -0.62528654E-03 -0.14869378E-02  0.12795597E-01
 -0.71670767E-02 -0.44844689E-02 -0.28007336E-02
 -0.82746115E-02 -0.10770320E-01  0.78756718E-02
  0.61229221E-02 -0.11851986E-02  0.17636088E-02
 -0.17274098E-01  0.47146717E-02  0.19275637E-01
  0.16129035E-01 -0.11353181E-01 -0.69816976E-02
 -0.10802525E-01  0.11116791E-01  0.15171316E-01
  0.30397409E-02  0.69873720E-02  0.16923219E-01
  0.69673011E-03 -0.14002231E-01  0.13189087E-02
 -0.62313181E-02 -0.89048993E-02  0.86407375E-02
  0.18413632E-02  0.67976533E-02 -0.15849454E-01
  0.47509714E-03  0.51984142E-02 -0.38052066E-03
  0.30502557E-02 -0.38244768E-02 -0.91796814E-02
  0.54213724E-02  0.19474741E-02  0.71451174E-02
 -0.64823733E-02  0.28604978E-02  0.35034766E-02
  0.42071267E-03  0.66251166E-02  0.10315779E-01
 -0.40787065E-02  0.91295570E-02  0.38081101E-02
 
           1
   2.00000000000000     
  0.10000000E+01  0.00000000E+00  0.00000000E+00  0.00000000E+00
  0.87610119E+00  0.21968277E-01  0.38209394E-02
  0.88871274E-01  0.13892290E+00  0.10755413E+00
  0.83584343E+00  0.96214027E+00  0.32330341E+00
  0.22718718E-01  0.13936226E+00  0.41310011E+00
  0.91381294E+00  0.99507677E+00  0.59426790E+00
  0.10862842E-01  0.12762226E+00  0.79917730E+00
  0.91810047E+00  0.31022938E+00  0.98141416E+00
  0.10022742E+00  0.51734415E+00  0.13497521E+00
  0.94817131E+00  0.34460850E+00  0.25363257E+00
  0.80862488E-01  0.47883472E+00  0.46123621E+00
  0.89943519E+00  0.33714879E+00  0.65306581E+00
  0.46744888E-01  0.51669488E+00  0.83586482E+00
  0.91882193E+00  0.69678968E+00  0.92968660E+00
  0.68302518E-01  0.89506515E+00  0.15747491E+00
  0.93785174E+00  0.68528370E+00  0.27550123E+00
  0.49980005E-01  0.84210141E+00  0.43445361E+00
  0.90660881E+00  0.68890102E+00  0.61032216E+00
  0.34052020E-01  0.87847603E+00  0.78006966E+00
  0.23573493E+00  0.97869082E+00  0.98441333E+00
  0.39924855E+00  0.17767347E+00  0.13118880E+00
  0.26994997E+00  0.99900443E+00  0.34521126E+00
  0.41637606E+00  0.19027342E+00  0.52501148E+00
  0.25622425E+00  0.96280328E+00  0.63169649E+00
  0.39454091E+00  0.18790356E+00  0.80257532E+00
  0.22999084E+00  0.33328998E+00  0.99001636E+00
  0.39329669E+00  0.51368602E+00  0.10644144E+00
  0.23900690E+00  0.29374260E+00  0.32770511E+00
  0.39854262E+00  0.49563676E+00  0.49358300E+00
  0.19562886E+00  0.32909678E+00  0.64374962E+00
  0.40348179E+00  0.56316429E+00  0.84522493E+00
  0.24169468E+00  0.71304682E+00  0.96776368E+00
  0.41738676E+00  0.86264931E+00  0.14140221E+00
  0.21921174E+00  0.67054188E+00  0.30450636E+00
  0.40321740E+00  0.82090487E+00  0.46463602E+00
  0.17787473E+00  0.66913507E+00  0.63463929E+00
  0.41357311E+00  0.83440103E+00  0.80298563E+00
  0.58410266E+00  0.44658997E-01  0.96050099E+00
  0.71163503E+00  0.20612432E+00  0.19474721E+00
  0.55176124E+00  0.57795331E-01  0.32912765E+00
  0.75103503E+00  0.16627988E+00  0.52188857E+00
  0.52491263E+00  0.15306023E-01  0.61635645E+00
  0.71048723E+00  0.20862142E+00  0.80105379E+00
  0.57241004E+00  0.38447310E+00  0.98013233E+00
  0.74339906E+00  0.50031766E+00  0.12876280E+00
  0.53773684E+00  0.39646248E+00  0.31824666E+00
  0.79937503E+00  0.45543085E+00  0.42071653E+00
  0.57400847E+00  0.36334780E+00  0.66377860E+00
  0.74384986E+00  0.47558790E+00  0.81600153E+00
  0.61812859E+00  0.66797224E+00  0.94462931E+00
  0.69757219E+00  0.86939704E+00  0.11947687E+00
  0.60252177E+00  0.67766722E+00  0.27134170E+00
  0.70445942E+00  0.83524836E+00  0.48724922E+00
  0.58351990E+00  0.63223538E+00  0.57047708E+00
  0.73203966E+00  0.85521783E+00  0.78679050E+00
  0.00000000E+00  0.00000000E+00  0.00000000E+00
  0.00000000E+00  0.00000000E+00  0.00000000E+00
  0.00000000E+00  0.00000000E+00  0.00000000E+00
  0.00000000E+00  0.00000000E+00  0.00000000E+00
  0.00000000E+00  0.00000000E+00  0.00000000E+00
  0.00000000E+00  0.00000000E+00  0.00000000E+00
  0.00000000E+00  0.00000000E+00  0.00000000E+00
  0.00000000E+00  0.00000000E+00  0.00000000E+00
  0.00000000E+00  0.00000000E+00  0.00000000E+00
  0.00000000E+00  0.00000000E+00  0.00000000E+00
  0.00000000E+00  0.00000000E+00  0.00000000E+00
  0.00000000E+00  0.00000000E+00  0.00000000E+00
  0.00000000E+00  0.00000000E+00  0.00000000E+00
  0.00000000E+00  0.00000000E+00  0.00000000E+00
  0.00000000E+00  0.00000000E+00  0.00000000E+00
  0.00000000E+00  0.00000000E+00  0.00000000E+00
  0.00000000E+00  0.00000000E+00  0.00000000E+00
  0.00000000E+00  0.00000000E+00  0.00000000E+00
  0.00000000E+00  0.00000000E+00  0.00000000E+00
  0.00000000E+00  0.00000000E+00  0.00000000E+00
  0.00000000E+00  0.00000000E+00  0.00000000E+00
  0.00000000E+00  0.00000000E+00  0.00000000E+00
  0.00000000E+00  0.00000000E+00  0.00000000E+00
  0.00000000E+00  0.00000000E+00  0.00000000E+00
  0.00000000E+00  0.00000000E+00  0.00000000E+00
  0.00000000E+00  0.00000000E+00  0.00000000E+00
  0.00000000E+00  0.00000000E+00  0.00000000E+00
  0.00000000E+00  0.00000000E+00  0.00000000E+00
  0.00000000E+00  0.00000000E+00  0.00000000E+00
  0.00000000E+00  0.00000000E+00  0.00000000E+00
  0.00000000E+00  0.00000000E+00  0.00000000E+00
  0.00000000E+00  0.00000000E+00  0.00000000E+00
  0.00000000E+00  0.00000000E+00  0.00000000E+00
  0.00000000E+00  0.00000000E+00  0.00000000E+00
  0.00000000E+00  0.00000000E+00  0.00000000E+00
  0.00000000E+00  0.00000000E+00  0.00000000E+00
  0.00000000E+00  0.00000000E+00  0.00000000E+00
  0.00000000E+00  0.00000000E+00  0.00000000E+00
  0.00000000E+00  0.00000000E+00  0.00000000E+00
  0.00000000E+00  0.00000000E+00  0.00000000E+00
  0.00000000E+00  0.00000000E+00  0.00000000E+00
  0.00000000E+00  0.00000000E+00  0.00000000E+00
  0.00000000E+00  0.00000000E+00  0.00000000E+00
  0.00000000E+00  0.00000000E+00  0.00000000E+00
  0.00000000E+00  0.00000000E+00  0.00000000E+00
  0.00000000E+00  0.00000000E+00  0.00000000E+00
  0.00000000E+00  0.00000000E+00  0.00000000E+00
  0.00000000E+00  0.00000000E+00  0.00000000E+00
  0.00000000E+00  0.00000000E+00  0.00000000E+00
  0.00000000E+00  0.00000000E+00  0.00000000E+00
  0.00000000E+00  0.00000000E+00  0.00000000E+00
  0.00000000E+00  0.00000000E+00  0.00000000E+00
  0.00000000E+00  0.00000000E+00  0.00000000E+00
  0.00000000E+00  0.00000000E+00  0.00000000E+00
  0.00000000E+00  0.00000000E+00  0.00000000E+00
  0.00000000E+00  0.00000000E+00  0.00000000E+00
  0.00000000E+00  0.00000000E+00  0.00000000E+00
  0.00000000E+00  0.00000000E+00  0.00000000E+00
  0.00000000E+00  0.00000000E+00  0.00000000E+00
  0.00000000E+00  0.00000000E+00  0.00000000E+00
  0.00000000E+00  0.00000000E+00  0.00000000E+00
  0.00000000E+00  0.00000000E+00  0.00000000E+00
  0.00000000E+00  0.00000000E+00  0.00000000E+00
  0.00000000E+00  0.00000000E+00  0.00000000E+00
  0.00000000E+00  0.00000000E+00  0.00000000E+00
  0.00000000E+00  0.00000000E+00  0.00000000E+00
  0.00000000E+00  0.00000000E+00  0.00000000E+00
  0.00000000E+00  0.00000000E+00  0.00000000E+00
  0.00000000E+00  0.00000000E+00  0.00000000E+00
  0.00000000E+00  0.00000000E+00  0.00000000E+00
  0.00000000E+00  0.00000000E+00  0.00000000E+00
  0.00000000E+00  0.00000000E+00  0.00000000E+00
  0.00000000E+00  0.00000000E+00  0.00000000E+00
  0.00000000E+00  0.00000000E+00  0.00000000E+00
  0.00000000E+00  0.00000000E+00  0.00000000E+00
  0.00000000E+00  0.00000000E+00  0.00000000E+00
  0.00000000E+00  0.00000000E+00  0.00000000E+00
  0.00000000E+00  0.00000000E+00  0.00000000E+00
  0.00000000E+00  0.00000000E+00  0.00000000E+00
  0.00000000E+00  0.00000000E+00  0.00000000E+00
  0.00000000E+00  0.00000000E+00  0.00000000E+00
  0.00000000E+00  0.00000000E+00  0.00000000E+00
  0.00000000E+00  0.00000000E+00  0.00000000E+00
  0.00000000E+00  0.00000000E+00  0.00000000E+00
  0.00000000E+00  0.00000000E+00  0.00000000E+00
  0.00000000E+00  0.00000000E+00  0.00000000E+00
  0.00000000E+00  0.00000000E+00  0.00000000E+00
  0.00000000E+00  0.00000000E+00  0.00000000E+00
  0.00000000E+00  0.00000000E+00  0.00000000E+00
  0.00000000E+00  0.00000000E+00  0.00000000E+00
  0.00000000E+00  0.00000000E+00  0.00000000E+00
  0.00000000E+00  0.00000000E+00  0.00000000E+00
  0.00000000E+00  0.00000000E+00  0.00000000E+00
  0.00000000E+00  0.00000000E+00  0.00000000E+00
  0.00000000E+00  0.00000000E+00  0.00000000E+00
  0.00000000E+00  0.00000000E+00  0.00000000E+00
  0.00000000E+00  0.00000000E+00  0.00000000E+00
  0.00000000E+00  0.00000000E+00  0.00000000E+00
  0.00000000E+00  0.00000000E+00  0.00000000E+00
  0.00000000E+00  0.00000000E+00  0.00000000E+00
  0.00000000E+00  0.00000000E+00  0.00000000E+00
  0.00000000E+00  0.00000000E+00  0.00000000E+00
  0.00000000E+00  0.00000000E+00  0.00000000E+00
  0.00000000E+00  0.00000000E+00  0.00000000E+00
  0.00000000E+00  0.00000000E+00  0.00000000E+00
  0.00000000E+00  0.00000000E+00  0.00000000E+00
  0.00000000E+00  0.00000000E+00  0.00000000E+00
  0.00000000E+00  0.00000000E+00  0.00000000E+00
